# vtk DataFile Version 2.0
Simplicial Mesh Example
ASCII
DATASET UNSTRUCTURED_GRID
POINTS 12999 double
4.900000e+04 7.662070e+02 0.0
4.905000e+04 6.332748e+02 0.0
4.910000e+04 7.656602e+02 0.0
4.770000e+04 7.697825e+02 0.0
4.775000e+04 6.364202e+02 0.0
4.780000e+04 7.696986e+02 0.0
4.640000e+04 7.692400e+02 0.0
4.645000e+04 6.360486e+02 0.0
4.650000e+04 7.693475e+02 0.0
4.510000e+04 7.680951e+02 0.0
4.515000e+04 6.350713e+02 0.0
4.520000e+04 7.681320e+02 0.0
4.380000e+04 7.683908e+02 0.0
4.385000e+04 6.352751e+02 0.0
4.390000e+04 7.683279e+02 0.0
4.250000e+04 7.694825e+02 0.0
4.255000e+04 6.361666e+02 0.0
4.260000e+04 7.693914e+02 0.0
4.120000e+04 7.704394e+02 0.0
4.125000e+04 6.369763e+02 0.0
4.130000e+04 7.703918e+02 0.0
3.990000e+04 7.704111e+02 0.0
3.995000e+04 6.369917e+02 0.0
4.000000e+04 7.704570e+02 0.0
3.860000e+04 7.691863e+02 0.0
3.865000e+04 6.360156e+02 0.0
3.870000e+04 7.693209e+02 0.0
3.730000e+04 7.668600e+02 0.0
3.735000e+04 6.341258e+02 0.0
3.740000e+04 7.670758e+02 0.0
3.600000e+04 7.635330e+02 0.0
3.605000e+04 6.314043e+02 0.0
3.610000e+04 7.638202e+02 0.0
3.460000e+04 7.593845e+02 0.0
3.465000e+04 6.279738e+02 0.0
3.470000e+04 7.596723e+02 0.0
3.330000e+04 7.562073e+02 0.0
3.335000e+04 6.253071e+02 0.0
3.340000e+04 7.564005e+02 0.0
3.200000e+04 7.549012e+02 0.0
3.205000e+04 6.241495e+02 0.0
3.210000e+04 7.549082e+02 0.0
3.060000e+04 7.564708e+02 0.0
3.065000e+04 6.253683e+02 0.0
3.070000e+04 7.562840e+02 0.0
2.930000e+04 7.590785e+02 0.0
2.935000e+04 6.275265e+02 0.0
2.940000e+04 7.588936e+02 0.0
2.800000e+04 7.604107e+02 0.0
2.805000e+04 6.287041e+02 0.0
2.810000e+04 7.604064e+02 0.0
2.660000e+04 7.578728e+02 0.0
2.665000e+04 6.267497e+02 0.0
2.670000e+04 7.582168e+02 0.0
2.520000e+04 7.515456e+02 0.0
2.525000e+04 6.215832e+02 0.0
2.530000e+04 7.520510e+02 0.0
2.390000e+04 7.453107e+02 0.0
2.395000e+04 6.163925e+02 0.0
2.400000e+04 7.457339e+02 0.0
2.250000e+04 7.416175e+02 0.0
2.255000e+04 6.131994e+02 0.0
2.260000e+04 7.417065e+02 0.0
2.110000e+04 7.427965e+02 0.0
2.115000e+04 6.140574e+02 0.0
2.120000e+04 7.425988e+02 0.0
1.980000e+04 7.459673e+02 0.0
1.985000e+04 6.166581e+02 0.0
1.990000e+04 7.457152e+02 0.0
1.840000e+04 7.484996e+02 0.0
1.845000e+04 6.188236e+02 0.0
1.850000e+04 7.484170e+02 0.0
1.700000e+04 7.474093e+02 0.0
1.705000e+04 6.180389e+02 0.0
1.710000e+04 7.476103e+02 0.0
1.560000e+04 7.432912e+02 0.0
1.565000e+04 6.146961e+02 0.0
1.570000e+04 7.436446e+02 0.0
1.420000e+04 7.380774e+02 0.0
1.425000e+04 6.103901e+02 0.0
1.430000e+04 7.384449e+02 0.0
1.270000e+04 7.333947e+02 0.0
1.275000e+04 6.064702e+02 0.0
1.280000e+04 7.336467e+02 0.0
1.130000e+04 7.309130e+02 0.0
1.135000e+04 6.043590e+02 0.0
1.140000e+04 7.310218e+02 0.0
9.900000e+03 7.306203e+02 0.0
9.950000e+03 6.040474e+02 0.0
1.000000e+04 7.305613e+02 0.0
8.500000e+03 7.328400e+02 0.0
8.550000e+03 6.058065e+02 0.0
8.600000e+03 7.325966e+02 0.0
7.000000e+03 7.376551e+02 0.0
7.050000e+03 6.097339e+02 0.0
7.100000e+03 7.372801e+02 0.0
5.600000e+03 7.433109e+02 0.0
5.650000e+03 6.143933e+02 0.0
5.700000e+03 7.428939e+02 0.0
4.100000e+03 7.493446e+02 0.0
4.150000e+03 6.193998e+02 0.0
4.200000e+03 7.489694e+02 0.0
2.600000e+03 7.540089e+02 0.0
2.650000e+03 6.233128e+02 0.0
2.700000e+03 7.537690e+02 0.0
1.100000e+03 7.558841e+02 0.0
1.150000e+03 6.249590e+02 0.0
1.200000e+03 7.558744e+02 0.0
-3.000000e+02 7.538696e+02 0.0
-2.500000e+02 6.234155e+02 0.0
-2.000000e+02 7.541547e+02 0.0
-1.800000e+03 7.480626e+02 0.0
-1.750000e+03 6.186711e+02 0.0
-1.700000e+03 7.484905e+02 0.0
-3.400000e+03 7.423724e+02 0.0
-3.350000e+03 6.138851e+02 0.0
-3.300000e+03 7.426089e+02 0.0
-4.900000e+03 7.424278e+02 0.0
-4.850000e+03 6.137280e+02 0.0
-4.800000e+03 7.421765e+02 0.0
-6.400000e+03 7.494207e+02 0.0
-6.350000e+03 6.193680e+02 0.0
-6.300000e+03 7.488208e+02 0.0
-8.000000e+03 7.594350e+02 0.0
-7.950000e+03 6.276558e+02 0.0
-7.900000e+03 7.588482e+02 0.0
-9.500000e+03 7.657132e+02 0.0
-9.450000e+03 6.329957e+02 0.0
-9.400000e+03 7.654837e+02 0.0
-1.110000e+04 7.663039e+02 0.0
-1.105000e+04 6.336175e+02 0.0
-1.100000e+04 7.664005e+02 0.0
-1.270000e+04 7.636623e+02 0.0
-1.265000e+04 6.314701e+02 0.0
-1.260000e+04 7.638514e+02 0.0
-1.430000e+04 7.614616e+02 0.0
-1.425000e+04 6.296016e+02 0.0
-1.420000e+04 7.615339e+02 0.0
-1.590000e+04 7.611575e+02 0.0
-1.585000e+04 6.293153e+02 0.0
-1.580000e+04 7.611440e+02 0.0
-1.750000e+04 7.614344e+02 0.0
-1.745000e+04 6.295479e+02 0.0
-1.740000e+04 7.614282e+02 0.0
-1.920000e+04 7.607814e+02 0.0
-1.915000e+04 6.290444e+02 0.0
-1.910000e+04 7.608629e+02 0.0
-2.080000e+04 7.588794e+02 0.0
-2.075000e+04 6.274989e+02 0.0
-2.070000e+04 7.590269e+02 0.0
-2.250000e+04 7.559722e+02 0.0
-2.245000e+04 6.251115e+02 0.0
-2.240000e+04 7.561593e+02 0.0
-2.420000e+04 7.525989e+02 0.0
-2.415000e+04 6.223317e+02 0.0
-2.410000e+04 7.528084e+02 0.0
-2.590000e+04 7.487692e+02 0.0
-2.585000e+04 6.191783e+02 0.0
-2.580000e+04 7.490099e+02 0.0
-2.770000e+04 7.440501e+02 0.0
-2.765000e+04 6.152927e+02 0.0
-2.760000e+04 7.443301e+02 0.0
-2.940000e+04 7.396356e+02 0.0
-2.935000e+04 6.116167e+02 0.0
-2.930000e+04 7.398546e+02 0.0
-3.120000e+04 7.375620e+02 0.0
-3.115000e+04 6.098095e+02 0.0
-3.110000e+04 7.375588e+02 0.0
-3.310000e+04 7.410514e+02 0.0
-3.305000e+04 6.125601e+02 0.0
-3.300000e+04 7.407222e+02 0.0
-3.490000e+04 7.484994e+02 0.0
-3.485000e+04 6.186659e+02 0.0
-3.480000e+04 7.480412e+02 0.0
-3.680000e+04 7.567781e+02 0.0
-3.675000e+04 6.255420e+02 0.0
-3.670000e+04 7.563934e+02 0.0
-3.760000e+04 7.595972e+02 0.0
-3.755000e+04 6.278963e+02 0.0
-3.750000e+04 7.592695e+02 0.0
-3.765000e+04 6.281645e+02 0.0
-3.775000e+04 6.284271e+02 0.0
-3.770000e+04 7.599182e+02 0.0
-3.785000e+04 6.286840e+02 0.0
-3.780000e+04 7.602323e+02 0.0
-3.795000e+04 6.289354e+02 0.0
-3.790000e+04 7.605397e+02 0.0
-3.805000e+04 6.291813e+02 0.0
-3.800000e+04 7.608405e+02 0.0
-3.825000e+04 6.296568e+02 0.0
-3.815000e+04 6.294218e+02 0.0
-3.820000e+04 7.614222e+02 0.0
-3.835000e+04 6.298865e+02 0.0
-3.830000e+04 7.617032e+02 0.0
-3.845000e+04 6.301109e+02 0.0
-3.840000e+04 7.619778e+02 0.0
-3.855000e+04 6.303301e+02 0.0
-3.850000e+04 7.622461e+02 0.0
-3.865000e+04 6.305441e+02 0.0
-3.860000e+04 7.625080e+02 0.0
-3.875000e+04 6.307529e+02 0.0
-3.870000e+04 7.627636e+02 0.0
-3.900000e+04 7.634936e+02 0.0
-3.895000e+04 6.311552e+02 0.0
-3.890000e+04 7.632564e+02 0.0
-3.905000e+04 6.313488e+02 0.0
-3.915000e+04 6.315375e+02 0.0
-3.910000e+04 7.637248e+02 0.0
-3.925000e+04 6.317212e+02 0.0
-3.920000e+04 7.639500e+02 0.0
-3.935000e+04 6.319001e+02 0.0
-3.930000e+04 7.641693e+02 0.0
-3.945000e+04 6.320742e+02 0.0
-3.940000e+04 7.643828e+02 0.0
-3.965000e+04 6.324081e+02 0.0
-3.955000e+04 6.322435e+02 0.0
-3.960000e+04 7.647923e+02 0.0
-3.975000e+04 6.325681e+02 0.0
-3.970000e+04 7.649886e+02 0.0
-3.985000e+04 6.327234e+02 0.0
-3.980000e+04 7.651792e+02 0.0
-3.995000e+04 6.328741e+02 0.0
-3.990000e+04 7.653643e+02 0.0
-4.005000e+04 6.330203e+02 0.0
-4.000000e+04 7.655438e+02 0.0
-4.015000e+04 6.331620e+02 0.0
-4.010000e+04 7.657180e+02 0.0
-4.025000e+04 6.332994e+02 0.0
-4.020000e+04 7.658867e+02 0.0
-4.050000e+04 7.663612e+02 0.0
-4.045000e+04 6.335609e+02 0.0
-4.040000e+04 7.662083e+02 0.0
-4.055000e+04 6.336852e+02 0.0
-4.065000e+04 6.338053e+02 0.0
-4.060000e+04 7.665090e+02 0.0
-4.075000e+04 6.339212e+02 0.0
-4.070000e+04 7.666518e+02 0.0
-4.085000e+04 6.340330e+02 0.0
-4.080000e+04 7.667894e+02 0.0
-4.095000e+04 6.341407e+02 0.0
-4.090000e+04 7.669222e+02 0.0
-4.105000e+04 6.342443e+02 0.0
-4.100000e+04 7.670499e+02 0.0
-4.115000e+04 6.343438e+02 0.0
-4.110000e+04 7.671728e+02 0.0
-4.135000e+04 6.345306e+02 0.0
-4.125000e+04 6.344393e+02 0.0
-4.130000e+04 7.674037e+02 0.0
-4.145000e+04 6.346178e+02 0.0
-4.140000e+04 7.675116e+02 0.0
-4.155000e+04 6.347008e+02 0.0
-4.150000e+04 7.676146e+02 0.0
-4.165000e+04 6.347797e+02 0.0
-4.160000e+04 7.677125e+02 0.0
-4.175000e+04 6.348544e+02 0.0
-4.170000e+04 7.678053e+02 0.0
-4.185000e+04 6.349248e+02 0.0
-4.180000e+04 7.678931e+02 0.0
-4.195000e+04 6.349911e+02 0.0
-4.190000e+04 7.679758e+02 0.0
-4.205000e+04 6.350531e+02 0.0
-4.200000e+04 7.680533e+02 0.0
-4.215000e+04 6.351108e+02 0.0
-4.210000e+04 7.681257e+02 0.0
-4.235000e+04 6.352134e+02 0.0
-4.225000e+04 6.351643e+02 0.0
-4.230000e+04 7.682551e+02 0.0
-4.245000e+04 6.352583e+02 0.0
-4.240000e+04 7.683119e+02 0.0
-4.255000e+04 6.352988e+02 0.0
-4.250000e+04 7.683635e+02 0.0
-4.265000e+04 6.353350e+02 0.0
-4.260000e+04 7.684099e+02 0.0
-4.275000e+04 6.353668e+02 0.0
-4.270000e+04 7.684510e+02 0.0
-4.285000e+04 6.353942e+02 0.0
-4.280000e+04 7.684869e+02 0.0
-4.295000e+04 6.354172e+02 0.0
-4.290000e+04 7.685174e+02 0.0
-4.305000e+04 6.354358e+02 0.0
-4.300000e+04 7.685425e+02 0.0
-4.315000e+04 6.354500e+02 0.0
-4.310000e+04 7.685623e+02 0.0
-4.335000e+04 6.354649e+02 0.0
-4.325000e+04 6.354597e+02 0.0
-4.330000e+04 7.685858e+02 0.0
-4.345000e+04 6.354656e+02 0.0
-4.340000e+04 7.685894e+02 0.0
-4.355000e+04 6.354619e+02 0.0
-4.350000e+04 7.685876e+02 0.0
-4.365000e+04 6.354536e+02 0.0
-4.360000e+04 7.685803e+02 0.0
-4.375000e+04 6.354407e+02 0.0
-4.370000e+04 7.685675e+02 0.0
-4.385000e+04 6.354233e+02 0.0
-4.380000e+04 7.685492e+02 0.0
-4.395000e+04 6.354013e+02 0.0
-4.390000e+04 7.685254e+02 0.0
-4.405000e+04 6.353747e+02 0.0
-4.400000e+04 7.684960e+02 0.0
-4.415000e+04 6.353435e+02 0.0
-4.410000e+04 7.684611e+02 0.0
-4.425000e+04 6.353077e+02 0.0
-4.420000e+04 7.684205e+02 0.0
-4.435000e+04 6.352672e+02 0.0
-4.430000e+04 7.683744e+02 0.0
-4.445000e+04 6.352221e+02 0.0
-4.440000e+04 7.683226e+02 0.0
-4.470000e+04 7.681332e+02 0.0
-4.465000e+04 6.351177e+02 0.0
-4.460000e+04 7.682020e+02 0.0
-4.475000e+04 6.350584e+02 0.0
-4.485000e+04 6.349944e+02 0.0
-4.480000e+04 7.680586e+02 0.0
-4.495000e+04 6.349256e+02 0.0
-4.490000e+04 7.679783e+02 0.0
-4.505000e+04 6.348521e+02 0.0
-4.500000e+04 7.678923e+02 0.0
-4.515000e+04 6.347737e+02 0.0
-4.510000e+04 7.678004e+02 0.0
-4.525000e+04 6.346906e+02 0.0
-4.520000e+04 7.677028e+02 0.0
-4.535000e+04 6.346026e+02 0.0
-4.530000e+04 7.675993e+02 0.0
-4.545000e+04 6.345098e+02 0.0
-4.540000e+04 7.674899e+02 0.0
-4.555000e+04 6.344121e+02 0.0
-4.550000e+04 7.673747e+02 0.0
-4.565000e+04 6.343101e+02 0.0
-4.560000e+04 7.672539e+02 0.0
-4.575000e+04 6.342041e+02 0.0
-4.570000e+04 7.671281e+02 0.0
-4.585000e+04 6.340947e+02 0.0
-4.580000e+04 7.669977e+02 0.0
-4.595000e+04 6.339823e+02 0.0
-4.590000e+04 7.668635e+02 0.0
-4.605000e+04 6.338674e+02 0.0
-4.600000e+04 7.667260e+02 0.0
-4.630000e+04 7.662992e+02 0.0
-4.625000e+04 6.336320e+02 0.0
-4.620000e+04 7.664433e+02 0.0
-4.635000e+04 6.335124e+02 0.0
-4.645000e+04 6.333923e+02 0.0
-4.640000e+04 7.661542e+02 0.0
-4.655000e+04 6.332720e+02 0.0
-4.650000e+04 7.660087e+02 0.0
-4.665000e+04 6.331521e+02 0.0
-4.660000e+04 7.658634e+02 0.0
-4.675000e+04 6.330330e+02 0.0
-4.670000e+04 7.657188e+02 0.0
-4.685000e+04 6.329152e+02 0.0
-4.680000e+04 7.655755e+02 0.0
-4.695000e+04 6.327993e+02 0.0
-4.690000e+04 7.654341e+02 0.0
-4.705000e+04 6.326856e+02 0.0
-4.700000e+04 7.652951e+02 0.0
-4.715000e+04 6.325746e+02 0.0
-4.710000e+04 7.651592e+02 0.0
-4.725000e+04 6.324668e+02 0.0
-4.720000e+04 7.650268e+02 0.0
-4.735000e+04 6.323628e+02 0.0
-4.730000e+04 7.648987e+02 0.0
-4.745000e+04 6.322629e+02 0.0
-4.740000e+04 7.647753e+02 0.0
-4.755000e+04 6.321677e+02 0.0
-4.750000e+04 7.646572e+02 0.0
-4.765000e+04 6.320776e+02 0.0
-4.760000e+04 7.645450e+02 0.0
-4.775000e+04 6.319931e+02 0.0
-4.770000e+04 7.644394e+02 0.0
-4.785000e+04 6.319147e+02 0.0
-4.780000e+04 7.643408e+02 0.0
-4.795000e+04 6.318428e+02 0.0
-4.790000e+04 7.642498e+02 0.0
-4.805000e+04 6.317780e+02 0.0
-4.800000e+04 7.641671e+02 0.0
-4.815000e+04 6.317206e+02 0.0
-4.810000e+04 7.640932e+02 0.0
-4.825000e+04 6.316713e+02 0.0
-4.820000e+04 7.640286e+02 0.0
-4.835000e+04 6.316305e+02 0.0
-4.830000e+04 7.639740e+02 0.0
-4.845000e+04 6.315985e+02 0.0
-4.840000e+04 7.639299e+02 0.0
-4.855000e+04 6.315760e+02 0.0
-4.850000e+04 7.638969e+02 0.0
-4.865000e+04 6.315634e+02 0.0
-4.860000e+04 7.638756e+02 0.0
-4.875000e+04 6.315612e+02 0.0
-4.870000e+04 7.638665e+02 0.0
-4.885000e+04 6.315698e+02 0.0
-4.880000e+04 7.638703e+02 0.0
-4.895000e+04 6.315897e+02 0.0
-4.890000e+04 7.638875e+02 0.0
-4.905000e+04 6.316215e+02 0.0
-4.900000e+04 7.639187e+02 0.0
-4.915000e+04 6.316655e+02 0.0
-4.910000e+04 7.639645e+02 0.0
-4.925000e+04 6.317223e+02 0.0
-4.920000e+04 7.640253e+02 0.0
-4.935000e+04 6.317923e+02 0.0
-4.930000e+04 7.641020e+02 0.0
-4.945000e+04 6.318760e+02 0.0
-4.940000e+04 7.641949e+02 0.0
-4.955000e+04 6.319739e+02 0.0
-4.950000e+04 7.643046e+02 0.0
-4.965000e+04 6.320865e+02 0.0
-4.960000e+04 7.644318e+02 0.0
-4.975429e+04 6.245499e+02 0.0
-4.970000e+04 7.645771e+02 0.0
-4.986100e+04 6.298611e+02 0.0
-4.980000e+04 7.647409e+02 0.0
-5.000000e+04 7.651267e+02 0.0
-5.000000e+04 6.121014e+02 0.0
-4.990000e+04 7.649240e+02 0.0
-4.615000e+04 6.337505e+02 0.0
-4.610000e+04 7.665857e+02 0.0
-4.455000e+04 6.351722e+02 0.0
-4.450000e+04 7.682652e+02 0.0
-4.320000e+04 7.685768e+02 0.0
-4.991340e+04 3.824750e+02 0.0
-4.991555e+04 5.308773e+02 0.0
-5.000000e+04 4.590760e+02 0.0
-4.220000e+04 7.681930e+02 0.0
-4.991340e+04 2.294850e+02 0.0
-5.000000e+04 3.060507e+02 0.0
-4.120000e+04 7.672907e+02 0.0
-4.035000e+04 6.334323e+02 0.0
-4.030000e+04 7.660501e+02 0.0
-4.991340e+04 -7.649500e+01 0.0
-4.991340e+04 7.649500e+01 0.0
-5.000000e+04 0.000000e+00 0.0
-3.950000e+04 7.645904e+02 0.0
-3.885000e+04 6.309566e+02 0.0
-3.880000e+04 7.630131e+02 0.0
-5.000000e+04 -4.590760e+02 0.0
-4.990900e+04 -3.869427e+02 0.0
-5.000000e+04 -3.060507e+02 0.0
-3.810000e+04 7.611346e+02 0.0
-4.991307e+04 -5.330496e+02 0.0
-3.745000e+04 6.276225e+02 0.0
-3.740000e+04 7.589348e+02 0.0
-5.000000e+04 -7.651267e+02 0.0
-4.990000e+04 -7.649240e+02 0.0
-5.000000e+04 -6.121014e+02 0.0
-3.735000e+04 6.273429e+02 0.0
-3.730000e+04 7.585931e+02 0.0
-3.725000e+04 6.270575e+02 0.0
-3.720000e+04 7.582444e+02 0.0
-4.980000e+04 -7.647409e+02 0.0
-4.986037e+04 -6.334346e+02 0.0
-4.991340e+04 -2.294850e+02 0.0
-5.000000e+04 -1.530253e+02 0.0
-3.715000e+04 6.267663e+02 0.0
-3.710000e+04 7.578886e+02 0.0
-4.975108e+04 -6.312769e+02 0.0
-3.705000e+04 6.264691e+02 0.0
-3.700000e+04 7.575257e+02 0.0
-4.965000e+04 -6.320865e+02 0.0
-4.970000e+04 -7.645771e+02 0.0
-3.695000e+04 6.261661e+02 0.0
-3.690000e+04 7.571555e+02 0.0
-4.955000e+04 -6.319739e+02 0.0
-4.960000e+04 -7.644318e+02 0.0
-3.685000e+04 6.258571e+02 0.0
-4.945000e+04 -6.318760e+02 0.0
-4.950000e+04 -7.643046e+02 0.0
-3.665000e+04 6.252209e+02 0.0
-3.660000e+04 7.560013e+02 0.0
-3.655000e+04 6.248937e+02 0.0
-3.650000e+04 7.556018e+02 0.0
-4.925000e+04 -6.317223e+02 0.0
-4.935000e+04 -6.317923e+02 0.0
-4.930000e+04 -7.641020e+02 0.0
-3.645000e+04 6.245602e+02 0.0
-3.640000e+04 7.551947e+02 0.0
-4.915000e+04 -6.316655e+02 0.0
-4.920000e+04 -7.640253e+02 0.0
-3.635000e+04 6.242206e+02 0.0
-3.630000e+04 7.547802e+02 0.0
-4.905000e+04 -6.316215e+02 0.0
-4.910000e+04 -7.639645e+02 0.0
-3.625000e+04 6.238748e+02 0.0
-3.620000e+04 7.543584e+02 0.0
-4.895000e+04 -6.315897e+02 0.0
-4.900000e+04 -7.639187e+02 0.0
-3.615000e+04 6.235233e+02 0.0
-3.610000e+04 7.539301e+02 0.0
-4.885000e+04 -6.315698e+02 0.0
-4.890000e+04 -7.638875e+02 0.0
-3.605000e+04 6.231666e+02 0.0
-3.600000e+04 7.534958e+02 0.0
-4.875000e+04 -6.315612e+02 0.0
-4.880000e+04 -7.638703e+02 0.0
-3.595000e+04 6.228053e+02 0.0
-3.590000e+04 7.530562e+02 0.0
-4.865000e+04 -6.315634e+02 0.0
-4.870000e+04 -7.638665e+02 0.0
-3.585000e+04 6.224397e+02 0.0
-3.580000e+04 7.526118e+02 0.0
-4.855000e+04 -6.315760e+02 0.0
-4.860000e+04 -7.638756e+02 0.0
-3.575000e+04 6.220705e+02 0.0
-3.570000e+04 7.521632e+02 0.0
-4.845000e+04 -6.315985e+02 0.0
-4.850000e+04 -7.638969e+02 0.0
-3.565000e+04 6.216982e+02 0.0
-3.560000e+04 7.517112e+02 0.0
-4.835000e+04 -6.316305e+02 0.0
-4.840000e+04 -7.639299e+02 0.0
-3.555000e+04 6.213232e+02 0.0
-3.550000e+04 7.512562e+02 0.0
-4.825000e+04 -6.316713e+02 0.0
-4.830000e+04 -7.639740e+02 0.0
-3.545000e+04 6.209460e+02 0.0
-3.540000e+04 7.507989e+02 0.0
-3.535000e+04 6.205671e+02 0.0
-3.530000e+04 7.503400e+02 0.0
-4.805000e+04 -6.317780e+02 0.0
-4.815000e+04 -6.317206e+02 0.0
-4.810000e+04 -7.640932e+02 0.0
-3.525000e+04 6.201872e+02 0.0
-3.520000e+04 7.498799e+02 0.0
-4.795000e+04 -6.318428e+02 0.0
-4.800000e+04 -7.641671e+02 0.0
-3.515000e+04 6.198065e+02 0.0
-3.510000e+04 7.494194e+02 0.0
-3.505000e+04 6.194258e+02 0.0
-3.500000e+04 7.489590e+02 0.0
-4.775000e+04 -6.319931e+02 0.0
-4.785000e+04 -6.319147e+02 0.0
-4.780000e+04 -7.643408e+02 0.0
-3.495000e+04 6.190454e+02 0.0
-4.765000e+04 -6.320776e+02 0.0
-4.770000e+04 -7.644394e+02 0.0
-3.475000e+04 6.182878e+02 0.0
-3.470000e+04 7.475849e+02 0.0
-4.755000e+04 -6.321677e+02 0.0
-4.760000e+04 -7.645450e+02 0.0
-3.465000e+04 6.179115e+02 0.0
-3.460000e+04 7.471312e+02 0.0
-4.745000e+04 -6.322629e+02 0.0
-4.750000e+04 -7.646572e+02 0.0
-3.455000e+04 6.175377e+02 0.0
-3.450000e+04 7.466807e+02 0.0
-4.735000e+04 -6.323628e+02 0.0
-4.740000e+04 -7.647753e+02 0.0
-3.445000e+04 6.171667e+02 0.0
-3.440000e+04 7.462340e+02 0.0
-4.725000e+04 -6.324668e+02 0.0
-4.730000e+04 -7.648987e+02 0.0
-3.435000e+04 6.167991e+02 0.0
-3.430000e+04 7.457917e+02 0.0
-4.715000e+04 -6.325746e+02 0.0
-4.720000e+04 -7.650268e+02 0.0
-3.425000e+04 6.164355e+02 0.0
-3.420000e+04 7.453545e+02 0.0
-4.705000e+04 -6.326856e+02 0.0
-4.710000e+04 -7.651592e+02 0.0
-3.415000e+04 6.160762e+02 0.0
-3.410000e+04 7.449229e+02 0.0
-4.695000e+04 -6.327993e+02 0.0
-4.700000e+04 -7.652951e+02 0.0
-3.405000e+04 6.157219e+02 0.0
-3.400000e+04 7.444975e+02 0.0
-4.685000e+04 -6.329152e+02 0.0
-4.690000e+04 -7.654341e+02 0.0
-3.395000e+04 6.153730e+02 0.0
-3.390000e+04 7.440790e+02 0.0
-3.385000e+04 6.150300e+02 0.0
-3.380000e+04 7.436680e+02 0.0
-4.665000e+04 -6.331521e+02 0.0
-4.675000e+04 -6.330330e+02 0.0
-4.670000e+04 -7.657188e+02 0.0
-3.375000e+04 6.146935e+02 0.0
-3.370000e+04 7.432651e+02 0.0
-3.365000e+04 6.143639e+02 0.0
-3.360000e+04 7.428708e+02 0.0
-3.355000e+04 6.140417e+02 0.0
-3.350000e+04 7.424859e+02 0.0
-4.635000e+04 -6.335124e+02 0.0
-4.645000e+04 -6.333923e+02 0.0
-4.640000e+04 -7.661542e+02 0.0
-3.345000e+04 6.137275e+02 0.0
-3.340000e+04 7.421109e+02 0.0
-4.625000e+04 -6.336320e+02 0.0
-4.630000e+04 -7.662992e+02 0.0
-3.335000e+04 6.134217e+02 0.0
-3.330000e+04 7.417464e+02 0.0
-3.325000e+04 6.131249e+02 0.0
-3.320000e+04 7.413930e+02 0.0
-3.315000e+04 6.128375e+02 0.0
-4.595000e+04 -6.339823e+02 0.0
-4.605000e+04 -6.338674e+02 0.0
-4.600000e+04 -7.667260e+02 0.0
-3.295000e+04 6.122932e+02 0.0
-3.290000e+04 7.404059e+02 0.0
-4.585000e+04 -6.340947e+02 0.0
-4.590000e+04 -7.668635e+02 0.0
-3.285000e+04 6.120372e+02 0.0
-3.280000e+04 7.401032e+02 0.0
-4.575000e+04 -6.342041e+02 0.0
-4.580000e+04 -7.669977e+02 0.0
-3.275000e+04 6.117928e+02 0.0
-3.270000e+04 7.398147e+02 0.0
-4.565000e+04 -6.343101e+02 0.0
-4.570000e+04 -7.671281e+02 0.0
-3.265000e+04 6.115603e+02 0.0
-3.260000e+04 7.395410e+02 0.0
-4.555000e+04 -6.344121e+02 0.0
-4.560000e+04 -7.672539e+02 0.0
-3.255000e+04 6.113403e+02 0.0
-3.250000e+04 7.392827e+02 0.0
-3.245000e+04 6.111334e+02 0.0
-3.240000e+04 7.390405e+02 0.0
-4.535000e+04 -6.346026e+02 0.0
-4.545000e+04 -6.345098e+02 0.0
-4.540000e+04 -7.674899e+02 0.0
-3.235000e+04 6.109399e+02 0.0
-3.230000e+04 7.388148e+02 0.0
-4.525000e+04 -6.346906e+02 0.0
-4.530000e+04 -7.675993e+02 0.0
-3.225000e+04 6.107604e+02 0.0
-3.220000e+04 7.386065e+02 0.0
-3.215000e+04 6.105954e+02 0.0
-3.210000e+04 7.384160e+02 0.0
-4.505000e+04 -6.348521e+02 0.0
-4.515000e+04 -6.347737e+02 0.0
-4.510000e+04 -7.678004e+02 0.0
-3.205000e+04 6.104455e+02 0.0
-3.200000e+04 7.382439e+02 0.0
-3.195000e+04 6.103111e+02 0.0
-3.190000e+04 7.380909e+02 0.0
-4.485000e+04 -6.349944e+02 0.0
-4.495000e+04 -6.349256e+02 0.0
-4.490000e+04 -7.679783e+02 0.0
-3.185000e+04 6.101927e+02 0.0
-3.180000e+04 7.379577e+02 0.0
-4.475000e+04 -6.350584e+02 0.0
-4.480000e+04 -7.680586e+02 0.0
-3.175000e+04 6.100908e+02 0.0
-3.170000e+04 7.378444e+02 0.0
-4.465000e+04 -6.351177e+02 0.0
-4.470000e+04 -7.681332e+02 0.0
-3.165000e+04 6.100053e+02 0.0
-3.160000e+04 7.377507e+02 0.0
-3.155000e+04 6.099358e+02 0.0
-3.150000e+04 7.376762e+02 0.0
-4.445000e+04 -6.352221e+02 0.0
-4.455000e+04 -6.351722e+02 0.0
-4.450000e+04 -7.682652e+02 0.0
-3.145000e+04 6.098819e+02 0.0
-3.140000e+04 7.376202e+02 0.0
-4.435000e+04 -6.352672e+02 0.0
-4.440000e+04 -7.683226e+02 0.0
-3.135000e+04 6.098431e+02 0.0
-3.130000e+04 7.375823e+02 0.0
-4.425000e+04 -6.353077e+02 0.0
-4.430000e+04 -7.683744e+02 0.0
-3.125000e+04 6.098191e+02 0.0
-4.415000e+04 -6.353435e+02 0.0
-4.420000e+04 -7.684205e+02 0.0
-3.105000e+04 6.098137e+02 0.0
-3.100000e+04 7.375722e+02 0.0
-4.405000e+04 -6.353747e+02 0.0
-4.410000e+04 -7.684611e+02 0.0
-3.095000e+04 6.098315e+02 0.0
-3.090000e+04 7.376018e+02 0.0
-4.395000e+04 -6.354013e+02 0.0
-4.400000e+04 -7.684960e+02 0.0
-3.085000e+04 6.098624e+02 0.0
-3.080000e+04 7.376469e+02 0.0
-4.385000e+04 -6.354233e+02 0.0
-4.390000e+04 -7.685254e+02 0.0
-3.075000e+04 6.099060e+02 0.0
-3.070000e+04 7.377071e+02 0.0
-4.375000e+04 -6.354407e+02 0.0
-4.380000e+04 -7.685492e+02 0.0
-3.065000e+04 6.099619e+02 0.0
-3.060000e+04 7.377819e+02 0.0
-3.055000e+04 6.100296e+02 0.0
-3.050000e+04 7.378707e+02 0.0
-3.045000e+04 6.101088e+02 0.0
-3.040000e+04 7.379732e+02 0.0
-4.345000e+04 -6.354656e+02 0.0
-4.355000e+04 -6.354619e+02 0.0
-4.350000e+04 -7.685876e+02 0.0
-3.035000e+04 6.101990e+02 0.0
-3.030000e+04 7.380888e+02 0.0
-4.335000e+04 -6.354649e+02 0.0
-4.340000e+04 -7.685894e+02 0.0
-3.025000e+04 6.102998e+02 0.0
-3.020000e+04 7.382170e+02 0.0
-3.015000e+04 6.104108e+02 0.0
-3.010000e+04 7.383572e+02 0.0
-4.315000e+04 -6.354500e+02 0.0
-4.325000e+04 -6.354597e+02 0.0
-4.320000e+04 -7.685768e+02 0.0
-3.005000e+04 6.105316e+02 0.0
-3.000000e+04 7.385091e+02 0.0
-4.305000e+04 -6.354358e+02 0.0
-4.310000e+04 -7.685623e+02 0.0
-2.995000e+04 6.106618e+02 0.0
-2.990000e+04 7.386720e+02 0.0
-4.295000e+04 -6.354172e+02 0.0
-4.300000e+04 -7.685425e+02 0.0
-2.985000e+04 6.108010e+02 0.0
-2.980000e+04 7.388456e+02 0.0
-4.285000e+04 -6.353942e+02 0.0
-4.290000e+04 -7.685174e+02 0.0
-2.975000e+04 6.109487e+02 0.0
-2.970000e+04 7.390292e+02 0.0
-2.965000e+04 6.111045e+02 0.0
-2.960000e+04 7.392224e+02 0.0
-4.265000e+04 -6.353350e+02 0.0
-4.275000e+04 -6.353668e+02 0.0
-4.270000e+04 -7.684510e+02 0.0
-2.955000e+04 6.112681e+02 0.0
-2.950000e+04 7.394247e+02 0.0
-4.255000e+04 -6.352988e+02 0.0
-4.260000e+04 -7.684099e+02 0.0
-2.945000e+04 6.114389e+02 0.0
-4.245000e+04 -6.352583e+02 0.0
-4.250000e+04 -7.683635e+02 0.0
-2.925000e+04 6.118010e+02 0.0
-2.920000e+04 7.400812e+02 0.0
-4.235000e+04 -6.352134e+02 0.0
-4.240000e+04 -7.683119e+02 0.0
-2.915000e+04 6.119913e+02 0.0
-2.910000e+04 7.403149e+02 0.0
-2.905000e+04 6.121872e+02 0.0
-2.900000e+04 7.405551e+02 0.0
-4.215000e+04 -6.351108e+02 0.0
-4.225000e+04 -6.351643e+02 0.0
-4.220000e+04 -7.681930e+02 0.0
-2.895000e+04 6.123884e+02 0.0
-2.890000e+04 7.408015e+02 0.0
-4.205000e+04 -6.350531e+02 0.0
-4.210000e+04 -7.681257e+02 0.0
-2.885000e+04 6.125945e+02 0.0
-2.880000e+04 7.410534e+02 0.0
-4.195000e+04 -6.349911e+02 0.0
-4.200000e+04 -7.680533e+02 0.0
-2.875000e+04 6.128049e+02 0.0
-2.870000e+04 7.413104e+02 0.0
-4.185000e+04 -6.349248e+02 0.0
-4.190000e+04 -7.679758e+02 0.0
-2.865000e+04 6.130194e+02 0.0
-2.860000e+04 7.415720e+02 0.0
-4.175000e+04 -6.348544e+02 0.0
-4.180000e+04 -7.678931e+02 0.0
-2.855000e+04 6.132374e+02 0.0
-2.850000e+04 7.418377e+02 0.0
-4.165000e+04 -6.347797e+02 0.0
-4.170000e+04 -7.678053e+02 0.0
-2.845000e+04 6.134586e+02 0.0
-2.840000e+04 7.421069e+02 0.0
-4.155000e+04 -6.347008e+02 0.0
-4.160000e+04 -7.677125e+02 0.0
-2.835000e+04 6.136825e+02 0.0
-2.830000e+04 7.423793e+02 0.0
-4.145000e+04 -6.346178e+02 0.0
-4.150000e+04 -7.676146e+02 0.0
-2.825000e+04 6.139088e+02 0.0
-2.820000e+04 7.426542e+02 0.0
-2.815000e+04 6.141371e+02 0.0
-2.810000e+04 7.429312e+02 0.0
-2.805000e+04 6.143668e+02 0.0
-2.800000e+04 7.432098e+02 0.0
-4.115000e+04 -6.343438e+02 0.0
-4.125000e+04 -6.344393e+02 0.0
-4.120000e+04 -7.672907e+02 0.0
-2.795000e+04 6.145977e+02 0.0
-2.790000e+04 7.434895e+02 0.0
-4.105000e+04 -6.342443e+02 0.0
-4.110000e+04 -7.671728e+02 0.0
-2.785000e+04 6.148292e+02 0.0
-2.780000e+04 7.437698e+02 0.0
-2.775000e+04 6.150610e+02 0.0
-4.085000e+04 -6.340330e+02 0.0
-4.095000e+04 -6.341407e+02 0.0
-4.090000e+04 -7.669222e+02 0.0
-2.755000e+04 6.155238e+02 0.0
-2.750000e+04 7.446091e+02 0.0
-2.745000e+04 6.157539e+02 0.0
-2.740000e+04 7.448867e+02 0.0
-4.065000e+04 -6.338053e+02 0.0
-4.075000e+04 -6.339212e+02 0.0
-4.070000e+04 -7.666518e+02 0.0
-2.735000e+04 6.159827e+02 0.0
-2.730000e+04 7.451623e+02 0.0
-4.055000e+04 -6.336852e+02 0.0
-4.060000e+04 -7.665090e+02 0.0
-2.725000e+04 6.162097e+02 0.0
-2.720000e+04 7.454356e+02 0.0
-4.045000e+04 -6.335609e+02 0.0
-4.050000e+04 -7.663612e+02 0.0
-2.715000e+04 6.164346e+02 0.0
-2.710000e+04 7.457063e+02 0.0
-2.705000e+04 6.166574e+02 0.0
-2.700000e+04 7.459746e+02 0.0
-4.025000e+04 -6.332994e+02 0.0
-4.035000e+04 -6.334323e+02 0.0
-4.030000e+04 -7.660501e+02 0.0
-2.695000e+04 6.168781e+02 0.0
-2.690000e+04 7.462404e+02 0.0
-4.015000e+04 -6.331620e+02 0.0
-4.020000e+04 -7.658867e+02 0.0
-2.685000e+04 6.170969e+02 0.0
-2.680000e+04 7.465037e+02 0.0
-4.005000e+04 -6.330203e+02 0.0
-4.010000e+04 -7.657180e+02 0.0
-2.675000e+04 6.173136e+02 0.0
-2.670000e+04 7.467646e+02 0.0
-2.665000e+04 6.175283e+02 0.0
-2.660000e+04 7.470232e+02 0.0
-3.985000e+04 -6.327234e+02 0.0
-3.995000e+04 -6.328741e+02 0.0
-3.990000e+04 -7.653643e+02 0.0
-2.655000e+04 6.177411e+02 0.0
-2.650000e+04 7.472794e+02 0.0
-3.975000e+04 -6.325681e+02 0.0
-3.980000e+04 -7.651792e+02 0.0
-2.645000e+04 6.179520e+02 0.0
-2.640000e+04 7.475333e+02 0.0
-3.965000e+04 -6.324081e+02 0.0
-3.970000e+04 -7.649886e+02 0.0
-2.635000e+04 6.181610e+02 0.0
-2.630000e+04 7.477849e+02 0.0
-2.625000e+04 6.183681e+02 0.0
-2.620000e+04 7.480343e+02 0.0
-3.945000e+04 -6.320742e+02 0.0
-3.955000e+04 -6.322435e+02 0.0
-3.950000e+04 -7.645904e+02 0.0
-2.615000e+04 6.185734e+02 0.0
-2.610000e+04 7.482814e+02 0.0
-2.605000e+04 6.187768e+02 0.0
-2.600000e+04 7.485264e+02 0.0
-3.925000e+04 -6.317212e+02 0.0
-3.935000e+04 -6.319001e+02 0.0
-3.930000e+04 -7.641693e+02 0.0
-2.595000e+04 6.189784e+02 0.0
-3.915000e+04 -6.315375e+02 0.0
-3.920000e+04 -7.639500e+02 0.0
-2.575000e+04 6.193765e+02 0.0
-2.570000e+04 7.492486e+02 0.0
-3.905000e+04 -6.313488e+02 0.0
-3.910000e+04 -7.637248e+02 0.0
-2.565000e+04 6.195729e+02 0.0
-2.560000e+04 7.494851e+02 0.0
-3.895000e+04 -6.311552e+02 0.0
-3.900000e+04 -7.634936e+02 0.0
-2.555000e+04 6.197677e+02 0.0
-2.550000e+04 7.497197e+02 0.0
-2.545000e+04 6.199607e+02 0.0
-2.540000e+04 7.499522e+02 0.0
-3.875000e+04 -6.307529e+02 0.0
-3.885000e+04 -6.309566e+02 0.0
-3.880000e+04 -7.630131e+02 0.0
-2.535000e+04 6.201522e+02 0.0
-2.530000e+04 7.501828e+02 0.0
-3.865000e+04 -6.305441e+02 0.0
-3.870000e+04 -7.627636e+02 0.0
-2.525000e+04 6.203420e+02 0.0
-2.520000e+04 7.504114e+02 0.0
-2.515000e+04 6.205303e+02 0.0
-2.510000e+04 7.506382e+02 0.0
-3.845000e+04 -6.301109e+02 0.0
-3.855000e+04 -6.303301e+02 0.0
-3.850000e+04 -7.622461e+02 0.0
-2.505000e+04 6.207170e+02 0.0
-2.500000e+04 7.508631e+02 0.0
-3.835000e+04 -6.298865e+02 0.0
-3.840000e+04 -7.619778e+02 0.0
-2.495000e+04 6.209022e+02 0.0
-2.490000e+04 7.510861e+02 0.0
-3.825000e+04 -6.296568e+02 0.0
-3.830000e+04 -7.617032e+02 0.0
-2.485000e+04 6.210858e+02 0.0
-2.480000e+04 7.513074e+02 0.0
-3.815000e+04 -6.294218e+02 0.0
-3.820000e+04 -7.614222e+02 0.0
-2.475000e+04 6.212680e+02 0.0
-2.470000e+04 7.515269e+02 0.0
-2.465000e+04 6.214488e+02 0.0
-2.460000e+04 7.517446e+02 0.0
-3.795000e+04 -6.289354e+02 0.0
-3.805000e+04 -6.291813e+02 0.0
-3.800000e+04 -7.608405e+02 0.0
-2.455000e+04 6.216281e+02 0.0
-2.450000e+04 7.519607e+02 0.0
-3.785000e+04 -6.286840e+02 0.0
-3.790000e+04 -7.605397e+02 0.0
-2.445000e+04 6.218061e+02 0.0
-2.440000e+04 7.521750e+02 0.0
-3.775000e+04 -6.284271e+02 0.0
-3.780000e+04 -7.602323e+02 0.0
-2.435000e+04 6.219826e+02 0.0
-2.430000e+04 7.523878e+02 0.0
-3.765000e+04 -6.281645e+02 0.0
-3.770000e+04 -7.599182e+02 0.0
-2.425000e+04 6.221578e+02 0.0
-3.755000e+04 -6.278963e+02 0.0
-3.760000e+04 -7.595972e+02 0.0
-2.405000e+04 6.225043e+02 0.0
-2.400000e+04 7.530164e+02 0.0
-2.395000e+04 6.226757e+02 0.0
-2.390000e+04 7.532229e+02 0.0
-2.385000e+04 6.228458e+02 0.0
-2.380000e+04 7.534279e+02 0.0
-2.375000e+04 6.230147e+02 0.0
-2.370000e+04 7.536315e+02 0.0
-2.365000e+04 6.231824e+02 0.0
-2.360000e+04 7.538336e+02 0.0
-2.355000e+04 6.233489e+02 0.0
-2.350000e+04 7.540343e+02 0.0
-2.345000e+04 6.235143e+02 0.0
-2.340000e+04 7.542337e+02 0.0
-3.685000e+04 -6.258571e+02 0.0
-3.695000e+04 -6.261661e+02 0.0
-3.690000e+04 -7.571555e+02 0.0
-2.335000e+04 6.236786e+02 0.0
-2.330000e+04 7.544318e+02 0.0
-3.675000e+04 -6.255420e+02 0.0
-3.680000e+04 -7.567781e+02 0.0
-2.325000e+04 6.238418e+02 0.0
-2.320000e+04 7.546286e+02 0.0
-2.315000e+04 6.240040e+02 0.0
-2.310000e+04 7.548241e+02 0.0
-2.305000e+04 6.241652e+02 0.0
-2.300000e+04 7.550184e+02 0.0
-2.295000e+04 6.243253e+02 0.0
-2.290000e+04 7.552115e+02 0.0
-2.285000e+04 6.244845e+02 0.0
-2.280000e+04 7.554034e+02 0.0
-2.275000e+04 6.246427e+02 0.0
-2.270000e+04 7.555942e+02 0.0
-2.265000e+04 6.248000e+02 0.0
-2.260000e+04 7.557838e+02 0.0
-2.255000e+04 6.249562e+02 0.0
-2.235000e+04 6.252655e+02 0.0
-2.230000e+04 7.563449e+02 0.0
-2.225000e+04 6.254183e+02 0.0
-2.220000e+04 7.565289e+02 0.0
-2.215000e+04 6.255698e+02 0.0
-2.210000e+04 7.567112e+02 0.0
-2.205000e+04 6.257198e+02 0.0
-2.200000e+04 7.568918e+02 0.0
-2.195000e+04 6.258683e+02 0.0
-2.190000e+04 7.570704e+02 0.0
-2.185000e+04 6.260152e+02 0.0
-2.180000e+04 7.572471e+02 0.0
-2.175000e+04 6.261604e+02 0.0
-2.170000e+04 7.574216e+02 0.0
-2.165000e+04 6.263038e+02 0.0
-2.160000e+04 7.575939e+02 0.0
-2.155000e+04 6.264453e+02 0.0
-2.150000e+04 7.577639e+02 0.0
-2.145000e+04 6.265848e+02 0.0
-2.140000e+04 7.579314e+02 0.0
-3.495000e+04 -6.190454e+02 0.0
-3.505000e+04 -6.194258e+02 0.0
-3.500000e+04 -7.489590e+02 0.0
-2.135000e+04 6.267223e+02 0.0
-2.130000e+04 7.580964e+02 0.0
-3.485000e+04 -6.186659e+02 0.0
-3.490000e+04 -7.484994e+02 0.0
-2.125000e+04 6.268577e+02 0.0
-2.120000e+04 7.582588e+02 0.0
-2.115000e+04 6.269908e+02 0.0
-2.110000e+04 7.584183e+02 0.0
-2.105000e+04 6.271215e+02 0.0
-2.100000e+04 7.585751e+02 0.0
-2.095000e+04 6.272499e+02 0.0
-2.090000e+04 7.587288e+02 0.0
-2.085000e+04 6.273757e+02 0.0
-2.065000e+04 6.276195e+02 0.0
-2.060000e+04 7.591710e+02 0.0
-2.055000e+04 6.277373e+02 0.0
-2.050000e+04 7.593117e+02 0.0
-2.045000e+04 6.278522e+02 0.0
-2.040000e+04 7.594490e+02 0.0
-2.035000e+04 6.279641e+02 0.0
-2.030000e+04 7.595825e+02 0.0
-2.025000e+04 6.280730e+02 0.0
-2.020000e+04 7.597124e+02 0.0
-2.015000e+04 6.281788e+02 0.0
-2.010000e+04 7.598384e+02 0.0
-2.005000e+04 6.282814e+02 0.0
-2.000000e+04 7.599604e+02 0.0
-1.995000e+04 6.283806e+02 0.0
-1.990000e+04 7.600784e+02 0.0
-1.985000e+04 6.284764e+02 0.0
-1.980000e+04 7.601922e+02 0.0
-1.975000e+04 6.285688e+02 0.0
-1.970000e+04 7.603017e+02 0.0
-1.965000e+04 6.286575e+02 0.0
-1.960000e+04 7.604069e+02 0.0
-1.955000e+04 6.287426e+02 0.0
-1.950000e+04 7.605075e+02 0.0
-1.945000e+04 6.288239e+02 0.0
-1.940000e+04 7.606035e+02 0.0
-3.305000e+04 -6.125601e+02 0.0
-3.315000e+04 -6.128375e+02 0.0
-3.310000e+04 -7.410514e+02 0.0
-1.935000e+04 6.289014e+02 0.0
-1.930000e+04 7.606949e+02 0.0
-1.925000e+04 6.289749e+02 0.0
-1.905000e+04 6.291098e+02 0.0
-1.900000e+04 7.609395e+02 0.0
-1.895000e+04 6.291710e+02 0.0
-1.890000e+04 7.610109e+02 0.0
-1.885000e+04 6.292278e+02 0.0
-1.880000e+04 7.610770e+02 0.0
-1.875000e+04 6.292803e+02 0.0
-1.870000e+04 7.611378e+02 0.0
-1.865000e+04 6.293283e+02 0.0
-1.860000e+04 7.611931e+02 0.0
-1.855000e+04 6.293717e+02 0.0
-1.850000e+04 7.612428e+02 0.0
-1.845000e+04 6.294105e+02 0.0
-1.840000e+04 7.612869e+02 0.0
-1.835000e+04 6.294445e+02 0.0
-1.830000e+04 7.613251e+02 0.0
-1.825000e+04 6.294737e+02 0.0
-1.820000e+04 7.613575e+02 0.0
-1.815000e+04 6.294980e+02 0.0
-1.810000e+04 7.613838e+02 0.0
-1.805000e+04 6.295174e+02 0.0
-1.800000e+04 7.614045e+02 0.0
-1.795000e+04 6.295322e+02 0.0
-1.790000e+04 7.614197e+02 0.0
-1.785000e+04 6.295427e+02 0.0
-1.780000e+04 7.614300e+02 0.0
-1.775000e+04 6.295492e+02 0.0
-1.770000e+04 7.614356e+02 0.0
-1.765000e+04 6.295521e+02 0.0
-1.760000e+04 7.614369e+02 0.0
-1.755000e+04 6.295515e+02 0.0
-3.125000e+04 -6.098191e+02 0.0
-3.135000e+04 -6.098431e+02 0.0
-3.130000e+04 -7.375823e+02 0.0
-1.735000e+04 6.295415e+02 0.0
-1.730000e+04 7.614189e+02 0.0
-3.115000e+04 -6.098095e+02 0.0
-3.120000e+04 -7.375620e+02 0.0
-1.725000e+04 6.295325e+02 0.0
-1.720000e+04 7.614068e+02 0.0
-1.715000e+04 6.295214e+02 0.0
-1.710000e+04 7.613922e+02 0.0
-1.705000e+04 6.295085e+02 0.0
-1.700000e+04 7.613755e+02 0.0
-1.695000e+04 6.294939e+02 0.0
-1.690000e+04 7.613570e+02 0.0
-1.685000e+04 6.294781e+02 0.0
-1.680000e+04 7.613372e+02 0.0
-1.675000e+04 6.294612e+02 0.0
-1.670000e+04 7.613164e+02 0.0
-1.665000e+04 6.294437e+02 0.0
-1.660000e+04 7.612950e+02 0.0
-1.655000e+04 6.294259e+02 0.0
-1.650000e+04 7.612733e+02 0.0
-1.645000e+04 6.294079e+02 0.0
-1.640000e+04 7.612516e+02 0.0
-1.635000e+04 6.293902e+02 0.0
-1.630000e+04 7.612305e+02 0.0
-1.625000e+04 6.293729e+02 0.0
-1.620000e+04 7.612101e+02 0.0
-1.615000e+04 6.293566e+02 0.0
-1.610000e+04 7.611909e+02 0.0
-1.605000e+04 6.293413e+02 0.0
-1.600000e+04 7.611732e+02 0.0
-1.595000e+04 6.293274e+02 0.0
-1.575000e+04 6.293052e+02 0.0
-1.570000e+04 7.611332e+02 0.0
-1.565000e+04 6.292975e+02 0.0
-1.560000e+04 7.611253e+02 0.0
-1.555000e+04 6.292923e+02 0.0
-1.550000e+04 7.611208e+02 0.0
-2.945000e+04 -6.114389e+02 0.0
-2.955000e+04 -6.112681e+02 0.0
-2.950000e+04 -7.394247e+02 0.0
-1.545000e+04 6.292901e+02 0.0
-1.540000e+04 7.611201e+02 0.0
-2.935000e+04 -6.116167e+02 0.0
-2.940000e+04 -7.396356e+02 0.0
-1.535000e+04 6.292911e+02 0.0
-1.530000e+04 7.611234e+02 0.0
-1.525000e+04 6.292957e+02 0.0
-1.520000e+04 7.611312e+02 0.0
-1.515000e+04 6.293041e+02 0.0
-1.510000e+04 7.611438e+02 0.0
-1.505000e+04 6.293166e+02 0.0
-1.500000e+04 7.611616e+02 0.0
-1.495000e+04 6.293336e+02 0.0
-1.490000e+04 7.611849e+02 0.0
-1.485000e+04 6.293552e+02 0.0
-1.480000e+04 7.612141e+02 0.0
-1.475000e+04 6.293820e+02 0.0
-1.470000e+04 7.612496e+02 0.0
-1.465000e+04 6.294140e+02 0.0
-1.460000e+04 7.612917e+02 0.0
-1.455000e+04 6.294517e+02 0.0
-1.450000e+04 7.613409e+02 0.0
-1.445000e+04 6.294953e+02 0.0
-1.440000e+04 7.613974e+02 0.0
-1.435000e+04 6.295452e+02 0.0
-1.415000e+04 6.296649e+02 0.0
-1.410000e+04 7.616147e+02 0.0
-1.405000e+04 6.297352e+02 0.0
-1.400000e+04 7.617043e+02 0.0
-1.395000e+04 6.298131e+02 0.0
-1.390000e+04 7.618030e+02 0.0
-1.385000e+04 6.298986e+02 0.0
-1.380000e+04 7.619113e+02 0.0
-1.375000e+04 6.299923e+02 0.0
-1.370000e+04 7.620296e+02 0.0
-2.775000e+04 -6.150610e+02 0.0
-2.785000e+04 -6.148292e+02 0.0
-2.780000e+04 -7.437698e+02 0.0
-1.365000e+04 6.300942e+02 0.0
-1.360000e+04 7.621581e+02 0.0
-2.765000e+04 -6.152927e+02 0.0
-2.770000e+04 -7.440501e+02 0.0
-1.355000e+04 6.302047e+02 0.0
-1.350000e+04 7.622967e+02 0.0
-1.345000e+04 6.303232e+02 0.0
-1.340000e+04 7.624445e+02 0.0
-1.335000e+04 6.304490e+02 0.0
-1.330000e+04 7.626007e+02 0.0
-1.325000e+04 6.305813e+02 0.0
-1.320000e+04 7.627644e+02 0.0
-1.315000e+04 6.307194e+02 0.0
-1.310000e+04 7.629346e+02 0.0
-1.305000e+04 6.308626e+02 0.0
-1.300000e+04 7.631104e+02 0.0
-1.295000e+04 6.310099e+02 0.0
-1.290000e+04 7.632908e+02 0.0
-1.285000e+04 6.311608e+02 0.0
-1.280000e+04 7.634751e+02 0.0
-1.275000e+04 6.313145e+02 0.0
-1.255000e+04 6.316270e+02 0.0
-1.250000e+04 7.640416e+02 0.0
-1.245000e+04 6.317844e+02 0.0
-1.240000e+04 7.642319e+02 0.0
-1.235000e+04 6.319415e+02 0.0
-1.230000e+04 7.644214e+02 0.0
-1.225000e+04 6.320976e+02 0.0
-1.220000e+04 7.646093e+02 0.0
-1.215000e+04 6.322520e+02 0.0
-1.210000e+04 7.647946e+02 0.0
-1.205000e+04 6.324038e+02 0.0
-1.200000e+04 7.649763e+02 0.0
-1.195000e+04 6.325524e+02 0.0
-1.190000e+04 7.651537e+02 0.0
-1.185000e+04 6.326969e+02 0.0
-1.180000e+04 7.653257e+02 0.0
-2.595000e+04 -6.189784e+02 0.0
-2.605000e+04 -6.187768e+02 0.0
-2.600000e+04 -7.485264e+02 0.0
-1.175000e+04 6.328366e+02 0.0
-1.170000e+04 7.654915e+02 0.0
-2.585000e+04 -6.191783e+02 0.0
-2.590000e+04 -7.487692e+02 0.0
-1.165000e+04 6.329708e+02 0.0
-1.160000e+04 7.656501e+02 0.0
-1.155000e+04 6.330987e+02 0.0
-1.150000e+04 7.658006e+02 0.0
-1.145000e+04 6.332196e+02 0.0
-1.140000e+04 7.659422e+02 0.0
-1.135000e+04 6.333326e+02 0.0
-1.130000e+04 7.660739e+02 0.0
-1.125000e+04 6.334371e+02 0.0
-1.120000e+04 7.661948e+02 0.0
-1.115000e+04 6.335323e+02 0.0
-1.095000e+04 6.336918e+02 0.0
-1.090000e+04 7.664835e+02 0.0
-1.085000e+04 6.337545e+02 0.0
-1.080000e+04 7.665520e+02 0.0
-1.075000e+04 6.338049e+02 0.0
-1.070000e+04 7.666052e+02 0.0
-1.065000e+04 6.338423e+02 0.0
-1.060000e+04 7.666421e+02 0.0
-1.055000e+04 6.338658e+02 0.0
-1.050000e+04 7.666618e+02 0.0
-1.045000e+04 6.338747e+02 0.0
-1.040000e+04 7.666635e+02 0.0
-1.035000e+04 6.338683e+02 0.0
-1.030000e+04 7.666461e+02 0.0
-1.025000e+04 6.338458e+02 0.0
-1.020000e+04 7.666088e+02 0.0
-1.015000e+04 6.338064e+02 0.0
-1.010000e+04 7.665506e+02 0.0
-1.005000e+04 6.337494e+02 0.0
-1.000000e+04 7.664707e+02 0.0
-2.425000e+04 -6.221578e+02 0.0
-2.435000e+04 -6.219826e+02 0.0
-2.430000e+04 -7.523878e+02 0.0
-9.950000e+03 6.336741e+02 0.0
-9.900000e+03 7.663682e+02 0.0
-2.415000e+04 -6.223317e+02 0.0
-2.420000e+04 -7.525989e+02 0.0
-9.850000e+03 6.335797e+02 0.0
-9.800000e+03 7.662421e+02 0.0
-9.750000e+03 6.334654e+02 0.0
-9.700000e+03 7.660915e+02 0.0
-9.650000e+03 6.333305e+02 0.0
-9.600000e+03 7.659155e+02 0.0
-9.550000e+03 6.331742e+02 0.0
-9.350000e+03 6.327944e+02 0.0
-9.300000e+03 7.652260e+02 0.0
-9.250000e+03 6.325695e+02 0.0
-9.200000e+03 7.649393e+02 0.0
-9.150000e+03 6.323202e+02 0.0
-9.100000e+03 7.646227e+02 0.0
-9.050000e+03 6.320457e+02 0.0
-9.000000e+03 7.642755e+02 0.0
-8.950000e+03 6.317463e+02 0.0
-8.900000e+03 7.638987e+02 0.0
-8.850000e+03 6.314231e+02 0.0
-8.800000e+03 7.634940e+02 0.0
-8.750000e+03 6.310774e+02 0.0
-8.700000e+03 7.630629e+02 0.0
-8.650000e+03 6.307105e+02 0.0
-8.600000e+03 7.626068e+02 0.0
-8.550000e+03 6.303236e+02 0.0
-8.500000e+03 7.621274e+02 0.0
-8.450000e+03 6.299181e+02 0.0
-8.400000e+03 7.616263e+02 0.0
-8.350000e+03 6.294952e+02 0.0
-8.300000e+03 7.611049e+02 0.0
-8.250000e+03 6.290563e+02 0.0
-8.200000e+03 7.605649e+02 0.0
-2.255000e+04 -6.249562e+02 0.0
-2.265000e+04 -6.248000e+02 0.0
-2.260000e+04 -7.557838e+02 0.0
-8.150000e+03 6.286025e+02 0.0
-8.100000e+03 7.600077e+02 0.0
-2.245000e+04 -6.251115e+02 0.0
-2.250000e+04 -7.559722e+02 0.0
-8.050000e+03 6.281353e+02 0.0
-7.850000e+03 6.271654e+02 0.0
-7.800000e+03 7.582490e+02 0.0
-7.750000e+03 6.266653e+02 0.0
-7.700000e+03 7.576389e+02 0.0
-7.650000e+03 6.261568e+02 0.0
-7.600000e+03 7.570194e+02 0.0
-7.550000e+03 6.256412e+02 0.0
-7.500000e+03 7.563921e+02 0.0
-7.450000e+03 6.251198e+02 0.0
-7.400000e+03 7.557586e+02 0.0
-7.350000e+03 6.245939e+02 0.0
-7.300000e+03 7.551204e+02 0.0
-7.250000e+03 6.240648e+02 0.0
-7.200000e+03 7.544790e+02 0.0
-7.150000e+03 6.235336e+02 0.0
-7.100000e+03 7.538360e+02 0.0
-7.050000e+03 6.230018e+02 0.0
-7.000000e+03 7.531929e+02 0.0
-6.950000e+03 6.224706e+02 0.0
-6.900000e+03 7.525514e+02 0.0
-6.850000e+03 6.219413e+02 0.0
-6.800000e+03 7.519129e+02 0.0
-6.750000e+03 6.214152e+02 0.0
-6.700000e+03 7.512791e+02 0.0
-6.650000e+03 6.208935e+02 0.0
-6.600000e+03 7.506514e+02 0.0
-6.550000e+03 6.203776e+02 0.0
-6.500000e+03 7.500314e+02 0.0
-6.450000e+03 6.198686e+02 0.0
-2.085000e+04 -6.273757e+02 0.0
-2.095000e+04 -6.272499e+02 0.0
-2.090000e+04 -7.587288e+02 0.0
-6.250000e+03 6.188770e+02 0.0
-6.200000e+03 7.482333e+02 0.0
-2.075000e+04 -6.274989e+02 0.0
-2.080000e+04 -7.588794e+02 0.0
-6.150000e+03 6.183968e+02 0.0
-6.100000e+03 7.476597e+02 0.0
-6.050000e+03 6.179288e+02 0.0
-6.000000e+03 7.471016e+02 0.0
-5.950000e+03 6.174743e+02 0.0
-5.900000e+03 7.465605e+02 0.0
-5.850000e+03 6.170344e+02 0.0
-5.800000e+03 7.460380e+02 0.0
-5.750000e+03 6.166106e+02 0.0
-5.700000e+03 7.455356e+02 0.0
-5.650000e+03 6.162040e+02 0.0
-5.600000e+03 7.450549e+02 0.0
-5.550000e+03 6.158160e+02 0.0
-5.500000e+03 7.445975e+02 0.0
-5.450000e+03 6.154479e+02 0.0
-5.400000e+03 7.441648e+02 0.0
-5.350000e+03 6.151009e+02 0.0
-5.300000e+03 7.437585e+02 0.0
-5.250000e+03 6.147764e+02 0.0
-5.200000e+03 7.433801e+02 0.0
-5.150000e+03 6.144755e+02 0.0
-5.100000e+03 7.430312e+02 0.0
-5.050000e+03 6.141996e+02 0.0
-5.000000e+03 7.427132e+02 0.0
-4.950000e+03 6.139500e+02 0.0
-4.750000e+03 6.135348e+02 0.0
-4.700000e+03 7.419608e+02 0.0
-4.650000e+03 6.133717e+02 0.0
-4.600000e+03 7.417824e+02 0.0
-1.925000e+04 -6.289749e+02 0.0
-1.935000e+04 -6.289014e+02 0.0
-1.930000e+04 -7.606949e+02 0.0
-4.550000e+03 6.132400e+02 0.0
-4.500000e+03 7.416426e+02 0.0
-1.915000e+04 -6.290444e+02 0.0
-1.920000e+04 -7.607814e+02 0.0
-4.450000e+03 6.131407e+02 0.0
-4.400000e+03 7.415418e+02 0.0
-4.350000e+03 6.130730e+02 0.0
-4.300000e+03 7.414785e+02 0.0
-4.250000e+03 6.130358e+02 0.0
-4.200000e+03 7.414515e+02 0.0
-4.150000e+03 6.130280e+02 0.0
-4.100000e+03 7.414593e+02 0.0
-4.050000e+03 6.130484e+02 0.0
-4.000000e+03 7.415005e+02 0.0
-3.950000e+03 6.130959e+02 0.0
-3.900000e+03 7.415738e+02 0.0
-3.850000e+03 6.131693e+02 0.0
-3.800000e+03 7.416777e+02 0.0
-3.750000e+03 6.132675e+02 0.0
-3.700000e+03 7.418110e+02 0.0
-3.650000e+03 6.133893e+02 0.0
-3.600000e+03 7.419721e+02 0.0
-3.550000e+03 6.135336e+02 0.0
-3.500000e+03 7.421597e+02 0.0
-3.450000e+03 6.136993e+02 0.0
-3.250000e+03 6.140901e+02 0.0
-3.200000e+03 7.428678e+02 0.0
-3.150000e+03 6.143129e+02 0.0
-3.100000e+03 7.431476e+02 0.0
-3.050000e+03 6.145524e+02 0.0
-3.000000e+03 7.434470e+02 0.0
-2.950000e+03 6.148076e+02 0.0
-2.900000e+03 7.437645e+02 0.0
-2.850000e+03 6.150773e+02 0.0
-2.800000e+03 7.440989e+02 0.0
-2.750000e+03 6.153603e+02 0.0
-2.700000e+03 7.444487e+02 0.0
-1.745000e+04 -6.295479e+02 0.0
-1.755000e+04 -6.295515e+02 0.0
-1.750000e+04 -7.614344e+02 0.0
-2.650000e+03 6.156555e+02 0.0
-2.600000e+03 7.448126e+02 0.0
-2.550000e+03 6.159617e+02 0.0
-2.500000e+03 7.451891e+02 0.0
-2.450000e+03 6.162778e+02 0.0
-2.400000e+03 7.455769e+02 0.0
-2.350000e+03 6.166026e+02 0.0
-2.300000e+03 7.459745e+02 0.0
-2.250000e+03 6.169351e+02 0.0
-2.200000e+03 7.463807e+02 0.0
-2.150000e+03 6.172740e+02 0.0
-2.100000e+03 7.467940e+02 0.0
-2.050000e+03 6.176182e+02 0.0
-2.000000e+03 7.472130e+02 0.0
-1.950000e+03 6.179665e+02 0.0
-1.900000e+03 7.476363e+02 0.0
-1.850000e+03 6.183179e+02 0.0
-1.650000e+03 6.190251e+02 0.0
-1.600000e+03 7.489185e+02 0.0
-1.550000e+03 6.193787e+02 0.0
-1.500000e+03 7.493454e+02 0.0
-1.450000e+03 6.197307e+02 0.0
-1.400000e+03 7.497696e+02 0.0
-1.350000e+03 6.200799e+02 0.0
-1.300000e+03 7.501899e+02 0.0
-1.250000e+03 6.204254e+02 0.0
-1.200000e+03 7.506048e+02 0.0
-1.150000e+03 6.207658e+02 0.0
-1.100000e+03 7.510130e+02 0.0
-1.050000e+03 6.211001e+02 0.0
-1.000000e+03 7.514131e+02 0.0
-1.585000e+04 -6.293153e+02 0.0
-1.595000e+04 -6.293274e+02 0.0
-1.590000e+04 -7.611575e+02 0.0
-9.500000e+02 6.214270e+02 0.0
-9.000000e+02 7.518036e+02 0.0
-8.500000e+02 6.217456e+02 0.0
-8.000000e+02 7.521833e+02 0.0
-7.500000e+02 6.220545e+02 0.0
-7.000000e+02 7.525507e+02 0.0
-6.500000e+02 6.223528e+02 0.0
-6.000000e+02 7.529044e+02 0.0
-5.500000e+02 6.226391e+02 0.0
-5.000000e+02 7.532430e+02 0.0
-4.500000e+02 6.229124e+02 0.0
-4.000000e+02 7.535652e+02 0.0
-3.500000e+02 6.231716e+02 0.0
-1.500000e+02 6.236429e+02 0.0
-1.000000e+02 7.544193e+02 0.0
-5.000000e+01 6.238527e+02 0.0
0.000000e+00 7.546619e+02 0.0
5.000000e+01 6.240437e+02 0.0
1.000000e+02 7.548814e+02 0.0
1.500000e+02 6.242157e+02 0.0
2.000000e+02 7.550779e+02 0.0
2.500000e+02 6.243689e+02 0.0
3.000000e+02 7.552520e+02 0.0
3.500000e+02 6.245036e+02 0.0
4.000000e+02 7.554039e+02 0.0
4.500000e+02 6.246202e+02 0.0
5.000000e+02 7.555342e+02 0.0
5.500000e+02 6.247191e+02 0.0
6.000000e+02 7.556432e+02 0.0
-1.435000e+04 -6.295452e+02 0.0
-1.445000e+04 -6.294953e+02 0.0
-1.440000e+04 -7.613974e+02 0.0
6.500000e+02 6.248005e+02 0.0
7.000000e+02 7.557314e+02 0.0
-1.425000e+04 -6.296016e+02 0.0
-1.430000e+04 -7.614616e+02 0.0
7.500000e+02 6.248649e+02 0.0
8.000000e+02 7.557991e+02 0.0
8.500000e+02 6.249126e+02 0.0
9.000000e+02 7.558469e+02 0.0
9.500000e+02 6.249440e+02 0.0
1.000000e+03 7.558751e+02 0.0
1.050000e+03 6.249593e+02 0.0
1.250000e+03 6.249434e+02 0.0
1.300000e+03 7.558464e+02 0.0
1.350000e+03 6.249128e+02 0.0
1.400000e+03 7.558005e+02 0.0
1.450000e+03 6.248676e+02 0.0
1.500000e+03 7.557372e+02 0.0
1.550000e+03 6.248082e+02 0.0
1.600000e+03 7.556568e+02 0.0
1.650000e+03 6.247348e+02 0.0
1.700000e+03 7.555599e+02 0.0
1.750000e+03 6.246479e+02 0.0
1.800000e+03 7.554467e+02 0.0
1.850000e+03 6.245478e+02 0.0
1.900000e+03 7.553177e+02 0.0
1.950000e+03 6.244348e+02 0.0
2.000000e+03 7.551734e+02 0.0
2.050000e+03 6.243092e+02 0.0
2.100000e+03 7.550142e+02 0.0
2.150000e+03 6.241715e+02 0.0
2.200000e+03 7.548405e+02 0.0
2.250000e+03 6.240220e+02 0.0
2.300000e+03 7.546526e+02 0.0
-1.275000e+04 -6.313145e+02 0.0
-1.285000e+04 -6.311608e+02 0.0
-1.280000e+04 -7.634751e+02 0.0
2.350000e+03 6.238611e+02 0.0
2.400000e+03 7.544512e+02 0.0
-1.265000e+04 -6.314701e+02 0.0
-1.270000e+04 -7.636623e+02 0.0
2.450000e+03 6.236890e+02 0.0
2.500000e+03 7.542364e+02 0.0
2.550000e+03 6.235061e+02 0.0
2.750000e+03 6.231094e+02 0.0
2.800000e+03 7.535170e+02 0.0
2.850000e+03 6.228963e+02 0.0
2.900000e+03 7.532536e+02 0.0
2.950000e+03 6.226738e+02 0.0
3.000000e+03 7.529790e+02 0.0
3.050000e+03 6.224423e+02 0.0
3.100000e+03 7.526937e+02 0.0
3.150000e+03 6.222022e+02 0.0
3.200000e+03 7.523981e+02 0.0
3.250000e+03 6.219537e+02 0.0
3.300000e+03 7.520927e+02 0.0
3.350000e+03 6.216972e+02 0.0
3.400000e+03 7.517778e+02 0.0
3.450000e+03 6.214330e+02 0.0
3.500000e+03 7.514539e+02 0.0
3.550000e+03 6.211616e+02 0.0
3.600000e+03 7.511214e+02 0.0
3.650000e+03 6.208833e+02 0.0
3.700000e+03 7.507807e+02 0.0
3.750000e+03 6.205984e+02 0.0
3.800000e+03 7.504322e+02 0.0
3.850000e+03 6.203072e+02 0.0
3.900000e+03 7.500765e+02 0.0
3.950000e+03 6.200102e+02 0.0
4.000000e+03 7.497138e+02 0.0
-1.115000e+04 -6.335323e+02 0.0
-1.125000e+04 -6.334371e+02 0.0
-1.120000e+04 -7.661948e+02 0.0
4.050000e+03 6.197076e+02 0.0
-1.105000e+04 -6.336175e+02 0.0
-1.110000e+04 -7.663039e+02 0.0
4.250000e+03 6.190872e+02 0.0
4.300000e+03 7.485885e+02 0.0
4.350000e+03 6.187701e+02 0.0
4.400000e+03 7.482024e+02 0.0
4.450000e+03 6.184488e+02 0.0
4.500000e+03 7.478115e+02 0.0
4.550000e+03 6.181238e+02 0.0
4.600000e+03 7.474162e+02 0.0
4.650000e+03 6.177953e+02 0.0
4.700000e+03 7.470170e+02 0.0
4.750000e+03 6.174637e+02 0.0
4.800000e+03 7.466142e+02 0.0
4.850000e+03 6.171293e+02 0.0
4.900000e+03 7.462082e+02 0.0
4.950000e+03 6.167924e+02 0.0
5.000000e+03 7.457994e+02 0.0
5.050000e+03 6.164534e+02 0.0
5.100000e+03 7.453883e+02 0.0
5.150000e+03 6.161127e+02 0.0
5.200000e+03 7.449752e+02 0.0
5.250000e+03 6.157704e+02 0.0
5.300000e+03 7.445605e+02 0.0
5.350000e+03 6.154270e+02 0.0
5.400000e+03 7.441446e+02 0.0
5.450000e+03 6.150828e+02 0.0
5.500000e+03 7.437280e+02 0.0
5.550000e+03 6.147381e+02 0.0
5.750000e+03 6.140486e+02 0.0
5.800000e+03 7.424773e+02 0.0
-9.550000e+03 -6.331742e+02 0.0
-9.650000e+03 -6.333305e+02 0.0
-9.600000e+03 -7.659155e+02 0.0
5.850000e+03 6.137045e+02 0.0
5.900000e+03 7.420615e+02 0.0
-9.450000e+03 -6.329957e+02 0.0
-9.500000e+03 -7.657132e+02 0.0
5.950000e+03 6.133611e+02 0.0
6.000000e+03 7.416469e+02 0.0
6.050000e+03 6.130190e+02 0.0
6.100000e+03 7.412339e+02 0.0
6.150000e+03 6.126783e+02 0.0
6.200000e+03 7.408229e+02 0.0
6.250000e+03 6.123395e+02 0.0
6.300000e+03 7.404144e+02 0.0
6.350000e+03 6.120028e+02 0.0
6.400000e+03 7.400086e+02 0.0
6.450000e+03 6.116686e+02 0.0
6.500000e+03 7.396060e+02 0.0
6.550000e+03 6.113372e+02 0.0
6.600000e+03 7.392070e+02 0.0
6.650000e+03 6.110089e+02 0.0
6.700000e+03 7.388121e+02 0.0
6.750000e+03 6.106841e+02 0.0
6.800000e+03 7.384215e+02 0.0
6.850000e+03 6.103631e+02 0.0
6.900000e+03 7.380357e+02 0.0
6.950000e+03 6.100463e+02 0.0
7.150000e+03 6.094262e+02 0.0
7.200000e+03 7.369111e+02 0.0
7.250000e+03 6.091237e+02 0.0
7.300000e+03 7.365484e+02 0.0
7.350000e+03 6.088267e+02 0.0
7.400000e+03 7.361926e+02 0.0
-8.050000e+03 -6.281353e+02 0.0
-8.150000e+03 -6.286025e+02 0.0
-8.100000e+03 -7.600077e+02 0.0
7.450000e+03 6.085354e+02 0.0
7.500000e+03 7.358439e+02 0.0
-7.950000e+03 -6.276558e+02 0.0
-8.000000e+03 -7.594350e+02 0.0
7.550000e+03 6.082502e+02 0.0
7.600000e+03 7.355028e+02 0.0
7.650000e+03 6.079715e+02 0.0
7.700000e+03 7.351697e+02 0.0
7.750000e+03 6.076995e+02 0.0
7.800000e+03 7.348450e+02 0.0
7.850000e+03 6.074346e+02 0.0
7.900000e+03 7.345291e+02 0.0
7.950000e+03 6.071771e+02 0.0
8.000000e+03 7.342223e+02 0.0
8.050000e+03 6.069274e+02 0.0
8.100000e+03 7.339251e+02 0.0
8.150000e+03 6.066857e+02 0.0
8.200000e+03 7.336379e+02 0.0
8.250000e+03 6.064525e+02 0.0
8.300000e+03 7.333610e+02 0.0
8.350000e+03 6.062280e+02 0.0
8.400000e+03 7.330949e+02 0.0
8.450000e+03 6.060126e+02 0.0
8.650000e+03 6.056102e+02 0.0
8.700000e+03 7.323652e+02 0.0
8.750000e+03 6.054240e+02 0.0
8.800000e+03 7.321462e+02 0.0
8.850000e+03 6.052481e+02 0.0
8.900000e+03 7.319399e+02 0.0
8.950000e+03 6.050830e+02 0.0
9.000000e+03 7.317468e+02 0.0
9.050000e+03 6.049288e+02 0.0
9.100000e+03 7.315672e+02 0.0
-6.450000e+03 -6.198686e+02 0.0
-6.550000e+03 -6.203776e+02 0.0
-6.500000e+03 -7.500314e+02 0.0
9.150000e+03 6.047861e+02 0.0
9.200000e+03 7.314015e+02 0.0
-6.350000e+03 -6.193680e+02 0.0
-6.400000e+03 -7.494207e+02 0.0
9.250000e+03 6.046548e+02 0.0
9.300000e+03 7.312495e+02 0.0
9.350000e+03 6.045348e+02 0.0
9.400000e+03 7.311112e+02 0.0
9.450000e+03 6.044261e+02 0.0
9.500000e+03 7.309865e+02 0.0
9.550000e+03 6.043285e+02 0.0
9.600000e+03 7.308751e+02 0.0
9.650000e+03 6.042419e+02 0.0
9.700000e+03 7.307770e+02 0.0
9.750000e+03 6.041663e+02 0.0
9.800000e+03 7.306921e+02 0.0
9.850000e+03 6.041015e+02 0.0
1.005000e+04 6.040040e+02 0.0
1.010000e+04 7.305151e+02 0.0
1.015000e+04 6.039710e+02 0.0
1.020000e+04 7.304816e+02 0.0
1.025000e+04 6.039485e+02 0.0
1.030000e+04 7.304606e+02 0.0
1.035000e+04 6.039363e+02 0.0
1.040000e+04 7.304521e+02 0.0
1.045000e+04 6.039343e+02 0.0
1.050000e+04 7.304558e+02 0.0
1.055000e+04 6.039425e+02 0.0
1.060000e+04 7.304717e+02 0.0
1.065000e+04 6.039606e+02 0.0
1.070000e+04 7.304996e+02 0.0
-4.950000e+03 -6.139500e+02 0.0
-5.050000e+03 -6.141996e+02 0.0
-5.000000e+03 -7.427132e+02 0.0
1.075000e+04 6.039886e+02 0.0
1.080000e+04 7.305395e+02 0.0
-4.850000e+03 -6.137280e+02 0.0
-4.900000e+03 -7.424278e+02 0.0
1.085000e+04 6.040264e+02 0.0
1.090000e+04 7.305911e+02 0.0
1.095000e+04 6.040740e+02 0.0
1.100000e+04 7.306544e+02 0.0
1.105000e+04 6.041311e+02 0.0
1.110000e+04 7.307292e+02 0.0
1.115000e+04 6.041977e+02 0.0
1.120000e+04 7.308155e+02 0.0
1.125000e+04 6.042737e+02 0.0
1.145000e+04 6.044534e+02 0.0
1.150000e+04 7.311415e+02 0.0
1.155000e+04 6.045570e+02 0.0
1.160000e+04 7.312722e+02 0.0
1.165000e+04 6.046695e+02 0.0
1.170000e+04 7.314137e+02 0.0
1.175000e+04 6.047909e+02 0.0
1.180000e+04 7.315658e+02 0.0
1.185000e+04 6.049211e+02 0.0
1.190000e+04 7.317285e+02 0.0
1.195000e+04 6.050599e+02 0.0
1.200000e+04 7.319016e+02 0.0
1.205000e+04 6.052073e+02 0.0
1.210000e+04 7.320850e+02 0.0
1.215000e+04 6.053632e+02 0.0
1.220000e+04 7.322786e+02 0.0
1.225000e+04 6.055274e+02 0.0
1.230000e+04 7.324822e+02 0.0
1.235000e+04 6.056998e+02 0.0
1.240000e+04 7.326958e+02 0.0
-3.350000e+03 -6.138851e+02 0.0
-3.450000e+03 -6.136993e+02 0.0
-3.400000e+03 -7.423724e+02 0.0
1.245000e+04 6.058805e+02 0.0
1.250000e+04 7.329191e+02 0.0
1.255000e+04 6.060692e+02 0.0
1.260000e+04 7.331522e+02 0.0
1.265000e+04 6.062658e+02 0.0
1.285000e+04 6.066825e+02 0.0
1.290000e+04 7.339080e+02 0.0
1.295000e+04 6.069023e+02 0.0
1.300000e+04 7.341785e+02 0.0
1.305000e+04 6.071297e+02 0.0
1.310000e+04 7.344580e+02 0.0
1.315000e+04 6.073645e+02 0.0
1.320000e+04 7.347465e+02 0.0
1.325000e+04 6.076067e+02 0.0
1.330000e+04 7.350438e+02 0.0
1.335000e+04 6.078560e+02 0.0
1.340000e+04 7.353497e+02 0.0
1.345000e+04 6.081125e+02 0.0
1.350000e+04 7.356642e+02 0.0
1.355000e+04 6.083760e+02 0.0
1.360000e+04 7.359871e+02 0.0
1.365000e+04 6.086465e+02 0.0
1.370000e+04 7.363183e+02 0.0
1.375000e+04 6.089236e+02 0.0
1.380000e+04 7.366573e+02 0.0
1.385000e+04 6.092069e+02 0.0
1.390000e+04 7.370034e+02 0.0
1.395000e+04 6.094958e+02 0.0
1.400000e+04 7.373560e+02 0.0
-1.850000e+03 -6.183179e+02 0.0
-1.950000e+03 -6.179665e+02 0.0
-1.900000e+03 -7.476363e+02 0.0
1.405000e+04 6.097897e+02 0.0
1.410000e+04 7.377142e+02 0.0
-1.750000e+03 -6.186711e+02 0.0
-1.800000e+03 -7.480626e+02 0.0
1.415000e+04 6.100880e+02 0.0
1.435000e+04 6.106955e+02 0.0
1.440000e+04 7.388159e+02 0.0
1.445000e+04 6.110036e+02 0.0
1.450000e+04 7.391899e+02 0.0
1.455000e+04 6.113137e+02 0.0
1.460000e+04 7.395660e+02 0.0
1.465000e+04 6.116254e+02 0.0
1.470000e+04 7.399436e+02 0.0
1.475000e+04 6.119379e+02 0.0
1.480000e+04 7.403219e+02 0.0
1.485000e+04 6.122508e+02 0.0
1.490000e+04 7.407003e+02 0.0
1.495000e+04 6.125635e+02 0.0
1.500000e+04 7.410780e+02 0.0
1.505000e+04 6.128753e+02 0.0
1.510000e+04 7.414544e+02 0.0
1.515000e+04 6.131857e+02 0.0
1.520000e+04 7.418287e+02 0.0
1.525000e+04 6.134941e+02 0.0
1.530000e+04 7.422002e+02 0.0
1.535000e+04 6.137999e+02 0.0
1.540000e+04 7.425683e+02 0.0
1.545000e+04 6.141026e+02 0.0
1.550000e+04 7.429322e+02 0.0
1.555000e+04 6.144015e+02 0.0
-3.500000e+02 -6.231716e+02 0.0
-4.500000e+02 -6.229124e+02 0.0
-4.000000e+02 -7.535652e+02 0.0
1.575000e+04 6.149857e+02 0.0
1.580000e+04 7.439917e+02 0.0
-2.500000e+02 -6.234155e+02 0.0
-3.000000e+02 -7.538696e+02 0.0
1.585000e+04 6.152699e+02 0.0
1.590000e+04 7.443318e+02 0.0
1.595000e+04 6.155480e+02 0.0
1.600000e+04 7.446642e+02 0.0
1.605000e+04 6.158194e+02 0.0
1.610000e+04 7.449882e+02 0.0
1.615000e+04 6.160836e+02 0.0
1.620000e+04 7.453031e+02 0.0
1.625000e+04 6.163400e+02 0.0
1.630000e+04 7.456081e+02 0.0
1.635000e+04 6.165879e+02 0.0
1.640000e+04 7.459027e+02 0.0
1.645000e+04 6.168268e+02 0.0
1.650000e+04 7.461860e+02 0.0
1.655000e+04 6.170562e+02 0.0
1.660000e+04 7.464573e+02 0.0
1.665000e+04 6.172754e+02 0.0
1.670000e+04 7.467160e+02 0.0
1.675000e+04 6.174839e+02 0.0
1.680000e+04 7.469614e+02 0.0
1.685000e+04 6.176810e+02 0.0
1.690000e+04 7.471927e+02 0.0
1.695000e+04 6.178662e+02 0.0
1.715000e+04 6.181986e+02 0.0
1.720000e+04 7.477953e+02 0.0
1.050000e+03 -6.249593e+02 0.0
9.500000e+02 -6.249440e+02 0.0
1.000000e+03 -7.558751e+02 0.0
1.725000e+04 6.183446e+02 0.0
1.730000e+04 7.479633e+02 0.0
1.150000e+03 -6.249590e+02 0.0
1.100000e+03 -7.558841e+02 0.0
1.735000e+04 6.184763e+02 0.0
1.740000e+04 7.481138e+02 0.0
1.745000e+04 6.185932e+02 0.0
1.750000e+04 7.482459e+02 0.0
1.755000e+04 6.186947e+02 0.0
1.760000e+04 7.483591e+02 0.0
1.765000e+04 6.187802e+02 0.0
1.770000e+04 7.484526e+02 0.0
1.775000e+04 6.188492e+02 0.0
1.780000e+04 7.485257e+02 0.0
1.785000e+04 6.189009e+02 0.0
1.790000e+04 7.485777e+02 0.0
1.795000e+04 6.189350e+02 0.0
1.800000e+04 7.486078e+02 0.0
1.805000e+04 6.189507e+02 0.0
1.810000e+04 7.486155e+02 0.0
1.815000e+04 6.189475e+02 0.0
1.820000e+04 7.485999e+02 0.0
1.825000e+04 6.189249e+02 0.0
1.830000e+04 7.485609e+02 0.0
1.835000e+04 6.188833e+02 0.0
1.855000e+04 6.187470e+02 0.0
1.860000e+04 7.483146e+02 0.0
1.865000e+04 6.186544e+02 0.0
1.870000e+04 7.481933e+02 0.0
1.875000e+04 6.185468e+02 0.0
1.880000e+04 7.480545e+02 0.0
2.550000e+03 -6.235061e+02 0.0
2.450000e+03 -6.236890e+02 0.0
2.500000e+03 -7.542364e+02 0.0
1.885000e+04 6.184252e+02 0.0
1.890000e+04 7.478994e+02 0.0
2.650000e+03 -6.233128e+02 0.0
2.600000e+03 -7.540089e+02 0.0
1.895000e+04 6.182906e+02 0.0
1.900000e+04 7.477292e+02 0.0
1.905000e+04 6.181439e+02 0.0
1.910000e+04 7.475450e+02 0.0
1.915000e+04 6.179863e+02 0.0
1.920000e+04 7.473481e+02 0.0
1.925000e+04 6.178186e+02 0.0
1.930000e+04 7.471397e+02 0.0
1.935000e+04 6.176419e+02 0.0
1.940000e+04 7.469210e+02 0.0
1.945000e+04 6.174572e+02 0.0
1.950000e+04 7.466932e+02 0.0
1.955000e+04 6.172655e+02 0.0
1.960000e+04 7.464575e+02 0.0
1.965000e+04 6.170677e+02 0.0
1.970000e+04 7.462152e+02 0.0
1.975000e+04 6.168649e+02 0.0
1.995000e+04 6.164483e+02 0.0
2.000000e+04 7.454600e+02 0.0
2.005000e+04 6.162364e+02 0.0
2.010000e+04 7.452030e+02 0.0
2.015000e+04 6.160236e+02 0.0
2.020000e+04 7.449454e+02 0.0
2.025000e+04 6.158106e+02 0.0
2.030000e+04 7.446883e+02 0.0
2.035000e+04 6.155987e+02 0.0
2.040000e+04 7.444329e+02 0.0
4.050000e+03 -6.197076e+02 0.0
3.950000e+03 -6.200102e+02 0.0
4.000000e+03 -7.497138e+02 0.0
2.045000e+04 6.153887e+02 0.0
2.050000e+04 7.441806e+02 0.0
4.150000e+03 -6.193998e+02 0.0
4.100000e+03 -7.493446e+02 0.0
2.055000e+04 6.151816e+02 0.0
2.060000e+04 7.439324e+02 0.0
2.065000e+04 6.149785e+02 0.0
2.070000e+04 7.436896e+02 0.0
2.075000e+04 6.147804e+02 0.0
2.080000e+04 7.434534e+02 0.0
2.085000e+04 6.145882e+02 0.0
2.090000e+04 7.432250e+02 0.0
2.095000e+04 6.144030e+02 0.0
2.100000e+04 7.430057e+02 0.0
2.105000e+04 6.142257e+02 0.0
2.125000e+04 6.138990e+02 0.0
2.130000e+04 7.424137e+02 0.0
2.135000e+04 6.137516e+02 0.0
2.140000e+04 7.422425e+02 0.0
2.145000e+04 6.136161e+02 0.0
2.150000e+04 7.420863e+02 0.0
2.155000e+04 6.134936e+02 0.0
2.160000e+04 7.419463e+02 0.0
2.165000e+04 6.133849e+02 0.0
2.170000e+04 7.418238e+02 0.0
2.175000e+04 6.132913e+02 0.0
2.180000e+04 7.417200e+02 0.0
2.185000e+04 6.132135e+02 0.0
2.190000e+04 7.416361e+02 0.0
2.195000e+04 6.131527e+02 0.0
2.200000e+04 7.415732e+02 0.0
5.550000e+03 -6.147381e+02 0.0
5.450000e+03 -6.150828e+02 0.0
5.500000e+03 -7.437280e+02 0.0
2.205000e+04 6.131098e+02 0.0
2.210000e+04 7.415327e+02 0.0
5.650000e+03 -6.143933e+02 0.0
5.600000e+03 -7.433109e+02 0.0
2.215000e+04 6.130859e+02 0.0
2.220000e+04 7.415156e+02 0.0
2.225000e+04 6.130819e+02 0.0
2.230000e+04 7.415232e+02 0.0
2.235000e+04 6.130988e+02 0.0
2.240000e+04 7.415568e+02 0.0
2.245000e+04 6.131376e+02 0.0
2.265000e+04 6.132850e+02 0.0
2.270000e+04 7.418250e+02 0.0
2.275000e+04 6.133956e+02 0.0
2.280000e+04 7.419741e+02 0.0
2.285000e+04 6.135315e+02 0.0
2.290000e+04 7.421533e+02 0.0
2.295000e+04 6.136917e+02 0.0
2.300000e+04 7.423613e+02 0.0
2.305000e+04 6.138751e+02 0.0
2.310000e+04 7.425968e+02 0.0
2.315000e+04 6.140808e+02 0.0
2.320000e+04 7.428584e+02 0.0
2.325000e+04 6.143075e+02 0.0
2.330000e+04 7.431448e+02 0.0
2.335000e+04 6.145541e+02 0.0
2.340000e+04 7.434548e+02 0.0
2.345000e+04 6.148197e+02 0.0
2.350000e+04 7.437869e+02 0.0
6.950000e+03 -6.100463e+02 0.0
6.850000e+03 -6.103631e+02 0.0
6.900000e+03 -7.380357e+02 0.0
2.355000e+04 6.151030e+02 0.0
2.360000e+04 7.441398e+02 0.0
7.050000e+03 -6.097339e+02 0.0
7.000000e+03 -7.376551e+02 0.0
2.365000e+04 6.154031e+02 0.0
2.370000e+04 7.445123e+02 0.0
2.375000e+04 6.157187e+02 0.0
2.380000e+04 7.449031e+02 0.0
2.385000e+04 6.160489e+02 0.0
2.405000e+04 6.167484e+02 0.0
2.410000e+04 7.461713e+02 0.0
2.415000e+04 6.171156e+02 0.0
2.420000e+04 7.466217e+02 0.0
2.425000e+04 6.174928e+02 0.0
2.430000e+04 7.470836e+02 0.0
2.435000e+04 6.178792e+02 0.0
2.440000e+04 7.475559e+02 0.0
2.445000e+04 6.182735e+02 0.0
2.450000e+04 7.480371e+02 0.0
2.455000e+04 6.186747e+02 0.0
2.460000e+04 7.485260e+02 0.0
2.465000e+04 6.190816e+02 0.0
2.470000e+04 7.490212e+02 0.0
2.475000e+04 6.194932e+02 0.0
2.480000e+04 7.495213e+02 0.0
2.485000e+04 6.199084e+02 0.0
2.490000e+04 7.500252e+02 0.0
2.495000e+04 6.203261e+02 0.0
2.500000e+04 7.505314e+02 0.0
2.505000e+04 6.207452e+02 0.0
2.510000e+04 7.510387e+02 0.0
8.450000e+03 -6.060126e+02 0.0
8.350000e+03 -6.062280e+02 0.0
8.400000e+03 -7.330949e+02 0.0
2.515000e+04 6.211646e+02 0.0
8.550000e+03 -6.058065e+02 0.0
8.500000e+03 -7.328400e+02 0.0
2.535000e+04 6.220000e+02 0.0
2.540000e+04 7.525534e+02 0.0
2.545000e+04 6.224138e+02 0.0
2.550000e+04 7.530516e+02 0.0
2.555000e+04 6.228235e+02 0.0
2.560000e+04 7.535442e+02 0.0
2.565000e+04 6.232280e+02 0.0
2.570000e+04 7.540299e+02 0.0
2.575000e+04 6.236264e+02 0.0
2.580000e+04 7.545073e+02 0.0
2.585000e+04 6.240173e+02 0.0
2.590000e+04 7.549753e+02 0.0
2.595000e+04 6.243999e+02 0.0
2.600000e+04 7.554324e+02 0.0
2.605000e+04 6.247729e+02 0.0
2.610000e+04 7.558773e+02 0.0
2.615000e+04 6.251353e+02 0.0
2.620000e+04 7.563087e+02 0.0
2.625000e+04 6.254860e+02 0.0
2.630000e+04 7.567252e+02 0.0
2.635000e+04 6.258239e+02 0.0
2.640000e+04 7.571257e+02 0.0
2.645000e+04 6.261478e+02 0.0
2.650000e+04 7.575086e+02 0.0
2.655000e+04 6.264568e+02 0.0
9.850000e+03 -6.041015e+02 0.0
9.750000e+03 -6.041663e+02 0.0
9.800000e+03 -7.306921e+02 0.0
2.675000e+04 6.270255e+02 0.0
2.680000e+04 7.585395e+02 0.0
9.950000e+03 -6.040474e+02 0.0
9.900000e+03 -7.306203e+02 0.0
2.685000e+04 6.272830e+02 0.0
2.690000e+04 7.588393e+02 0.0
2.695000e+04 6.275211e+02 0.0
2.700000e+04 7.591151e+02 0.0
2.705000e+04 6.277387e+02 0.0
2.710000e+04 7.593655e+02 0.0
2.715000e+04 6.279349e+02 0.0
2.720000e+04 7.595892e+02 0.0
2.725000e+04 6.281083e+02 0.0
2.730000e+04 7.597849e+02 0.0
2.735000e+04 6.282582e+02 0.0
2.740000e+04 7.599519e+02 0.0
2.745000e+04 6.283848e+02 0.0
2.750000e+04 7.600914e+02 0.0
2.755000e+04 6.284890e+02 0.0
2.760000e+04 7.602042e+02 0.0
2.765000e+04 6.285716e+02 0.0
2.770000e+04 7.602915e+02 0.0
2.775000e+04 6.286336e+02 0.0
2.780000e+04 7.603543e+02 0.0
2.785000e+04 6.286757e+02 0.0
2.790000e+04 7.603937e+02 0.0
2.795000e+04 6.286989e+02 0.0
2.815000e+04 6.286921e+02 0.0
2.820000e+04 7.603819e+02 0.0
1.125000e+04 -6.042737e+02 0.0
1.115000e+04 -6.041977e+02 0.0
1.120000e+04 -7.308155e+02 0.0
2.825000e+04 6.286638e+02 0.0
2.830000e+04 7.603382e+02 0.0
1.135000e+04 -6.043590e+02 0.0
1.130000e+04 -7.309130e+02 0.0
2.835000e+04 6.286200e+02 0.0
2.840000e+04 7.602764e+02 0.0
2.845000e+04 6.285617e+02 0.0
2.850000e+04 7.601974e+02 0.0
2.855000e+04 6.284897e+02 0.0
2.860000e+04 7.601025e+02 0.0
2.865000e+04 6.284050e+02 0.0
2.870000e+04 7.599926e+02 0.0
2.875000e+04 6.283082e+02 0.0
2.880000e+04 7.598688e+02 0.0
2.885000e+04 6.282005e+02 0.0
2.890000e+04 7.597322e+02 0.0
2.895000e+04 6.280825e+02 0.0
2.900000e+04 7.595838e+02 0.0
2.905000e+04 6.279553e+02 0.0
2.910000e+04 7.594247e+02 0.0
2.915000e+04 6.278196e+02 0.0
2.920000e+04 7.592559e+02 0.0
2.925000e+04 6.276764e+02 0.0
2.945000e+04 6.273708e+02 0.0
2.950000e+04 7.587021e+02 0.0
2.955000e+04 6.272102e+02 0.0
2.960000e+04 7.585053e+02 0.0
2.965000e+04 6.270455e+02 0.0
2.970000e+04 7.583040e+02 0.0
1.265000e+04 -6.062658e+02 0.0
1.255000e+04 -6.060692e+02 0.0
1.260000e+04 -7.331522e+02 0.0
2.975000e+04 6.268776e+02 0.0
2.980000e+04 7.580995e+02 0.0
1.275000e+04 -6.064702e+02 0.0
1.270000e+04 -7.333947e+02 0.0
2.985000e+04 6.267075e+02 0.0
2.990000e+04 7.578927e+02 0.0
2.995000e+04 6.265359e+02 0.0
3.000000e+04 7.576847e+02 0.0
3.005000e+04 6.263637e+02 0.0
3.010000e+04 7.574765e+02 0.0
3.015000e+04 6.261919e+02 0.0
3.020000e+04 7.572693e+02 0.0
3.025000e+04 6.260213e+02 0.0
3.030000e+04 7.570641e+02 0.0
3.035000e+04 6.258527e+02 0.0
3.040000e+04 7.568618e+02 0.0
3.045000e+04 6.256871e+02 0.0
3.050000e+04 7.566637e+02 0.0
3.055000e+04 6.255254e+02 0.0
3.075000e+04 6.252168e+02 0.0
3.080000e+04 7.561045e+02 0.0
3.085000e+04 6.250717e+02 0.0
3.090000e+04 7.559334e+02 0.0
3.095000e+04 6.249340e+02 0.0
3.100000e+04 7.557716e+02 0.0
3.105000e+04 6.248044e+02 0.0
3.110000e+04 7.556202e+02 0.0
3.115000e+04 6.246839e+02 0.0
3.120000e+04 7.554804e+02 0.0
3.125000e+04 6.245734e+02 0.0
3.130000e+04 7.553531e+02 0.0
1.415000e+04 -6.100880e+02 0.0
1.405000e+04 -6.097897e+02 0.0
1.410000e+04 -7.377142e+02 0.0
3.135000e+04 6.244737e+02 0.0
3.140000e+04 7.552395e+02 0.0
1.425000e+04 -6.103901e+02 0.0
1.420000e+04 -7.380774e+02 0.0
3.145000e+04 6.243857e+02 0.0
3.150000e+04 7.551405e+02 0.0
3.155000e+04 6.243103e+02 0.0
3.160000e+04 7.550573e+02 0.0
3.165000e+04 6.242483e+02 0.0
3.170000e+04 7.549908e+02 0.0
3.175000e+04 6.242006e+02 0.0
3.180000e+04 7.549422e+02 0.0
3.185000e+04 6.241681e+02 0.0
3.190000e+04 7.549124e+02 0.0
3.195000e+04 6.241512e+02 0.0
3.215000e+04 6.241626e+02 0.0
3.220000e+04 7.549327e+02 0.0
3.225000e+04 6.241900e+02 0.0
3.230000e+04 7.549742e+02 0.0
3.235000e+04 6.242312e+02 0.0
3.240000e+04 7.550323e+02 0.0
3.245000e+04 6.242858e+02 0.0
3.250000e+04 7.551063e+02 0.0
3.255000e+04 6.243534e+02 0.0
3.260000e+04 7.551957e+02 0.0
3.265000e+04 6.244335e+02 0.0
3.270000e+04 7.552999e+02 0.0
3.275000e+04 6.245257e+02 0.0
3.280000e+04 7.554185e+02 0.0
1.555000e+04 -6.144015e+02 0.0
1.545000e+04 -6.141026e+02 0.0
1.550000e+04 -7.429322e+02 0.0
3.285000e+04 6.246295e+02 0.0
3.290000e+04 7.555509e+02 0.0
1.565000e+04 -6.146961e+02 0.0
1.560000e+04 -7.432912e+02 0.0
3.295000e+04 6.247445e+02 0.0
3.300000e+04 7.556965e+02 0.0
3.305000e+04 6.248702e+02 0.0
3.310000e+04 7.558548e+02 0.0
3.315000e+04 6.250061e+02 0.0
3.320000e+04 7.560253e+02 0.0
3.325000e+04 6.251519e+02 0.0
3.345000e+04 6.254712e+02 0.0
3.350000e+04 7.566042e+02 0.0
3.355000e+04 6.256438e+02 0.0
3.360000e+04 7.568178e+02 0.0
3.365000e+04 6.258244e+02 0.0
3.370000e+04 7.570409e+02 0.0
3.375000e+04 6.260126e+02 0.0
3.380000e+04 7.572729e+02 0.0
3.385000e+04 6.262079e+02 0.0
3.390000e+04 7.575133e+02 0.0
3.395000e+04 6.264100e+02 0.0
3.400000e+04 7.577615e+02 0.0
3.405000e+04 6.266182e+02 0.0
3.410000e+04 7.580170e+02 0.0
3.415000e+04 6.268323e+02 0.0
3.420000e+04 7.582792e+02 0.0
3.425000e+04 6.270517e+02 0.0
3.430000e+04 7.585476e+02 0.0
1.695000e+04 -6.178662e+02 0.0
1.685000e+04 -6.176810e+02 0.0
1.690000e+04 -7.471927e+02 0.0
3.435000e+04 6.272760e+02 0.0
3.440000e+04 7.588216e+02 0.0
1.705000e+04 -6.180389e+02 0.0
1.700000e+04 -7.474093e+02 0.0
3.445000e+04 6.275048e+02 0.0
3.450000e+04 7.591008e+02 0.0
3.455000e+04 6.277375e+02 0.0
3.475000e+04 6.282133e+02 0.0
3.480000e+04 7.599635e+02 0.0
3.485000e+04 6.284553e+02 0.0
3.490000e+04 7.602577e+02 0.0
3.495000e+04 6.286996e+02 0.0
3.500000e+04 7.605543e+02 0.0
3.505000e+04 6.289457e+02 0.0
3.510000e+04 7.608528e+02 0.0
3.515000e+04 6.291930e+02 0.0
3.520000e+04 7.611525e+02 0.0
3.525000e+04 6.294412e+02 0.0
3.530000e+04 7.614531e+02 0.0
3.535000e+04 6.296899e+02 0.0
3.540000e+04 7.617538e+02 0.0
3.545000e+04 6.299385e+02 0.0
3.550000e+04 7.620543e+02 0.0
3.555000e+04 6.301866e+02 0.0
3.560000e+04 7.623539e+02 0.0
3.565000e+04 6.304338e+02 0.0
3.570000e+04 7.626521e+02 0.0
3.575000e+04 6.306796e+02 0.0
3.580000e+04 7.629484e+02 0.0
1.835000e+04 -6.188833e+02 0.0
1.825000e+04 -6.189249e+02 0.0
1.830000e+04 -7.485609e+02 0.0
3.585000e+04 6.309236e+02 0.0
3.590000e+04 7.632422e+02 0.0
1.845000e+04 -6.188236e+02 0.0
1.840000e+04 -7.484996e+02 0.0
3.595000e+04 6.311653e+02 0.0
3.615000e+04 6.316401e+02 0.0
3.620000e+04 7.641033e+02 0.0
3.625000e+04 6.318724e+02 0.0
3.630000e+04 7.643818e+02 0.0
3.635000e+04 6.321005e+02 0.0
3.640000e+04 7.646551e+02 0.0
3.645000e+04 6.323242e+02 0.0
3.650000e+04 7.649228e+02 0.0
3.655000e+04 6.325433e+02 0.0
3.660000e+04 7.651850e+02 0.0
3.665000e+04 6.327577e+02 0.0
3.670000e+04 7.654416e+02 0.0
3.675000e+04 6.329675e+02 0.0
3.680000e+04 7.656924e+02 0.0
3.685000e+04 6.331725e+02 0.0
3.690000e+04 7.659376e+02 0.0
3.695000e+04 6.333728e+02 0.0
3.700000e+04 7.661769e+02 0.0
3.705000e+04 6.335683e+02 0.0
3.710000e+04 7.664105e+02 0.0
3.715000e+04 6.337590e+02 0.0
3.720000e+04 7.666382e+02 0.0
3.725000e+04 6.339448e+02 0.0
1.975000e+04 -6.168649e+02 0.0
1.965000e+04 -6.170677e+02 0.0
1.970000e+04 -7.462152e+02 0.0
3.745000e+04 6.343018e+02 0.0
3.750000e+04 7.672857e+02 0.0
1.985000e+04 -6.166581e+02 0.0
1.980000e+04 -7.459673e+02 0.0
3.755000e+04 6.344728e+02 0.0
3.760000e+04 7.674895e+02 0.0
3.765000e+04 6.346388e+02 0.0
3.770000e+04 7.676873e+02 0.0
3.775000e+04 6.347998e+02 0.0
3.780000e+04 7.678789e+02 0.0
3.785000e+04 6.349557e+02 0.0
3.790000e+04 7.680644e+02 0.0
3.795000e+04 6.351065e+02 0.0
3.800000e+04 7.682436e+02 0.0
3.805000e+04 6.352521e+02 0.0
3.810000e+04 7.684166e+02 0.0
3.815000e+04 6.353925e+02 0.0
3.820000e+04 7.685833e+02 0.0
3.825000e+04 6.355278e+02 0.0
3.830000e+04 7.687437e+02 0.0
3.835000e+04 6.356577e+02 0.0
3.840000e+04 7.688977e+02 0.0
3.845000e+04 6.357824e+02 0.0
3.850000e+04 7.690452e+02 0.0
3.855000e+04 6.359017e+02 0.0
3.875000e+04 6.361242e+02 0.0
3.880000e+04 7.694489e+02 0.0
2.105000e+04 -6.142257e+02 0.0
2.095000e+04 -6.144030e+02 0.0
2.100000e+04 -7.430057e+02 0.0
3.885000e+04 6.362273e+02 0.0
3.890000e+04 7.695703e+02 0.0
2.115000e+04 -6.140574e+02 0.0
2.110000e+04 -7.427965e+02 0.0
3.895000e+04 6.363249e+02 0.0
3.900000e+04 7.696850e+02 0.0
3.905000e+04 6.364170e+02 0.0
3.910000e+04 7.697931e+02 0.0
3.915000e+04 6.365036e+02 0.0
3.920000e+04 7.698944e+02 0.0
3.925000e+04 6.365845e+02 0.0
3.930000e+04 7.699889e+02 0.0
3.935000e+04 6.366599e+02 0.0
3.940000e+04 7.700766e+02 0.0
3.945000e+04 6.367295e+02 0.0
3.950000e+04 7.701574e+02 0.0
3.955000e+04 6.367935e+02 0.0
3.960000e+04 7.702313e+02 0.0
3.965000e+04 6.368518e+02 0.0
3.970000e+04 7.702983e+02 0.0
3.975000e+04 6.369042e+02 0.0
3.980000e+04 7.703582e+02 0.0
3.985000e+04 6.369509e+02 0.0
4.005000e+04 6.370266e+02 0.0
4.010000e+04 7.704956e+02 0.0
4.015000e+04 6.370556e+02 0.0
4.020000e+04 7.705271e+02 0.0
4.025000e+04 6.370787e+02 0.0
4.030000e+04 7.705514e+02 0.0
2.245000e+04 -6.131376e+02 0.0
2.235000e+04 -6.130988e+02 0.0
2.240000e+04 -7.415568e+02 0.0
4.035000e+04 6.370958e+02 0.0
4.040000e+04 7.705684e+02 0.0
2.255000e+04 -6.131994e+02 0.0
2.250000e+04 -7.416175e+02 0.0
4.045000e+04 6.371068e+02 0.0
4.050000e+04 7.705781e+02 0.0
4.055000e+04 6.371118e+02 0.0
4.060000e+04 7.705804e+02 0.0
4.065000e+04 6.371107e+02 0.0
4.070000e+04 7.705754e+02 0.0
4.075000e+04 6.371034e+02 0.0
4.080000e+04 7.705629e+02 0.0
4.085000e+04 6.370900e+02 0.0
4.090000e+04 7.705429e+02 0.0
4.095000e+04 6.370703e+02 0.0
4.100000e+04 7.705154e+02 0.0
4.105000e+04 6.370446e+02 0.0
4.110000e+04 7.704808e+02 0.0
4.115000e+04 6.370132e+02 0.0
4.135000e+04 6.369345e+02 0.0
4.140000e+04 7.703383e+02 0.0
4.145000e+04 6.368879e+02 0.0
4.150000e+04 7.702793e+02 0.0
4.155000e+04 6.368370e+02 0.0
4.160000e+04 7.702153e+02 0.0
4.165000e+04 6.367821e+02 0.0
4.170000e+04 7.701466e+02 0.0
4.175000e+04 6.367236e+02 0.0
4.180000e+04 7.700738e+02 0.0
2.385000e+04 -6.160489e+02 0.0
2.375000e+04 -6.157187e+02 0.0
2.380000e+04 -7.449031e+02 0.0
4.185000e+04 6.366618e+02 0.0
4.190000e+04 7.699972e+02 0.0
2.395000e+04 -6.163925e+02 0.0
2.390000e+04 -7.453107e+02 0.0
4.195000e+04 6.365971e+02 0.0
4.200000e+04 7.699173e+02 0.0
4.205000e+04 6.365298e+02 0.0
4.210000e+04 7.698345e+02 0.0
4.215000e+04 6.364602e+02 0.0
4.220000e+04 7.697492e+02 0.0
4.225000e+04 6.363888e+02 0.0
4.230000e+04 7.696618e+02 0.0
4.235000e+04 6.363158e+02 0.0
4.240000e+04 7.695727e+02 0.0
4.245000e+04 6.362416e+02 0.0
4.265000e+04 6.360911e+02 0.0
4.270000e+04 7.693000e+02 0.0
4.275000e+04 6.360155e+02 0.0
4.280000e+04 7.692086e+02 0.0
4.285000e+04 6.359401e+02 0.0
4.290000e+04 7.691177e+02 0.0
4.295000e+04 6.358653e+02 0.0
4.300000e+04 7.690277e+02 0.0
4.305000e+04 6.357914e+02 0.0
4.310000e+04 7.689390e+02 0.0
4.315000e+04 6.357187e+02 0.0
4.320000e+04 7.688521e+02 0.0
2.515000e+04 -6.211646e+02 0.0
2.505000e+04 -6.207452e+02 0.0
2.510000e+04 -7.510387e+02 0.0
4.325000e+04 6.356477e+02 0.0
4.330000e+04 7.687673e+02 0.0
2.525000e+04 -6.215832e+02 0.0
2.520000e+04 -7.515456e+02 0.0
4.335000e+04 6.355786e+02 0.0
4.340000e+04 7.686851e+02 0.0
4.345000e+04 6.355119e+02 0.0
4.350000e+04 7.686060e+02 0.0
4.355000e+04 6.354478e+02 0.0
4.360000e+04 7.685302e+02 0.0
4.365000e+04 6.353868e+02 0.0
4.370000e+04 7.684584e+02 0.0
4.375000e+04 6.353291e+02 0.0
4.395000e+04 6.352252e+02 0.0
4.400000e+04 7.682702e+02 0.0
4.405000e+04 6.351797e+02 0.0
4.410000e+04 7.682180e+02 0.0
4.415000e+04 6.351390e+02 0.0
4.420000e+04 7.681718e+02 0.0
4.425000e+04 6.351034e+02 0.0
4.430000e+04 7.681320e+02 0.0
4.435000e+04 6.350733e+02 0.0
4.440000e+04 7.680990e+02 0.0
4.445000e+04 6.350490e+02 0.0
4.450000e+04 7.680733e+02 0.0
4.455000e+04 6.350309e+02 0.0
4.460000e+04 7.680553e+02 0.0
4.465000e+04 6.350192e+02 0.0
4.470000e+04 7.680454e+02 0.0
2.655000e+04 -6.264568e+02 0.0
2.645000e+04 -6.261478e+02 0.0
2.650000e+04 -7.575086e+02 0.0
4.475000e+04 6.350145e+02 0.0
4.480000e+04 7.680439e+02 0.0
2.665000e+04 -6.267497e+02 0.0
2.660000e+04 -7.578728e+02 0.0
4.485000e+04 6.350170e+02 0.0
4.490000e+04 7.680515e+02 0.0
4.495000e+04 6.350270e+02 0.0
4.500000e+04 7.680684e+02 0.0
4.505000e+04 6.350450e+02 0.0
4.525000e+04 6.351061e+02 0.0
4.530000e+04 7.681795e+02 0.0
4.535000e+04 6.351500e+02 0.0
4.540000e+04 7.682381e+02 0.0
4.545000e+04 6.352032e+02 0.0
4.550000e+04 7.683082e+02 0.0
4.555000e+04 6.352658e+02 0.0
4.560000e+04 7.683892e+02 0.0
4.565000e+04 6.353368e+02 0.0
4.570000e+04 7.684796e+02 0.0
4.575000e+04 6.354149e+02 0.0
4.580000e+04 7.685777e+02 0.0
4.585000e+04 6.354987e+02 0.0
4.590000e+04 7.686821e+02 0.0
4.595000e+04 6.355871e+02 0.0
4.600000e+04 7.687910e+02 0.0
4.605000e+04 6.356785e+02 0.0
4.610000e+04 7.689028e+02 0.0
4.615000e+04 6.357717e+02 0.0
4.620000e+04 7.690160e+02 0.0
2.795000e+04 -6.286989e+02 0.0
2.785000e+04 -6.286757e+02 0.0
2.790000e+04 -7.603937e+02 0.0
4.625000e+04 6.358653e+02 0.0
4.630000e+04 7.691289e+02 0.0
2.805000e+04 -6.287041e+02 0.0
2.800000e+04 -7.604107e+02 0.0
4.635000e+04 6.359581e+02 0.0
4.655000e+04 6.361356e+02 0.0
4.660000e+04 7.694500e+02 0.0
4.665000e+04 6.362178e+02 0.0
4.670000e+04 7.695458e+02 0.0
4.675000e+04 6.362937e+02 0.0
4.680000e+04 7.696334e+02 0.0
4.685000e+04 6.363621e+02 0.0
4.690000e+04 7.697110e+02 0.0
4.695000e+04 6.364217e+02 0.0
4.700000e+04 7.697771e+02 0.0
4.705000e+04 6.364711e+02 0.0
4.710000e+04 7.698300e+02 0.0
4.715000e+04 6.365090e+02 0.0
4.720000e+04 7.698683e+02 0.0
4.725000e+04 6.365340e+02 0.0
4.730000e+04 7.698902e+02 0.0
4.735000e+04 6.365449e+02 0.0
4.740000e+04 7.698942e+02 0.0
4.745000e+04 6.365403e+02 0.0
4.750000e+04 7.698787e+02 0.0
4.755000e+04 6.365189e+02 0.0
4.760000e+04 7.698419e+02 0.0
2.925000e+04 -6.276764e+02 0.0
2.915000e+04 -6.278196e+02 0.0
2.920000e+04 -7.592559e+02 0.0
4.765000e+04 6.364793e+02 0.0
2.935000e+04 -6.275265e+02 0.0
2.930000e+04 -7.590785e+02 0.0
4.785000e+04 6.363403e+02 0.0
4.790000e+04 7.695888e+02 0.0
4.795000e+04 6.362383e+02 0.0
4.800000e+04 7.694514e+02 0.0
4.805000e+04 6.361128e+02 0.0
4.810000e+04 7.692849e+02 0.0
4.815000e+04 6.359625e+02 0.0
4.820000e+04 7.690875e+02 0.0
4.825000e+04 6.357861e+02 0.0
4.830000e+04 7.688577e+02 0.0
4.835000e+04 6.355822e+02 0.0
4.840000e+04 7.685939e+02 0.0
4.845000e+04 6.353495e+02 0.0
4.850000e+04 7.682945e+02 0.0
4.855000e+04 6.350868e+02 0.0
4.860000e+04 7.679579e+02 0.0
4.865000e+04 6.347926e+02 0.0
4.870000e+04 7.675824e+02 0.0
4.875000e+04 6.344656e+02 0.0
4.880000e+04 7.671665e+02 0.0
4.885000e+04 6.341045e+02 0.0
4.890000e+04 7.667086e+02 0.0
4.895000e+04 6.337080e+02 0.0
3.055000e+04 -6.255254e+02 0.0
3.045000e+04 -6.256871e+02 0.0
3.050000e+04 -7.566637e+02 0.0
4.915000e+04 6.328034e+02 0.0
4.920000e+04 7.650665e+02 0.0
3.065000e+04 -6.253683e+02 0.0
3.060000e+04 -7.564708e+02 0.0
4.925000e+04 6.322927e+02 0.0
4.930000e+04 7.644243e+02 0.0
4.935000e+04 6.317412e+02 0.0
4.940000e+04 7.637320e+02 0.0
4.945000e+04 6.311476e+02 0.0
4.950000e+04 7.629881e+02 0.0
4.955000e+04 6.305107e+02 0.0
4.960000e+04 7.621908e+02 0.0
4.965000e+04 6.298290e+02 0.0
4.970000e+04 7.613387e+02 0.0
4.975429e+04 6.214370e+02 0.0
4.980000e+04 7.604301e+02 0.0
4.986100e+04 6.257413e+02 0.0
4.990000e+04 7.594633e+02 0.0
5.000000e+04 6.067494e+02 0.0
5.000000e+04 7.584368e+02 0.0
3.205000e+04 -6.241495e+02 0.0
3.195000e+04 -6.241512e+02 0.0
3.200000e+04 -7.549012e+02 0.0
3.325000e+04 -6.251519e+02 0.0
3.315000e+04 -6.250061e+02 0.0
3.320000e+04 -7.560253e+02 0.0
3.335000e+04 -6.253071e+02 0.0
3.330000e+04 -7.562073e+02 0.0
3.455000e+04 -6.277375e+02 0.0
3.445000e+04 -6.275048e+02 0.0
3.450000e+04 -7.591008e+02 0.0
3.465000e+04 -6.279738e+02 0.0
3.460000e+04 -7.593845e+02 0.0
3.595000e+04 -6.311653e+02 0.0
3.585000e+04 -6.309236e+02 0.0
3.590000e+04 -7.632422e+02 0.0
3.605000e+04 -6.314043e+02 0.0
3.600000e+04 -7.635330e+02 0.0
3.725000e+04 -6.339448e+02 0.0
3.715000e+04 -6.337590e+02 0.0
3.720000e+04 -7.666382e+02 0.0
3.735000e+04 -6.341258e+02 0.0
3.730000e+04 -7.668600e+02 0.0
3.855000e+04 -6.359017e+02 0.0
3.845000e+04 -6.357824e+02 0.0
3.850000e+04 -7.690452e+02 0.0
3.865000e+04 -6.360156e+02 0.0
3.860000e+04 -7.691863e+02 0.0
3.985000e+04 -6.369509e+02 0.0
3.975000e+04 -6.369042e+02 0.0
3.980000e+04 -7.703582e+02 0.0
3.995000e+04 -6.369917e+02 0.0
3.990000e+04 -7.704111e+02 0.0
4.115000e+04 -6.370132e+02 0.0
4.105000e+04 -6.370446e+02 0.0
4.110000e+04 -7.704808e+02 0.0
4.125000e+04 -6.369763e+02 0.0
4.120000e+04 -7.704394e+02 0.0
4.245000e+04 -6.362416e+02 0.0
4.235000e+04 -6.363158e+02 0.0
4.240000e+04 -7.695727e+02 0.0
4.255000e+04 -6.361666e+02 0.0
4.250000e+04 -7.694825e+02 0.0
4.375000e+04 -6.353291e+02 0.0
4.365000e+04 -6.353868e+02 0.0
4.370000e+04 -7.684584e+02 0.0
4.385000e+04 -6.352751e+02 0.0
4.380000e+04 -7.683908e+02 0.0
4.505000e+04 -6.350450e+02 0.0
4.495000e+04 -6.350270e+02 0.0
4.500000e+04 -7.680684e+02 0.0
4.515000e+04 -6.350713e+02 0.0
4.510000e+04 -7.680951e+02 0.0
4.635000e+04 -6.359581e+02 0.0
4.625000e+04 -6.358653e+02 0.0
4.630000e+04 -7.691289e+02 0.0
4.645000e+04 -6.360486e+02 0.0
4.640000e+04 -7.692400e+02 0.0
4.765000e+04 -6.364793e+02 0.0
4.755000e+04 -6.365189e+02 0.0
4.760000e+04 -7.698419e+02 0.0
4.775000e+04 -6.364202e+02 0.0
4.770000e+04 -7.697825e+02 0.0
4.905000e+04 -6.332748e+02 0.0
4.895000e+04 -6.337080e+02 0.0
4.900000e+04 -7.662070e+02 0.0
4.955000e+04 -6.305107e+02 0.0
4.945000e+04 -6.311476e+02 0.0
4.950000e+04 -7.629881e+02 0.0
4.990000e+04 -7.594633e+02 0.0
4.984833e+04 -6.278287e+02 0.0
4.980000e+04 -7.604301e+02 0.0
5.000000e+04 -7.584368e+02 0.0
5.000000e+04 -6.067494e+02 0.0
4.975288e+04 -6.223953e+02 0.0
4.970000e+04 -7.613387e+02 0.0
5.000000e+04 -4.550621e+02 0.0
4.991408e+04 -5.472934e+02 0.0
4.965000e+04 -6.298290e+02 0.0
4.960000e+04 -7.621908e+02 0.0
4.991278e+04 -3.813118e+02 0.0
4.981893e+04 -4.715529e+02 0.0
4.991340e+04 7.593293e+01 0.0
4.982679e+04 -2.205525e-11 0.0
4.991340e+04 -7.593293e+01 0.0
4.991555e+04 5.269587e+02 0.0
4.981881e+04 4.711762e+02 0.0
4.991340e+04 3.796646e+02 0.0
5.000000e+04 4.550621e+02 0.0
4.885000e+04 -6.341045e+02 0.0
4.880000e+04 -7.671665e+02 0.0
4.890000e+04 -7.667086e+02 0.0
4.750000e+04 -7.698787e+02 0.0
4.620000e+04 -7.690160e+02 0.0
4.490000e+04 -7.680515e+02 0.0
4.360000e+04 -7.685302e+02 0.0
3.970000e+04 -7.702983e+02 0.0
3.840000e+04 -7.688977e+02 0.0
3.710000e+04 -7.664105e+02 0.0
3.440000e+04 -7.588216e+02 0.0
3.185000e+04 -6.241681e+02 0.0
3.180000e+04 -7.549422e+02 0.0
3.190000e+04 -7.549124e+02 0.0
3.040000e+04 -7.568618e+02 0.0
2.910000e+04 -7.594247e+02 0.0
2.640000e+04 -7.571257e+02 0.0
2.500000e+04 -7.505314e+02 0.0
2.370000e+04 -7.445123e+02 0.0
2.230000e+04 -7.415232e+02 0.0
1.960000e+04 -7.464575e+02 0.0
1.680000e+04 -7.469614e+02 0.0
1.540000e+04 -7.425683e+02 0.0
1.400000e+04 -7.373560e+02 0.0
1.250000e+04 -7.329191e+02 0.0
1.110000e+04 -7.307292e+02 0.0
9.700000e+03 -7.307770e+02 0.0
8.300000e+03 -7.333610e+02 0.0
6.800000e+03 -7.384215e+02 0.0
5.400000e+03 -7.441446e+02 0.0
9.000000e+02 -7.558469e+02 0.0
-5.000000e+02 -7.532430e+02 0.0
-2.000000e+03 -7.472130e+02 0.0
-3.550000e+03 -6.135336e+02 0.0
-3.600000e+03 -7.419721e+02 0.0
-3.500000e+03 -7.421597e+02 0.0
-5.100000e+03 -7.430312e+02 0.0
-6.600000e+03 -7.506514e+02 0.0
-8.200000e+03 -7.605649e+02 0.0
-9.700000e+03 -7.660915e+02 0.0
-1.290000e+04 -7.632908e+02 0.0
-1.450000e+04 -7.613409e+02 0.0
-1.605000e+04 -6.293413e+02 0.0
-1.610000e+04 -7.611909e+02 0.0
-1.600000e+04 -7.611732e+02 0.0
-1.765000e+04 -6.295521e+02 0.0
-1.770000e+04 -7.614356e+02 0.0
-1.760000e+04 -7.614369e+02 0.0
-1.940000e+04 -7.606035e+02 0.0
-2.100000e+04 -7.585751e+02 0.0
-2.440000e+04 -7.521750e+02 0.0
-2.790000e+04 -7.434895e+02 0.0
-2.960000e+04 -7.392224e+02 0.0
-3.325000e+04 -6.131249e+02 0.0
-3.330000e+04 -7.417464e+02 0.0
-3.320000e+04 -7.413930e+02 0.0
-3.510000e+04 -7.494194e+02 0.0
-3.810000e+04 -7.611346e+02 0.0
-3.860000e+04 -7.625080e+02 0.0
-3.890000e+04 -7.632564e+02 0.0
-3.940000e+04 -7.643828e+02 0.0
-3.960000e+04 -7.647923e+02 0.0
-4.000000e+04 -7.655438e+02 0.0
-4.040000e+04 -7.662083e+02 0.0
-4.080000e+04 -7.667894e+02 0.0
-4.100000e+04 -7.670499e+02 0.0
-4.135000e+04 -6.345306e+02 0.0
-4.140000e+04 -7.675116e+02 0.0
-4.130000e+04 -7.674037e+02 0.0
-4.230000e+04 -7.682551e+02 0.0
-4.280000e+04 -7.684869e+02 0.0
-4.330000e+04 -7.685858e+02 0.0
-4.360000e+04 -7.685803e+02 0.0
-4.365000e+04 -6.354536e+02 0.0
-4.370000e+04 -7.685675e+02 0.0
-4.460000e+04 -7.682020e+02 0.0
-4.500000e+04 -7.678923e+02 0.0
-4.520000e+04 -7.677028e+02 0.0
-4.550000e+04 -7.673747e+02 0.0
-4.610000e+04 -7.665857e+02 0.0
-4.615000e+04 -6.337505e+02 0.0
-4.620000e+04 -7.664433e+02 0.0
-4.650000e+04 -7.660087e+02 0.0
-4.655000e+04 -6.332720e+02 0.0
-4.660000e+04 -7.658634e+02 0.0
-4.680000e+04 -7.655755e+02 0.0
-4.790000e+04 -7.642498e+02 0.0
-4.820000e+04 -7.640286e+02 0.0
-4.940000e+04 -7.641949e+02 0.0
-5.000000e+04 1.530253e+02 0.0
-4.981881e+04 4.739765e+02 0.0
-4.974678e+04 3.692625e+02 0.0
-4.970287e+04 4.986894e+02 0.0
-4.982679e+04 3.059152e+02 0.0
-4.960000e+04 4.996249e+02 0.0
-4.950000e+04 4.995417e+02 0.0
-4.982679e+04 1.529576e+02 0.0
-4.981013e+04 -4.878259e+02 0.0
-4.974147e+04 -3.774069e+02 0.0
-4.982611e+04 -3.103052e+02 0.0
-3.745000e+04 -6.276225e+02 0.0
-3.750000e+04 -7.592695e+02 0.0
-3.740000e+04 -7.589348e+02 0.0
-3.735000e+04 -6.273429e+02 0.0
-3.730000e+04 -7.585931e+02 0.0
-3.725000e+04 -6.270575e+02 0.0
-3.720000e+04 -7.582444e+02 0.0
-3.715000e+04 -6.267663e+02 0.0
-3.710000e+04 -7.578886e+02 0.0
-4.982679e+04 -1.529576e+02 0.0
-3.705000e+04 -6.264691e+02 0.0
-3.700000e+04 -7.575257e+02 0.0
-4.940000e+04 4.994700e+02 0.0
-4.930000e+04 4.994093e+02 0.0
-4.920000e+04 4.993592e+02 0.0
-4.950000e+04 -4.995417e+02 0.0
-3.665000e+04 -6.252209e+02 0.0
-3.670000e+04 -7.563934e+02 0.0
-3.660000e+04 -7.560013e+02 0.0
-4.910000e+04 4.993194e+02 0.0
-3.655000e+04 -6.248937e+02 0.0
-3.650000e+04 -7.556018e+02 0.0
-4.900000e+04 4.992895e+02 0.0
-3.645000e+04 -6.245602e+02 0.0
-3.640000e+04 -7.551947e+02 0.0
-4.890000e+04 4.992691e+02 0.0
-3.635000e+04 -6.242206e+02 0.0
-3.630000e+04 -7.547802e+02 0.0
-4.880000e+04 4.992579e+02 0.0
-3.625000e+04 -6.238748e+02 0.0
-3.620000e+04 -7.543584e+02 0.0
-4.870000e+04 4.992554e+02 0.0
-3.615000e+04 -6.235233e+02 0.0
-3.610000e+04 -7.539301e+02 0.0
-4.860000e+04 4.992613e+02 0.0
-3.605000e+04 -6.231666e+02 0.0
-3.600000e+04 -7.534958e+02 0.0
-4.850000e+04 4.992752e+02 0.0
-3.595000e+04 -6.228053e+02 0.0
-3.590000e+04 -7.530562e+02 0.0
-4.840000e+04 4.992968e+02 0.0
-3.585000e+04 -6.224397e+02 0.0
-3.580000e+04 -7.526118e+02 0.0
-4.830000e+04 4.993256e+02 0.0
-3.575000e+04 -6.220705e+02 0.0
-3.570000e+04 -7.521632e+02 0.0
-4.820000e+04 4.993613e+02 0.0
-3.565000e+04 -6.216982e+02 0.0
-3.560000e+04 -7.517112e+02 0.0
-4.810000e+04 4.994035e+02 0.0
-3.555000e+04 -6.213232e+02 0.0
-3.550000e+04 -7.512562e+02 0.0
-4.800000e+04 4.994518e+02 0.0
-3.545000e+04 -6.209460e+02 0.0
-3.540000e+04 -7.507989e+02 0.0
-4.790000e+04 4.995059e+02 0.0
-4.820000e+04 -4.993613e+02 0.0
-3.535000e+04 -6.205671e+02 0.0
-3.530000e+04 -7.503400e+02 0.0
-4.780000e+04 4.995654e+02 0.0
-4.810000e+04 -4.994035e+02 0.0
-3.525000e+04 -6.201872e+02 0.0
-3.520000e+04 -7.498799e+02 0.0
-4.770000e+04 4.996298e+02 0.0
-3.515000e+04 -6.198065e+02 0.0
-4.760000e+04 4.996989e+02 0.0
-4.750000e+04 4.997722e+02 0.0
-4.740000e+04 4.998493e+02 0.0
-3.475000e+04 -6.182878e+02 0.0
-3.480000e+04 -7.480412e+02 0.0
-3.470000e+04 -7.475849e+02 0.0
-4.730000e+04 4.999300e+02 0.0
-3.465000e+04 -6.179115e+02 0.0
-3.460000e+04 -7.471312e+02 0.0
-4.720000e+04 5.000137e+02 0.0
-3.455000e+04 -6.175377e+02 0.0
-3.450000e+04 -7.466807e+02 0.0
-4.710000e+04 5.001002e+02 0.0
-3.445000e+04 -6.171667e+02 0.0
-3.440000e+04 -7.462340e+02 0.0
-4.700000e+04 5.001891e+02 0.0
-3.435000e+04 -6.167991e+02 0.0
-3.430000e+04 -7.457917e+02 0.0
-4.690000e+04 5.002799e+02 0.0
-3.425000e+04 -6.164355e+02 0.0
-3.420000e+04 -7.453545e+02 0.0
-4.680000e+04 5.003724e+02 0.0
-3.415000e+04 -6.160762e+02 0.0
-3.410000e+04 -7.449229e+02 0.0
-4.670000e+04 5.004660e+02 0.0
-3.405000e+04 -6.157219e+02 0.0
-3.400000e+04 -7.444975e+02 0.0
-4.660000e+04 5.005605e+02 0.0
-3.395000e+04 -6.153730e+02 0.0
-3.390000e+04 -7.440790e+02 0.0
-4.650000e+04 5.006555e+02 0.0
-4.680000e+04 -5.003724e+02 0.0
-3.385000e+04 -6.150300e+02 0.0
-3.380000e+04 -7.436680e+02 0.0
-4.640000e+04 5.007506e+02 0.0
-4.670000e+04 -5.004660e+02 0.0
-3.375000e+04 -6.146935e+02 0.0
-3.370000e+04 -7.432651e+02 0.0
-4.630000e+04 5.008454e+02 0.0
-3.365000e+04 -6.143639e+02 0.0
-3.360000e+04 -7.428708e+02 0.0
-4.620000e+04 5.009395e+02 0.0
-3.355000e+04 -6.140417e+02 0.0
-3.350000e+04 -7.424859e+02 0.0
-4.610000e+04 5.010326e+02 0.0
-3.345000e+04 -6.137275e+02 0.0
-3.340000e+04 -7.421109e+02 0.0
-4.600000e+04 5.011243e+02 0.0
-3.335000e+04 -6.134217e+02 0.0
-4.590000e+04 5.012142e+02 0.0
-4.580000e+04 5.013019e+02 0.0
-4.570000e+04 5.013871e+02 0.0
-3.295000e+04 -6.122932e+02 0.0
-3.300000e+04 -7.407222e+02 0.0
-3.290000e+04 -7.404059e+02 0.0
-4.560000e+04 5.014694e+02 0.0
-3.285000e+04 -6.120372e+02 0.0
-3.280000e+04 -7.401032e+02 0.0
-4.550000e+04 5.015483e+02 0.0
-3.275000e+04 -6.117928e+02 0.0
-3.270000e+04 -7.398147e+02 0.0
-4.540000e+04 5.016236e+02 0.0
-3.265000e+04 -6.115603e+02 0.0
-3.260000e+04 -7.395410e+02 0.0
-4.530000e+04 5.016951e+02 0.0
-3.255000e+04 -6.113403e+02 0.0
-3.250000e+04 -7.392827e+02 0.0
-4.520000e+04 5.017627e+02 0.0
-4.550000e+04 -5.015483e+02 0.0
-3.245000e+04 -6.111334e+02 0.0
-3.240000e+04 -7.390405e+02 0.0
-4.510000e+04 5.018266e+02 0.0
-4.540000e+04 -5.016236e+02 0.0
-3.235000e+04 -6.109399e+02 0.0
-3.230000e+04 -7.388148e+02 0.0
-4.500000e+04 5.018866e+02 0.0
-3.225000e+04 -6.107604e+02 0.0
-3.220000e+04 -7.386065e+02 0.0
-4.490000e+04 5.019428e+02 0.0
-3.215000e+04 -6.105954e+02 0.0
-3.210000e+04 -7.384160e+02 0.0
-4.480000e+04 5.019953e+02 0.0
-3.205000e+04 -6.104455e+02 0.0
-3.200000e+04 -7.382439e+02 0.0
-4.470000e+04 5.020440e+02 0.0
-3.195000e+04 -6.103111e+02 0.0
-3.190000e+04 -7.380909e+02 0.0
-4.460000e+04 5.020890e+02 0.0
-3.185000e+04 -6.101927e+02 0.0
-3.180000e+04 -7.379577e+02 0.0
-4.450000e+04 5.021303e+02 0.0
-3.175000e+04 -6.100908e+02 0.0
-3.170000e+04 -7.378444e+02 0.0
-4.440000e+04 5.021678e+02 0.0
-3.165000e+04 -6.100053e+02 0.0
-3.160000e+04 -7.377507e+02 0.0
-4.430000e+04 5.022017e+02 0.0
-3.155000e+04 -6.099358e+02 0.0
-3.150000e+04 -7.376762e+02 0.0
-4.420000e+04 5.022319e+02 0.0
-3.145000e+04 -6.098819e+02 0.0
-3.140000e+04 -7.376202e+02 0.0
-4.410000e+04 5.022583e+02 0.0
-4.400000e+04 5.022812e+02 0.0
-4.390000e+04 5.023004e+02 0.0
-4.420000e+04 -5.022319e+02 0.0
-3.105000e+04 -6.098137e+02 0.0
-3.110000e+04 -7.375588e+02 0.0
-3.100000e+04 -7.375722e+02 0.0
-4.380000e+04 5.023160e+02 0.0
-4.410000e+04 -5.022583e+02 0.0
-3.095000e+04 -6.098315e+02 0.0
-3.090000e+04 -7.376018e+02 0.0
-4.370000e+04 5.023279e+02 0.0
-3.085000e+04 -6.098624e+02 0.0
-3.080000e+04 -7.376469e+02 0.0
-4.360000e+04 5.023363e+02 0.0
-3.075000e+04 -6.099060e+02 0.0
-3.070000e+04 -7.377071e+02 0.0
-4.350000e+04 5.023410e+02 0.0
-3.065000e+04 -6.099619e+02 0.0
-3.060000e+04 -7.377819e+02 0.0
-4.340000e+04 5.023422e+02 0.0
-3.055000e+04 -6.100296e+02 0.0
-3.050000e+04 -7.378707e+02 0.0
-4.330000e+04 5.023399e+02 0.0
-3.045000e+04 -6.101088e+02 0.0
-3.040000e+04 -7.379732e+02 0.0
-4.320000e+04 5.023340e+02 0.0
-3.035000e+04 -6.101990e+02 0.0
-3.030000e+04 -7.380888e+02 0.0
-4.310000e+04 5.023245e+02 0.0
-3.025000e+04 -6.102998e+02 0.0
-3.020000e+04 -7.382170e+02 0.0
-4.300000e+04 5.023116e+02 0.0
-3.015000e+04 -6.104108e+02 0.0
-3.010000e+04 -7.383572e+02 0.0
-4.290000e+04 5.022951e+02 0.0
-3.005000e+04 -6.105316e+02 0.0
-3.000000e+04 -7.385091e+02 0.0
-4.280000e+04 5.022752e+02 0.0
-2.995000e+04 -6.106618e+02 0.0
-2.990000e+04 -7.386720e+02 0.0
-4.270000e+04 5.022518e+02 0.0
-2.985000e+04 -6.108010e+02 0.0
-2.980000e+04 -7.388456e+02 0.0
-4.260000e+04 5.022249e+02 0.0
-2.975000e+04 -6.109487e+02 0.0
-2.970000e+04 -7.390292e+02 0.0
-4.250000e+04 5.021946e+02 0.0
-4.280000e+04 -5.022752e+02 0.0
-2.965000e+04 -6.111045e+02 0.0
-4.240000e+04 5.021609e+02 0.0
-4.270000e+04 -5.022518e+02 0.0
-4.230000e+04 5.021237e+02 0.0
-4.220000e+04 5.020831e+02 0.0
-2.925000e+04 -6.118010e+02 0.0
-2.930000e+04 -7.398546e+02 0.0
-2.920000e+04 -7.400812e+02 0.0
-4.210000e+04 5.020392e+02 0.0
-2.915000e+04 -6.119913e+02 0.0
-2.910000e+04 -7.403149e+02 0.0
-4.200000e+04 5.019918e+02 0.0
-2.905000e+04 -6.121872e+02 0.0
-2.900000e+04 -7.405551e+02 0.0
-4.190000e+04 5.019412e+02 0.0
-2.895000e+04 -6.123884e+02 0.0
-2.890000e+04 -7.408015e+02 0.0
-4.180000e+04 5.018871e+02 0.0
-2.885000e+04 -6.125945e+02 0.0
-2.880000e+04 -7.410534e+02 0.0
-4.170000e+04 5.018298e+02 0.0
-2.875000e+04 -6.128049e+02 0.0
-2.870000e+04 -7.413104e+02 0.0
-4.160000e+04 5.017691e+02 0.0
-2.865000e+04 -6.130194e+02 0.0
-2.860000e+04 -7.415720e+02 0.0
-4.150000e+04 5.017051e+02 0.0
-2.855000e+04 -6.132374e+02 0.0
-2.850000e+04 -7.418377e+02 0.0
-4.140000e+04 5.016378e+02 0.0
-2.845000e+04 -6.134586e+02 0.0
-2.840000e+04 -7.421069e+02 0.0
-4.130000e+04 5.015672e+02 0.0
-2.835000e+04 -6.136825e+02 0.0
-2.830000e+04 -7.423793e+02 0.0
-4.120000e+04 5.014934e+02 0.0
-2.825000e+04 -6.139088e+02 0.0
-2.820000e+04 -7.426542e+02 0.0
-4.110000e+04 5.014163e+02 0.0
-4.140000e+04 -5.016378e+02 0.0
-2.815000e+04 -6.141371e+02 0.0
-2.810000e+04 -7.429312e+02 0.0
-4.100000e+04 5.013360e+02 0.0
-4.130000e+04 -5.015672e+02 0.0
-2.805000e+04 -6.143668e+02 0.0
-2.800000e+04 -7.432098e+02 0.0
-4.090000e+04 5.012525e+02 0.0
-2.795000e+04 -6.145977e+02 0.0
-4.080000e+04 5.011658e+02 0.0
-4.070000e+04 5.010758e+02 0.0
-4.060000e+04 5.009825e+02 0.0
-2.755000e+04 -6.155238e+02 0.0
-2.760000e+04 -7.443301e+02 0.0
-2.750000e+04 -7.446091e+02 0.0
-4.050000e+04 5.008859e+02 0.0
-2.745000e+04 -6.157539e+02 0.0
-2.740000e+04 -7.448867e+02 0.0
-4.040000e+04 5.007860e+02 0.0
-2.735000e+04 -6.159827e+02 0.0
-2.730000e+04 -7.451623e+02 0.0
-4.030000e+04 5.006826e+02 0.0
-2.725000e+04 -6.162097e+02 0.0
-2.720000e+04 -7.454356e+02 0.0
-4.020000e+04 5.005758e+02 0.0
-2.715000e+04 -6.164346e+02 0.0
-2.710000e+04 -7.457063e+02 0.0
-4.010000e+04 5.004655e+02 0.0
-2.705000e+04 -6.166574e+02 0.0
-2.700000e+04 -7.459746e+02 0.0
-4.000000e+04 5.003517e+02 0.0
-2.695000e+04 -6.168781e+02 0.0
-2.690000e+04 -7.462404e+02 0.0
-3.990000e+04 5.002343e+02 0.0
-2.685000e+04 -6.170969e+02 0.0
-2.680000e+04 -7.465037e+02 0.0
-3.980000e+04 5.001134e+02 0.0
-2.675000e+04 -6.173136e+02 0.0
-2.670000e+04 -7.467646e+02 0.0
-3.970000e+04 4.999888e+02 0.0
-4.000000e+04 -5.003517e+02 0.0
-2.665000e+04 -6.175283e+02 0.0
-2.660000e+04 -7.470232e+02 0.0
-3.960000e+04 4.998605e+02 0.0
-3.990000e+04 -5.002343e+02 0.0
-2.655000e+04 -6.177411e+02 0.0
-2.650000e+04 -7.472794e+02 0.0
-3.950000e+04 4.997285e+02 0.0
-2.645000e+04 -6.179520e+02 0.0
-2.640000e+04 -7.475333e+02 0.0
-3.940000e+04 4.995928e+02 0.0
-2.635000e+04 -6.181610e+02 0.0
-2.630000e+04 -7.477849e+02 0.0
-3.930000e+04 4.994533e+02 0.0
-2.625000e+04 -6.183681e+02 0.0
-2.620000e+04 -7.480343e+02 0.0
-3.920000e+04 4.993100e+02 0.0
-2.615000e+04 -6.185734e+02 0.0
-2.610000e+04 -7.482814e+02 0.0
-3.910000e+04 4.991628e+02 0.0
-3.900000e+04 4.990117e+02 0.0
-3.890000e+04 4.988566e+02 0.0
-2.575000e+04 -6.193765e+02 0.0
-2.580000e+04 -7.490099e+02 0.0
-2.570000e+04 -7.492486e+02 0.0
-3.880000e+04 4.986976e+02 0.0
-2.565000e+04 -6.195729e+02 0.0
-2.560000e+04 -7.494851e+02 0.0
-3.870000e+04 4.985346e+02 0.0
-2.555000e+04 -6.197677e+02 0.0
-2.550000e+04 -7.497197e+02 0.0
-3.860000e+04 4.983675e+02 0.0
-2.545000e+04 -6.199607e+02 0.0
-2.540000e+04 -7.499522e+02 0.0
-3.850000e+04 4.981963e+02 0.0
-2.535000e+04 -6.201522e+02 0.0
-2.530000e+04 -7.501828e+02 0.0
-3.840000e+04 4.980210e+02 0.0
-2.525000e+04 -6.203420e+02 0.0
-2.520000e+04 -7.504114e+02 0.0
-3.830000e+04 4.978415e+02 0.0
-3.860000e+04 -4.983675e+02 0.0
-2.515000e+04 -6.205303e+02 0.0
-2.510000e+04 -7.506382e+02 0.0
-3.820000e+04 4.976578e+02 0.0
-3.850000e+04 -4.981963e+02 0.0
-2.505000e+04 -6.207170e+02 0.0
-2.500000e+04 -7.508631e+02 0.0
-3.810000e+04 4.974698e+02 0.0
-2.495000e+04 -6.209022e+02 0.0
-2.490000e+04 -7.510861e+02 0.0
-3.800000e+04 4.972776e+02 0.0
-2.485000e+04 -6.210858e+02 0.0
-2.480000e+04 -7.513074e+02 0.0
-3.790000e+04 4.970810e+02 0.0
-2.475000e+04 -6.212680e+02 0.0
-2.470000e+04 -7.515269e+02 0.0
-3.780000e+04 4.968801e+02 0.0
-2.465000e+04 -6.214488e+02 0.0
-2.460000e+04 -7.517446e+02 0.0
-3.770000e+04 4.966748e+02 0.0
-2.455000e+04 -6.216281e+02 0.0
-2.450000e+04 -7.519607e+02 0.0
-3.760000e+04 4.964650e+02 0.0
-2.445000e+04 -6.218061e+02 0.0
-3.750000e+04 4.962508e+02 0.0
-3.740000e+04 4.960320e+02 0.0
-3.730000e+04 4.958087e+02 0.0
-2.405000e+04 -6.225043e+02 0.0
-2.410000e+04 -7.528084e+02 0.0
-2.400000e+04 -7.530164e+02 0.0
-3.720000e+04 4.955808e+02 0.0
-2.395000e+04 -6.226757e+02 0.0
-2.390000e+04 -7.532229e+02 0.0
-3.710000e+04 4.953483e+02 0.0
-2.385000e+04 -6.228458e+02 0.0
-2.380000e+04 -7.534279e+02 0.0
-3.700000e+04 4.951111e+02 0.0
-2.375000e+04 -6.230147e+02 0.0
-2.370000e+04 -7.536315e+02 0.0
-3.690000e+04 4.948692e+02 0.0
-3.720000e+04 -4.955808e+02 0.0
-2.365000e+04 -6.231824e+02 0.0
-2.360000e+04 -7.538336e+02 0.0
-3.680000e+04 4.946225e+02 0.0
-3.710000e+04 -4.953483e+02 0.0
-2.355000e+04 -6.233489e+02 0.0
-2.350000e+04 -7.540343e+02 0.0
-3.670000e+04 4.943710e+02 0.0
-2.345000e+04 -6.235143e+02 0.0
-2.340000e+04 -7.542337e+02 0.0
-3.660000e+04 4.941148e+02 0.0
-2.335000e+04 -6.236786e+02 0.0
-2.330000e+04 -7.544318e+02 0.0
-3.650000e+04 4.938536e+02 0.0
-2.325000e+04 -6.238418e+02 0.0
-2.320000e+04 -7.546286e+02 0.0
-3.640000e+04 4.935876e+02 0.0
-2.315000e+04 -6.240040e+02 0.0
-2.310000e+04 -7.548241e+02 0.0
-3.630000e+04 4.933166e+02 0.0
-2.305000e+04 -6.241652e+02 0.0
-2.300000e+04 -7.550184e+02 0.0
-3.620000e+04 4.930410e+02 0.0
-2.295000e+04 -6.243253e+02 0.0
-2.290000e+04 -7.552115e+02 0.0
-3.610000e+04 4.927610e+02 0.0
-2.285000e+04 -6.244845e+02 0.0
-2.280000e+04 -7.554034e+02 0.0
-3.600000e+04 4.924772e+02 0.0
-2.275000e+04 -6.246427e+02 0.0
-2.270000e+04 -7.555942e+02 0.0
-3.590000e+04 4.921898e+02 0.0
-3.580000e+04 4.918994e+02 0.0
-3.570000e+04 4.916062e+02 0.0
-2.235000e+04 -6.252655e+02 0.0
-2.240000e+04 -7.561593e+02 0.0
-2.230000e+04 -7.563449e+02 0.0
-3.560000e+04 4.913108e+02 0.0
-2.225000e+04 -6.254183e+02 0.0
-2.220000e+04 -7.565289e+02 0.0
-3.550000e+04 4.910134e+02 0.0
-3.580000e+04 -4.918994e+02 0.0
-2.215000e+04 -6.255698e+02 0.0
-2.210000e+04 -7.567112e+02 0.0
-3.540000e+04 4.907145e+02 0.0
-3.570000e+04 -4.916062e+02 0.0
-2.205000e+04 -6.257198e+02 0.0
-2.200000e+04 -7.568918e+02 0.0
-3.530000e+04 4.904146e+02 0.0
-2.195000e+04 -6.258683e+02 0.0
-2.190000e+04 -7.570704e+02 0.0
-3.520000e+04 4.901139e+02 0.0
-2.185000e+04 -6.260152e+02 0.0
-2.180000e+04 -7.572471e+02 0.0
-3.510000e+04 4.898129e+02 0.0
-2.175000e+04 -6.261604e+02 0.0
-2.170000e+04 -7.574216e+02 0.0
-3.500000e+04 4.895120e+02 0.0
-2.165000e+04 -6.263038e+02 0.0
-2.160000e+04 -7.575939e+02 0.0
-3.490000e+04 4.892116e+02 0.0
-2.155000e+04 -6.264453e+02 0.0
-2.150000e+04 -7.577639e+02 0.0
-3.480000e+04 4.889121e+02 0.0
-2.145000e+04 -6.265848e+02 0.0
-2.140000e+04 -7.579314e+02 0.0
-3.470000e+04 4.886139e+02 0.0
-2.135000e+04 -6.267223e+02 0.0
-2.130000e+04 -7.580964e+02 0.0
-3.460000e+04 4.883173e+02 0.0
-2.125000e+04 -6.268577e+02 0.0
-2.120000e+04 -7.582588e+02 0.0
-3.450000e+04 4.880229e+02 0.0
-2.115000e+04 -6.269908e+02 0.0
-2.110000e+04 -7.584183e+02 0.0
-3.440000e+04 4.877309e+02 0.0
-2.105000e+04 -6.271215e+02 0.0
-3.430000e+04 4.874419e+02 0.0
-3.420000e+04 4.871561e+02 0.0
-3.410000e+04 4.868740e+02 0.0
-2.065000e+04 -6.276195e+02 0.0
-2.070000e+04 -7.590269e+02 0.0
-2.060000e+04 -7.591710e+02 0.0
-3.400000e+04 4.865960e+02 0.0
-3.430000e+04 -4.874419e+02 0.0
-2.055000e+04 -6.277373e+02 0.0
-2.050000e+04 -7.593117e+02 0.0
-3.390000e+04 4.863225e+02 0.0
-3.420000e+04 -4.871561e+02 0.0
-2.045000e+04 -6.278522e+02 0.0
-2.040000e+04 -7.594490e+02 0.0
-3.380000e+04 4.860538e+02 0.0
-2.035000e+04 -6.279641e+02 0.0
-2.030000e+04 -7.595825e+02 0.0
-3.370000e+04 4.857905e+02 0.0
-2.025000e+04 -6.280730e+02 0.0
-2.020000e+04 -7.597124e+02 0.0
-3.360000e+04 4.855328e+02 0.0
-2.015000e+04 -6.281788e+02 0.0
-2.010000e+04 -7.598384e+02 0.0
-3.350000e+04 4.852812e+02 0.0
-2.005000e+04 -6.282814e+02 0.0
-2.000000e+04 -7.599604e+02 0.0
-3.340000e+04 4.850361e+02 0.0
-1.995000e+04 -6.283806e+02 0.0
-1.990000e+04 -7.600784e+02 0.0
-3.330000e+04 4.847979e+02 0.0
-1.985000e+04 -6.284764e+02 0.0
-1.980000e+04 -7.601922e+02 0.0
-3.320000e+04 4.845669e+02 0.0
-1.975000e+04 -6.285688e+02 0.0
-1.970000e+04 -7.603017e+02 0.0
-3.310000e+04 4.843437e+02 0.0
-1.965000e+04 -6.286575e+02 0.0
-1.960000e+04 -7.604069e+02 0.0
-3.300000e+04 4.841285e+02 0.0
-1.955000e+04 -6.287426e+02 0.0
-1.950000e+04 -7.605075e+02 0.0
-3.290000e+04 4.839218e+02 0.0
-1.945000e+04 -6.288239e+02 0.0
-3.280000e+04 4.837239e+02 0.0
-3.270000e+04 4.835354e+02 0.0
-3.260000e+04 4.833565e+02 0.0
-3.290000e+04 -4.839218e+02 0.0
-1.905000e+04 -6.291098e+02 0.0
-1.910000e+04 -7.608629e+02 0.0
-1.900000e+04 -7.609395e+02 0.0
-3.250000e+04 4.831877e+02 0.0
-3.280000e+04 -4.837239e+02 0.0
-1.895000e+04 -6.291710e+02 0.0
-1.890000e+04 -7.610109e+02 0.0
-3.240000e+04 4.830293e+02 0.0
-1.885000e+04 -6.292278e+02 0.0
-1.880000e+04 -7.610770e+02 0.0
-3.230000e+04 4.828819e+02 0.0
-1.875000e+04 -6.292803e+02 0.0
-1.870000e+04 -7.611378e+02 0.0
-3.220000e+04 4.827457e+02 0.0
-1.865000e+04 -6.293283e+02 0.0
-1.860000e+04 -7.611931e+02 0.0
-3.210000e+04 4.826212e+02 0.0
-1.855000e+04 -6.293717e+02 0.0
-1.850000e+04 -7.612428e+02 0.0
-3.200000e+04 4.825087e+02 0.0
-1.845000e+04 -6.294105e+02 0.0
-1.840000e+04 -7.612869e+02 0.0
-3.190000e+04 4.824087e+02 0.0
-1.835000e+04 -6.294445e+02 0.0
-1.830000e+04 -7.613251e+02 0.0
-3.180000e+04 4.823216e+02 0.0
-1.825000e+04 -6.294737e+02 0.0
-1.820000e+04 -7.613575e+02 0.0
-3.170000e+04 4.822476e+02 0.0
-1.815000e+04 -6.294980e+02 0.0
-1.810000e+04 -7.613838e+02 0.0
-3.160000e+04 4.821864e+02 0.0
-1.805000e+04 -6.295174e+02 0.0
-1.800000e+04 -7.614045e+02 0.0
-3.150000e+04 4.821376e+02 0.0
-1.795000e+04 -6.295322e+02 0.0
-1.790000e+04 -7.614197e+02 0.0
-3.140000e+04 4.821010e+02 0.0
-1.785000e+04 -6.295427e+02 0.0
-1.780000e+04 -7.614300e+02 0.0
-3.130000e+04 4.820763e+02 0.0
-1.775000e+04 -6.295492e+02 0.0
-3.120000e+04 4.820630e+02 0.0
-3.150000e+04 -4.821376e+02 0.0
-3.110000e+04 4.820610e+02 0.0
-3.140000e+04 -4.821010e+02 0.0
-3.100000e+04 4.820697e+02 0.0
-1.735000e+04 -6.295415e+02 0.0
-1.740000e+04 -7.614282e+02 0.0
-1.730000e+04 -7.614189e+02 0.0
-3.090000e+04 4.820890e+02 0.0
-1.725000e+04 -6.295325e+02 0.0
-1.720000e+04 -7.614068e+02 0.0
-3.080000e+04 4.821185e+02 0.0
-1.715000e+04 -6.295214e+02 0.0
-1.710000e+04 -7.613922e+02 0.0
-3.070000e+04 4.821578e+02 0.0
-1.705000e+04 -6.295085e+02 0.0
-1.700000e+04 -7.613755e+02 0.0
-3.060000e+04 4.822067e+02 0.0
-1.695000e+04 -6.294939e+02 0.0
-1.690000e+04 -7.613570e+02 0.0
-3.050000e+04 4.822648e+02 0.0
-1.685000e+04 -6.294781e+02 0.0
-1.680000e+04 -7.613372e+02 0.0
-3.040000e+04 4.823318e+02 0.0
-1.675000e+04 -6.294612e+02 0.0
-1.670000e+04 -7.613164e+02 0.0
-3.030000e+04 4.824073e+02 0.0
-1.665000e+04 -6.294437e+02 0.0
-1.660000e+04 -7.612950e+02 0.0
-3.020000e+04 4.824911e+02 0.0
-1.655000e+04 -6.294259e+02 0.0
-1.650000e+04 -7.612733e+02 0.0
-3.010000e+04 4.825828e+02 0.0
-1.645000e+04 -6.294079e+02 0.0
-1.640000e+04 -7.612516e+02 0.0
-3.000000e+04 4.826820e+02 0.0
-1.635000e+04 -6.293902e+02 0.0
-1.630000e+04 -7.612305e+02 0.0
-2.990000e+04 4.827885e+02 0.0
-1.625000e+04 -6.293729e+02 0.0
-1.620000e+04 -7.612101e+02 0.0
-2.980000e+04 4.829020e+02 0.0
-3.010000e+04 -4.825828e+02 0.0
-1.615000e+04 -6.293566e+02 0.0
-2.970000e+04 4.830220e+02 0.0
-3.000000e+04 -4.826820e+02 0.0
-2.960000e+04 4.831483e+02 0.0
-2.950000e+04 4.832805e+02 0.0
-1.575000e+04 -6.293052e+02 0.0
-1.580000e+04 -7.611440e+02 0.0
-1.570000e+04 -7.611332e+02 0.0
-2.940000e+04 4.834183e+02 0.0
-1.565000e+04 -6.292975e+02 0.0
-1.560000e+04 -7.611253e+02 0.0
-2.930000e+04 4.835615e+02 0.0
-1.555000e+04 -6.292923e+02 0.0
-1.550000e+04 -7.611208e+02 0.0
-2.920000e+04 4.837096e+02 0.0
-1.545000e+04 -6.292901e+02 0.0
-1.540000e+04 -7.611201e+02 0.0
-2.910000e+04 4.838623e+02 0.0
-1.535000e+04 -6.292911e+02 0.0
-1.530000e+04 -7.611234e+02 0.0
-2.900000e+04 4.840193e+02 0.0
-1.525000e+04 -6.292957e+02 0.0
-1.520000e+04 -7.611312e+02 0.0
-2.890000e+04 4.841803e+02 0.0
-1.515000e+04 -6.293041e+02 0.0
-1.510000e+04 -7.611438e+02 0.0
-2.880000e+04 4.843450e+02 0.0
-1.505000e+04 -6.293166e+02 0.0
-1.500000e+04 -7.611616e+02 0.0
-2.870000e+04 4.845129e+02 0.0
-1.495000e+04 -6.293336e+02 0.0
-1.490000e+04 -7.611849e+02 0.0
-2.860000e+04 4.846839e+02 0.0
-1.485000e+04 -6.293552e+02 0.0
-1.480000e+04 -7.612141e+02 0.0
-2.850000e+04 4.848576e+02 0.0
-1.475000e+04 -6.293820e+02 0.0
-1.470000e+04 -7.612496e+02 0.0
-2.840000e+04 4.850335e+02 0.0
-2.870000e+04 -4.845129e+02 0.0
-1.465000e+04 -6.294140e+02 0.0
-1.460000e+04 -7.612917e+02 0.0
-2.830000e+04 4.852116e+02 0.0
-2.860000e+04 -4.846839e+02 0.0
-1.455000e+04 -6.294517e+02 0.0
-2.820000e+04 4.853912e+02 0.0
-2.810000e+04 4.855723e+02 0.0
-2.800000e+04 4.857544e+02 0.0
-1.415000e+04 -6.296649e+02 0.0
-1.420000e+04 -7.615339e+02 0.0
-1.410000e+04 -7.616147e+02 0.0
-2.790000e+04 4.859372e+02 0.0
-1.405000e+04 -6.297352e+02 0.0
-1.400000e+04 -7.617043e+02 0.0
-2.780000e+04 4.861204e+02 0.0
-1.395000e+04 -6.298131e+02 0.0
-1.390000e+04 -7.618030e+02 0.0
-2.770000e+04 4.863036e+02 0.0
-1.385000e+04 -6.298986e+02 0.0
-1.380000e+04 -7.619113e+02 0.0
-2.760000e+04 4.864866e+02 0.0
-1.375000e+04 -6.299923e+02 0.0
-1.370000e+04 -7.620296e+02 0.0
-2.750000e+04 4.866689e+02 0.0
-1.365000e+04 -6.300942e+02 0.0
-1.360000e+04 -7.621581e+02 0.0
-2.740000e+04 4.868503e+02 0.0
-1.355000e+04 -6.302047e+02 0.0
-1.350000e+04 -7.622967e+02 0.0
-2.730000e+04 4.870305e+02 0.0
-1.345000e+04 -6.303232e+02 0.0
-1.340000e+04 -7.624445e+02 0.0
-2.720000e+04 4.872091e+02 0.0
-1.335000e+04 -6.304490e+02 0.0
-1.330000e+04 -7.626007e+02 0.0
-2.710000e+04 4.873861e+02 0.0
-1.325000e+04 -6.305813e+02 0.0
-1.320000e+04 -7.627644e+02 0.0
-2.700000e+04 4.875614e+02 0.0
-2.730000e+04 -4.870305e+02 0.0
-1.315000e+04 -6.307194e+02 0.0
-1.310000e+04 -7.629346e+02 0.0
-2.690000e+04 4.877351e+02 0.0
-2.720000e+04 -4.872091e+02 0.0
-1.305000e+04 -6.308626e+02 0.0
-1.300000e+04 -7.631104e+02 0.0
-2.680000e+04 4.879072e+02 0.0
-1.295000e+04 -6.310099e+02 0.0
-2.670000e+04 4.880778e+02 0.0
-2.660000e+04 4.882468e+02 0.0
-2.650000e+04 4.884142e+02 0.0
-1.255000e+04 -6.316270e+02 0.0
-1.260000e+04 -7.638514e+02 0.0
-1.250000e+04 -7.640416e+02 0.0
-2.640000e+04 4.885802e+02 0.0
-1.245000e+04 -6.317844e+02 0.0
-1.240000e+04 -7.642319e+02 0.0
-2.630000e+04 4.887446e+02 0.0
-1.235000e+04 -6.319415e+02 0.0
-1.230000e+04 -7.644214e+02 0.0
-2.620000e+04 4.889076e+02 0.0
-1.225000e+04 -6.320976e+02 0.0
-1.220000e+04 -7.646093e+02 0.0
-2.610000e+04 4.890691e+02 0.0
-1.215000e+04 -6.322520e+02 0.0
-1.210000e+04 -7.647946e+02 0.0
-2.600000e+04 4.892293e+02 0.0
-1.205000e+04 -6.324038e+02 0.0
-1.200000e+04 -7.649763e+02 0.0
-2.590000e+04 4.893880e+02 0.0
-1.195000e+04 -6.325524e+02 0.0
-1.190000e+04 -7.651537e+02 0.0
-2.580000e+04 4.895453e+02 0.0
-1.185000e+04 -6.326969e+02 0.0
-1.180000e+04 -7.653257e+02 0.0
-2.570000e+04 4.897012e+02 0.0
-1.175000e+04 -6.328366e+02 0.0
-1.170000e+04 -7.654915e+02 0.0
-2.560000e+04 4.898559e+02 0.0
-2.590000e+04 -4.893880e+02 0.0
-1.165000e+04 -6.329708e+02 0.0
-1.160000e+04 -7.656501e+02 0.0
-2.550000e+04 4.900091e+02 0.0
-2.580000e+04 -4.895453e+02 0.0
-1.155000e+04 -6.330987e+02 0.0
-1.150000e+04 -7.658006e+02 0.0
-2.540000e+04 4.901611e+02 0.0
-1.145000e+04 -6.332196e+02 0.0
-1.140000e+04 -7.659422e+02 0.0
-2.530000e+04 4.903118e+02 0.0
-1.135000e+04 -6.333326e+02 0.0
-1.130000e+04 -7.660739e+02 0.0
-2.520000e+04 4.904613e+02 0.0
-2.510000e+04 4.906095e+02 0.0
-2.500000e+04 4.907565e+02 0.0
-1.095000e+04 -6.336918e+02 0.0
-1.100000e+04 -7.664005e+02 0.0
-1.090000e+04 -7.664835e+02 0.0
-2.490000e+04 4.909023e+02 0.0
-1.085000e+04 -6.337545e+02 0.0
-1.080000e+04 -7.665520e+02 0.0
-2.480000e+04 4.910469e+02 0.0
-1.075000e+04 -6.338049e+02 0.0
-1.070000e+04 -7.666052e+02 0.0
-2.470000e+04 4.911903e+02 0.0
-1.065000e+04 -6.338423e+02 0.0
-1.060000e+04 -7.666421e+02 0.0
-2.460000e+04 4.913326e+02 0.0
-1.055000e+04 -6.338658e+02 0.0
-1.050000e+04 -7.666618e+02 0.0
-2.450000e+04 4.914739e+02 0.0
-1.045000e+04 -6.338747e+02 0.0
-1.040000e+04 -7.666635e+02 0.0
-2.440000e+04 4.916140e+02 0.0
-1.035000e+04 -6.338683e+02 0.0
-1.030000e+04 -7.666461e+02 0.0
-2.430000e+04 4.917530e+02 0.0
-1.025000e+04 -6.338458e+02 0.0
-1.020000e+04 -7.666088e+02 0.0
-2.420000e+04 4.918910e+02 0.0
-2.450000e+04 -4.914739e+02 0.0
-1.015000e+04 -6.338064e+02 0.0
-1.010000e+04 -7.665506e+02 0.0
-2.410000e+04 4.920279e+02 0.0
-2.440000e+04 -4.916140e+02 0.0
-1.005000e+04 -6.337494e+02 0.0
-1.000000e+04 -7.664707e+02 0.0
-2.400000e+04 4.921639e+02 0.0
-9.950000e+03 -6.336741e+02 0.0
-9.900000e+03 -7.663682e+02 0.0
-2.390000e+04 4.922988e+02 0.0
-9.850000e+03 -6.335797e+02 0.0
-9.800000e+03 -7.662421e+02 0.0
-2.380000e+04 4.924328e+02 0.0
-9.750000e+03 -6.334654e+02 0.0
-2.370000e+04 4.925659e+02 0.0
-2.360000e+04 4.926980e+02 0.0
-2.350000e+04 4.928292e+02 0.0
-9.350000e+03 -6.327944e+02 0.0
-9.400000e+03 -7.654837e+02 0.0
-9.300000e+03 -7.652260e+02 0.0
-2.340000e+04 4.929595e+02 0.0
-9.250000e+03 -6.325695e+02 0.0
-9.200000e+03 -7.649393e+02 0.0
-2.330000e+04 4.930889e+02 0.0
-9.150000e+03 -6.323202e+02 0.0
-9.100000e+03 -7.646227e+02 0.0
-2.320000e+04 4.932176e+02 0.0
-9.050000e+03 -6.320457e+02 0.0
-9.000000e+03 -7.642755e+02 0.0
-2.310000e+04 4.933453e+02 0.0
-8.950000e+03 -6.317463e+02 0.0
-8.900000e+03 -7.638987e+02 0.0
-2.300000e+04 4.934723e+02 0.0
-8.850000e+03 -6.314231e+02 0.0
-8.800000e+03 -7.634940e+02 0.0
-2.290000e+04 4.935985e+02 0.0
-8.750000e+03 -6.310774e+02 0.0
-8.700000e+03 -7.630629e+02 0.0
-2.280000e+04 4.937240e+02 0.0
-2.310000e+04 -4.933453e+02 0.0
-8.650000e+03 -6.307105e+02 0.0
-8.600000e+03 -7.626068e+02 0.0
-2.270000e+04 4.938487e+02 0.0
-2.300000e+04 -4.934723e+02 0.0
-8.550000e+03 -6.303236e+02 0.0
-8.500000e+03 -7.621274e+02 0.0
-2.260000e+04 4.939726e+02 0.0
-8.450000e+03 -6.299181e+02 0.0
-8.400000e+03 -7.616263e+02 0.0
-2.250000e+04 4.940958e+02 0.0
-8.350000e+03 -6.294952e+02 0.0
-8.300000e+03 -7.611049e+02 0.0
-2.240000e+04 4.942180e+02 0.0
-8.250000e+03 -6.290563e+02 0.0
-2.230000e+04 4.943393e+02 0.0
-2.220000e+04 4.944596e+02 0.0
-2.210000e+04 4.945788e+02 0.0
-7.850000e+03 -6.271654e+02 0.0
-7.900000e+03 -7.588482e+02 0.0
-7.800000e+03 -7.582490e+02 0.0
-2.200000e+04 4.946968e+02 0.0
-7.750000e+03 -6.266653e+02 0.0
-7.700000e+03 -7.576389e+02 0.0
-2.190000e+04 4.948135e+02 0.0
-7.650000e+03 -6.261568e+02 0.0
-7.600000e+03 -7.570194e+02 0.0
-2.180000e+04 4.949290e+02 0.0
-7.550000e+03 -6.256412e+02 0.0
-7.500000e+03 -7.563921e+02 0.0
-2.170000e+04 4.950431e+02 0.0
-7.450000e+03 -6.251198e+02 0.0
-7.400000e+03 -7.557586e+02 0.0
-2.160000e+04 4.951557e+02 0.0
-7.350000e+03 -6.245939e+02 0.0
-7.300000e+03 -7.551204e+02 0.0
-2.150000e+04 4.952668e+02 0.0
-7.250000e+03 -6.240648e+02 0.0
-7.200000e+03 -7.544790e+02 0.0
-2.140000e+04 4.953763e+02 0.0
-7.150000e+03 -6.235336e+02 0.0
-7.100000e+03 -7.538360e+02 0.0
-2.130000e+04 4.954841e+02 0.0
-2.160000e+04 -4.951557e+02 0.0
-7.050000e+03 -6.230018e+02 0.0
-7.000000e+03 -7.531929e+02 0.0
-2.120000e+04 4.955902e+02 0.0
-2.150000e+04 -4.952668e+02 0.0
-6.950000e+03 -6.224706e+02 0.0
-6.900000e+03 -7.525514e+02 0.0
-2.110000e+04 4.956945e+02 0.0
-6.850000e+03 -6.219413e+02 0.0
-6.800000e+03 -7.519129e+02 0.0
-2.100000e+04 4.957969e+02 0.0
-6.750000e+03 -6.214152e+02 0.0
-6.700000e+03 -7.512791e+02 0.0
-2.090000e+04 4.958974e+02 0.0
-6.650000e+03 -6.208935e+02 0.0
-2.080000e+04 4.959959e+02 0.0
-2.070000e+04 4.960922e+02 0.0
-2.060000e+04 4.961865e+02 0.0
-6.250000e+03 -6.188770e+02 0.0
-6.300000e+03 -7.488208e+02 0.0
-6.200000e+03 -7.482333e+02 0.0
-2.050000e+04 4.962784e+02 0.0
-6.150000e+03 -6.183968e+02 0.0
-6.100000e+03 -7.476597e+02 0.0
-2.040000e+04 4.963681e+02 0.0
-6.050000e+03 -6.179288e+02 0.0
-6.000000e+03 -7.471016e+02 0.0
-2.030000e+04 4.964554e+02 0.0
-5.950000e+03 -6.174743e+02 0.0
-5.900000e+03 -7.465605e+02 0.0
-2.020000e+04 4.965403e+02 0.0
-5.850000e+03 -6.170344e+02 0.0
-5.800000e+03 -7.460380e+02 0.0
-2.010000e+04 4.966226e+02 0.0
-5.750000e+03 -6.166106e+02 0.0
-5.700000e+03 -7.455356e+02 0.0
-2.000000e+04 4.967024e+02 0.0
-5.650000e+03 -6.162040e+02 0.0
-5.600000e+03 -7.450549e+02 0.0
-1.990000e+04 4.967795e+02 0.0
-2.020000e+04 -4.965403e+02 0.0
-5.550000e+03 -6.158160e+02 0.0
-5.500000e+03 -7.445975e+02 0.0
-1.980000e+04 4.968539e+02 0.0
-2.010000e+04 -4.966226e+02 0.0
-5.450000e+03 -6.154479e+02 0.0
-5.400000e+03 -7.441648e+02 0.0
-1.970000e+04 4.969255e+02 0.0
-5.350000e+03 -6.151009e+02 0.0
-5.300000e+03 -7.437585e+02 0.0
-1.960000e+04 4.969942e+02 0.0
-5.250000e+03 -6.147764e+02 0.0
-5.200000e+03 -7.433801e+02 0.0
-1.950000e+04 4.970600e+02 0.0
-5.150000e+03 -6.144755e+02 0.0
-1.940000e+04 4.971227e+02 0.0
-1.930000e+04 4.971824e+02 0.0
-1.920000e+04 4.972390e+02 0.0
-4.750000e+03 -6.135348e+02 0.0
-4.800000e+03 -7.421765e+02 0.0
-4.700000e+03 -7.419608e+02 0.0
-1.910000e+04 4.972923e+02 0.0
-4.650000e+03 -6.133717e+02 0.0
-4.600000e+03 -7.417824e+02 0.0
-1.900000e+04 4.973423e+02 0.0
-4.550000e+03 -6.132400e+02 0.0
-4.500000e+03 -7.416426e+02 0.0
-1.890000e+04 4.973890e+02 0.0
-4.450000e+03 -6.131407e+02 0.0
-4.400000e+03 -7.415418e+02 0.0
-1.880000e+04 4.974322e+02 0.0
-4.350000e+03 -6.130730e+02 0.0
-4.300000e+03 -7.414785e+02 0.0
-1.870000e+04 4.974719e+02 0.0
-4.250000e+03 -6.130358e+02 0.0
-4.200000e+03 -7.414515e+02 0.0
-1.860000e+04 4.975081e+02 0.0
-4.150000e+03 -6.130280e+02 0.0
-4.100000e+03 -7.414593e+02 0.0
-1.850000e+04 4.975406e+02 0.0
-4.050000e+03 -6.130484e+02 0.0
-4.000000e+03 -7.415005e+02 0.0
-1.840000e+04 4.975694e+02 0.0
-3.950000e+03 -6.130959e+02 0.0
-3.900000e+03 -7.415738e+02 0.0
-1.830000e+04 4.975944e+02 0.0
-3.850000e+03 -6.131693e+02 0.0
-3.800000e+03 -7.416777e+02 0.0
-1.820000e+04 4.976155e+02 0.0
-3.750000e+03 -6.132675e+02 0.0
-3.700000e+03 -7.418110e+02 0.0
-1.810000e+04 4.976327e+02 0.0
-3.650000e+03 -6.133893e+02 0.0
-1.800000e+04 4.976462e+02 0.0
-1.790000e+04 4.976562e+02 0.0
-1.780000e+04 4.976629e+02 0.0
-3.250000e+03 -6.140901e+02 0.0
-3.300000e+03 -7.426089e+02 0.0
-3.200000e+03 -7.428678e+02 0.0
-1.770000e+04 4.976666e+02 0.0
-3.150000e+03 -6.143129e+02 0.0
-3.100000e+03 -7.431476e+02 0.0
-1.760000e+04 4.976674e+02 0.0
-3.050000e+03 -6.145524e+02 0.0
-3.000000e+03 -7.434470e+02 0.0
-1.750000e+04 4.976658e+02 0.0
-2.950000e+03 -6.148076e+02 0.0
-2.900000e+03 -7.437645e+02 0.0
-1.740000e+04 4.976618e+02 0.0
-1.770000e+04 -4.976666e+02 0.0
-2.850000e+03 -6.150773e+02 0.0
-2.800000e+03 -7.440989e+02 0.0
-1.730000e+04 4.976557e+02 0.0
-1.760000e+04 -4.976674e+02 0.0
-2.750000e+03 -6.153603e+02 0.0
-2.700000e+03 -7.444487e+02 0.0
-1.720000e+04 4.976477e+02 0.0
-2.650000e+03 -6.156555e+02 0.0
-2.600000e+03 -7.448126e+02 0.0
-1.710000e+04 4.976382e+02 0.0
-2.550000e+03 -6.159617e+02 0.0
-2.500000e+03 -7.451891e+02 0.0
-1.700000e+04 4.976273e+02 0.0
-2.450000e+03 -6.162778e+02 0.0
-2.400000e+03 -7.455769e+02 0.0
-1.690000e+04 4.976152e+02 0.0
-2.350000e+03 -6.166026e+02 0.0
-2.300000e+03 -7.459745e+02 0.0
-1.680000e+04 4.976023e+02 0.0
-2.250000e+03 -6.169351e+02 0.0
-2.200000e+03 -7.463807e+02 0.0
-1.670000e+04 4.975887e+02 0.0
-2.150000e+03 -6.172740e+02 0.0
-2.100000e+03 -7.467940e+02 0.0
-1.660000e+04 4.975747e+02 0.0
-2.050000e+03 -6.176182e+02 0.0
-1.650000e+04 4.975605e+02 0.0
-1.640000e+04 4.975463e+02 0.0
-1.630000e+04 4.975325e+02 0.0
-1.650000e+03 -6.190251e+02 0.0
-1.700000e+03 -7.484905e+02 0.0
-1.600000e+03 -7.489185e+02 0.0
-1.620000e+04 4.975192e+02 0.0
-1.550000e+03 -6.193787e+02 0.0
-1.500000e+03 -7.493454e+02 0.0
-1.610000e+04 4.975066e+02 0.0
-1.450000e+03 -6.197307e+02 0.0
-1.400000e+03 -7.497696e+02 0.0
-1.600000e+04 4.974951e+02 0.0
-1.350000e+03 -6.200799e+02 0.0
-1.300000e+03 -7.501899e+02 0.0
-1.590000e+04 4.974848e+02 0.0
-1.250000e+03 -6.204254e+02 0.0
-1.200000e+03 -7.506048e+02 0.0
-1.580000e+04 4.974760e+02 0.0
-1.150000e+03 -6.207658e+02 0.0
-1.100000e+03 -7.510130e+02 0.0
-1.570000e+04 4.974689e+02 0.0
-1.050000e+03 -6.211001e+02 0.0
-1.000000e+03 -7.514131e+02 0.0
-1.560000e+04 4.974638e+02 0.0
-9.500000e+02 -6.214270e+02 0.0
-9.000000e+02 -7.518036e+02 0.0
-1.550000e+04 4.974608e+02 0.0
-8.500000e+02 -6.217456e+02 0.0
-8.000000e+02 -7.521833e+02 0.0
-1.540000e+04 4.974603e+02 0.0
-7.500000e+02 -6.220545e+02 0.0
-7.000000e+02 -7.525507e+02 0.0
-1.530000e+04 4.974625e+02 0.0
-6.500000e+02 -6.223528e+02 0.0
-6.000000e+02 -7.529044e+02 0.0
-1.520000e+04 4.974676e+02 0.0
-5.500000e+02 -6.226391e+02 0.0
-1.510000e+04 4.974758e+02 0.0
-1.500000e+04 4.974875e+02 0.0
-1.490000e+04 4.975027e+02 0.0
-1.500000e+02 -6.236429e+02 0.0
-2.000000e+02 -7.541547e+02 0.0
-1.000000e+02 -7.544193e+02 0.0
-1.480000e+04 4.975218e+02 0.0
-5.000000e+01 -6.238527e+02 0.0
0.000000e+00 -7.546619e+02 0.0
-1.470000e+04 4.975450e+02 0.0
5.000000e+01 -6.240437e+02 0.0
1.000000e+02 -7.548814e+02 0.0
-1.460000e+04 4.975725e+02 0.0
-1.490000e+04 -4.975027e+02 0.0
1.500000e+02 -6.242157e+02 0.0
2.000000e+02 -7.550779e+02 0.0
-1.450000e+04 4.976047e+02 0.0
-1.480000e+04 -4.975218e+02 0.0
2.500000e+02 -6.243689e+02 0.0
3.000000e+02 -7.552520e+02 0.0
-1.440000e+04 4.976416e+02 0.0
3.500000e+02 -6.245036e+02 0.0
4.000000e+02 -7.554039e+02 0.0
-1.430000e+04 4.976836e+02 0.0
4.500000e+02 -6.246202e+02 0.0
5.000000e+02 -7.555342e+02 0.0
-1.420000e+04 4.977308e+02 0.0
5.500000e+02 -6.247191e+02 0.0
6.000000e+02 -7.556432e+02 0.0
-1.410000e+04 4.977836e+02 0.0
6.500000e+02 -6.248005e+02 0.0
7.000000e+02 -7.557314e+02 0.0
-1.400000e+04 4.978422e+02 0.0
7.500000e+02 -6.248649e+02 0.0
8.000000e+02 -7.557991e+02 0.0
-1.390000e+04 4.979067e+02 0.0
8.500000e+02 -6.249126e+02 0.0
-1.380000e+04 4.979775e+02 0.0
-1.370000e+04 4.980548e+02 0.0
-1.360000e+04 4.981388e+02 0.0
1.250000e+03 -6.249434e+02 0.0
1.200000e+03 -7.558744e+02 0.0
1.300000e+03 -7.558464e+02 0.0
-1.350000e+04 4.982293e+02 0.0
1.350000e+03 -6.249128e+02 0.0
1.400000e+03 -7.558005e+02 0.0
-1.340000e+04 4.983260e+02 0.0
1.450000e+03 -6.248676e+02 0.0
1.500000e+03 -7.557372e+02 0.0
-1.330000e+04 4.984281e+02 0.0
1.550000e+03 -6.248082e+02 0.0
1.600000e+03 -7.556568e+02 0.0
-1.320000e+04 4.985350e+02 0.0
1.650000e+03 -6.247348e+02 0.0
1.700000e+03 -7.555599e+02 0.0
-1.310000e+04 4.986463e+02 0.0
1.750000e+03 -6.246479e+02 0.0
1.800000e+03 -7.554467e+02 0.0
-1.300000e+04 4.987612e+02 0.0
1.850000e+03 -6.245478e+02 0.0
1.900000e+03 -7.553177e+02 0.0
-1.290000e+04 4.988791e+02 0.0
1.950000e+03 -6.244348e+02 0.0
2.000000e+03 -7.551734e+02 0.0
-1.280000e+04 4.989996e+02 0.0
2.050000e+03 -6.243092e+02 0.0
2.100000e+03 -7.550142e+02 0.0
-1.270000e+04 4.991219e+02 0.0
2.150000e+03 -6.241715e+02 0.0
2.200000e+03 -7.548405e+02 0.0
-1.260000e+04 4.992455e+02 0.0
2.250000e+03 -6.240220e+02 0.0
2.300000e+03 -7.546526e+02 0.0
-1.250000e+04 4.993698e+02 0.0
2.350000e+03 -6.238611e+02 0.0
2.400000e+03 -7.544512e+02 0.0
-1.240000e+04 4.994942e+02 0.0
-1.230000e+04 4.996181e+02 0.0
-1.220000e+04 4.997409e+02 0.0
2.750000e+03 -6.231094e+02 0.0
2.700000e+03 -7.537690e+02 0.0
2.800000e+03 -7.535170e+02 0.0
-1.210000e+04 4.998620e+02 0.0
2.850000e+03 -6.228963e+02 0.0
2.900000e+03 -7.532536e+02 0.0
-1.200000e+04 4.999808e+02 0.0
2.950000e+03 -6.226738e+02 0.0
3.000000e+03 -7.529790e+02 0.0
-1.190000e+04 5.000967e+02 0.0
3.050000e+03 -6.224423e+02 0.0
3.100000e+03 -7.526937e+02 0.0
-1.180000e+04 5.002091e+02 0.0
-1.210000e+04 -4.998620e+02 0.0
3.150000e+03 -6.222022e+02 0.0
3.200000e+03 -7.523981e+02 0.0
-1.170000e+04 5.003174e+02 0.0
-1.200000e+04 -4.999808e+02 0.0
3.250000e+03 -6.219537e+02 0.0
3.300000e+03 -7.520927e+02 0.0
-1.160000e+04 5.004211e+02 0.0
3.350000e+03 -6.216972e+02 0.0
3.400000e+03 -7.517778e+02 0.0
-1.150000e+04 5.005195e+02 0.0
3.450000e+03 -6.214330e+02 0.0
3.500000e+03 -7.514539e+02 0.0
-1.140000e+04 5.006120e+02 0.0
3.550000e+03 -6.211616e+02 0.0
3.600000e+03 -7.511214e+02 0.0
-1.130000e+04 5.006981e+02 0.0
3.650000e+03 -6.208833e+02 0.0
3.700000e+03 -7.507807e+02 0.0
-1.120000e+04 5.007771e+02 0.0
3.750000e+03 -6.205984e+02 0.0
3.800000e+03 -7.504322e+02 0.0
-1.110000e+04 5.008485e+02 0.0
3.850000e+03 -6.203072e+02 0.0
3.900000e+03 -7.500765e+02 0.0
-1.100000e+04 5.009116e+02 0.0
-1.090000e+04 5.009658e+02 0.0
-1.080000e+04 5.010106e+02 0.0
4.250000e+03 -6.190872e+02 0.0
4.200000e+03 -7.489694e+02 0.0
4.300000e+03 -7.485885e+02 0.0
-1.070000e+04 5.010454e+02 0.0
4.350000e+03 -6.187701e+02 0.0
4.400000e+03 -7.482024e+02 0.0
-1.060000e+04 5.010695e+02 0.0
4.450000e+03 -6.184488e+02 0.0
4.500000e+03 -7.478115e+02 0.0
-1.050000e+04 5.010824e+02 0.0
4.550000e+03 -6.181238e+02 0.0
4.600000e+03 -7.474162e+02 0.0
-1.040000e+04 5.010834e+02 0.0
4.650000e+03 -6.177953e+02 0.0
4.700000e+03 -7.470170e+02 0.0
-1.030000e+04 5.010721e+02 0.0
4.750000e+03 -6.174637e+02 0.0
4.800000e+03 -7.466142e+02 0.0
-1.020000e+04 5.010477e+02 0.0
-1.050000e+04 -5.010824e+02 0.0
4.850000e+03 -6.171293e+02 0.0
4.900000e+03 -7.462082e+02 0.0
-1.010000e+04 5.010097e+02 0.0
-1.040000e+04 -5.010834e+02 0.0
4.950000e+03 -6.167924e+02 0.0
5.000000e+03 -7.457994e+02 0.0
-1.000000e+04 5.009575e+02 0.0
5.050000e+03 -6.164534e+02 0.0
5.100000e+03 -7.453883e+02 0.0
-9.900000e+03 5.008905e+02 0.0
5.150000e+03 -6.161127e+02 0.0
5.200000e+03 -7.449752e+02 0.0
-9.800000e+03 5.008080e+02 0.0
5.250000e+03 -6.157704e+02 0.0
5.300000e+03 -7.445605e+02 0.0
-9.700000e+03 5.007096e+02 0.0
5.350000e+03 -6.154270e+02 0.0
-9.600000e+03 5.005946e+02 0.0
-9.500000e+03 5.004624e+02 0.0
-9.400000e+03 5.003123e+02 0.0
5.750000e+03 -6.140486e+02 0.0
5.700000e+03 -7.428939e+02 0.0
5.800000e+03 -7.424773e+02 0.0
-9.300000e+03 5.001439e+02 0.0
5.850000e+03 -6.137045e+02 0.0
5.900000e+03 -7.420615e+02 0.0
-9.200000e+03 4.999566e+02 0.0
5.950000e+03 -6.133611e+02 0.0
6.000000e+03 -7.416469e+02 0.0
-9.100000e+03 4.997496e+02 0.0
6.050000e+03 -6.130190e+02 0.0
6.100000e+03 -7.412339e+02 0.0
-9.000000e+03 4.995227e+02 0.0
6.150000e+03 -6.126783e+02 0.0
6.200000e+03 -7.408229e+02 0.0
-8.900000e+03 4.992764e+02 0.0
-9.200000e+03 -4.999566e+02 0.0
6.250000e+03 -6.123395e+02 0.0
6.300000e+03 -7.404144e+02 0.0
-8.800000e+03 4.990119e+02 0.0
-9.100000e+03 -4.997496e+02 0.0
6.350000e+03 -6.120028e+02 0.0
6.400000e+03 -7.400086e+02 0.0
-8.700000e+03 4.987301e+02 0.0
6.450000e+03 -6.116686e+02 0.0
6.500000e+03 -7.396060e+02 0.0
-8.600000e+03 4.984321e+02 0.0
6.550000e+03 -6.113372e+02 0.0
6.600000e+03 -7.392070e+02 0.0
-8.500000e+03 4.981187e+02 0.0
6.650000e+03 -6.110089e+02 0.0
6.700000e+03 -7.388121e+02 0.0
-8.400000e+03 4.977912e+02 0.0
6.750000e+03 -6.106841e+02 0.0
-8.300000e+03 4.974504e+02 0.0
-8.200000e+03 4.970975e+02 0.0
-8.100000e+03 4.967333e+02 0.0
7.150000e+03 -6.094262e+02 0.0
7.100000e+03 -7.372801e+02 0.0
7.200000e+03 -7.369111e+02 0.0
-8.000000e+03 4.963590e+02 0.0
7.250000e+03 -6.091237e+02 0.0
7.300000e+03 -7.365484e+02 0.0
-7.900000e+03 4.959755e+02 0.0
7.350000e+03 -6.088267e+02 0.0
7.400000e+03 -7.361926e+02 0.0
-7.800000e+03 4.955839e+02 0.0
7.450000e+03 -6.085354e+02 0.0
7.500000e+03 -7.358439e+02 0.0
-7.700000e+03 4.951851e+02 0.0
7.550000e+03 -6.082502e+02 0.0
7.600000e+03 -7.355028e+02 0.0
-7.600000e+03 4.947802e+02 0.0
7.650000e+03 -6.079715e+02 0.0
7.700000e+03 -7.351697e+02 0.0
-7.500000e+03 4.943702e+02 0.0
7.750000e+03 -6.076995e+02 0.0
7.800000e+03 -7.348450e+02 0.0
-7.400000e+03 4.939561e+02 0.0
7.850000e+03 -6.074346e+02 0.0
7.900000e+03 -7.345291e+02 0.0
-7.300000e+03 4.935390e+02 0.0
7.950000e+03 -6.071771e+02 0.0
8.000000e+03 -7.342223e+02 0.0
-7.200000e+03 4.931198e+02 0.0
8.050000e+03 -6.069274e+02 0.0
8.100000e+03 -7.339251e+02 0.0
-7.100000e+03 4.926995e+02 0.0
8.150000e+03 -6.066857e+02 0.0
8.200000e+03 -7.336379e+02 0.0
-7.000000e+03 4.922792e+02 0.0
8.250000e+03 -6.064525e+02 0.0
-6.900000e+03 4.918599e+02 0.0
-6.800000e+03 4.914426e+02 0.0
-6.700000e+03 4.910284e+02 0.0
8.650000e+03 -6.056102e+02 0.0
8.600000e+03 -7.325966e+02 0.0
8.700000e+03 -7.323652e+02 0.0
-6.600000e+03 4.906181e+02 0.0
8.750000e+03 -6.054240e+02 0.0
8.800000e+03 -7.321462e+02 0.0
-6.500000e+03 4.902129e+02 0.0
8.850000e+03 -6.052481e+02 0.0
8.900000e+03 -7.319399e+02 0.0
-6.400000e+03 4.898137e+02 0.0
8.950000e+03 -6.050830e+02 0.0
9.000000e+03 -7.317468e+02 0.0
-6.300000e+03 4.894217e+02 0.0
9.050000e+03 -6.049288e+02 0.0
9.100000e+03 -7.315672e+02 0.0
-6.200000e+03 4.890377e+02 0.0
9.150000e+03 -6.047861e+02 0.0
9.200000e+03 -7.314015e+02 0.0
-6.100000e+03 4.886628e+02 0.0
-6.400000e+03 -4.898137e+02 0.0
9.250000e+03 -6.046548e+02 0.0
9.300000e+03 -7.312495e+02 0.0
-6.000000e+03 4.882980e+02 0.0
-6.300000e+03 -4.894217e+02 0.0
9.350000e+03 -6.045348e+02 0.0
9.400000e+03 -7.311112e+02 0.0
-5.900000e+03 4.879443e+02 0.0
9.450000e+03 -6.044261e+02 0.0
9.500000e+03 -7.309865e+02 0.0
-5.800000e+03 4.876028e+02 0.0
9.550000e+03 -6.043285e+02 0.0
9.600000e+03 -7.308751e+02 0.0
-5.700000e+03 4.872745e+02 0.0
9.650000e+03 -6.042419e+02 0.0
-5.600000e+03 4.869603e+02 0.0
-5.500000e+03 4.866614e+02 0.0
-5.400000e+03 4.863786e+02 0.0
1.005000e+04 -6.040040e+02 0.0
1.000000e+04 -7.305613e+02 0.0
1.010000e+04 -7.305151e+02 0.0
-5.300000e+03 4.861130e+02 0.0
1.015000e+04 -6.039710e+02 0.0
1.020000e+04 -7.304816e+02 0.0
-5.200000e+03 4.858657e+02 0.0
1.025000e+04 -6.039485e+02 0.0
1.030000e+04 -7.304606e+02 0.0
-5.100000e+03 4.856376e+02 0.0
1.035000e+04 -6.039363e+02 0.0
1.040000e+04 -7.304521e+02 0.0
-5.000000e+03 4.854298e+02 0.0
1.045000e+04 -6.039343e+02 0.0
1.050000e+04 -7.304558e+02 0.0
-4.900000e+03 4.852432e+02 0.0
1.055000e+04 -6.039425e+02 0.0
1.060000e+04 -7.304717e+02 0.0
-4.800000e+03 4.850790e+02 0.0
1.065000e+04 -6.039606e+02 0.0
1.070000e+04 -7.304996e+02 0.0
-4.700000e+03 4.849380e+02 0.0
1.075000e+04 -6.039886e+02 0.0
1.080000e+04 -7.305395e+02 0.0
-4.600000e+03 4.848214e+02 0.0
1.085000e+04 -6.040264e+02 0.0
1.090000e+04 -7.305911e+02 0.0
-4.500000e+03 4.847301e+02 0.0
1.095000e+04 -6.040740e+02 0.0
1.100000e+04 -7.306544e+02 0.0
-4.400000e+03 4.846642e+02 0.0
1.105000e+04 -6.041311e+02 0.0
-4.300000e+03 4.846228e+02 0.0
-4.200000e+03 4.846052e+02 0.0
-4.100000e+03 4.846103e+02 0.0
1.145000e+04 -6.044534e+02 0.0
1.140000e+04 -7.310218e+02 0.0
1.150000e+04 -7.311415e+02 0.0
-4.000000e+03 4.846372e+02 0.0
1.155000e+04 -6.045570e+02 0.0
1.160000e+04 -7.312722e+02 0.0
-3.900000e+03 4.846851e+02 0.0
1.165000e+04 -6.046695e+02 0.0
1.170000e+04 -7.314137e+02 0.0
-3.800000e+03 4.847530e+02 0.0
1.175000e+04 -6.047909e+02 0.0
1.180000e+04 -7.315658e+02 0.0
-3.700000e+03 4.848401e+02 0.0
1.185000e+04 -6.049211e+02 0.0
1.190000e+04 -7.317285e+02 0.0
-3.600000e+03 4.849454e+02 0.0
1.195000e+04 -6.050599e+02 0.0
1.200000e+04 -7.319016e+02 0.0
-3.500000e+03 4.850680e+02 0.0
1.205000e+04 -6.052073e+02 0.0
1.210000e+04 -7.320850e+02 0.0
-3.400000e+03 4.852071e+02 0.0
1.215000e+04 -6.053632e+02 0.0
1.220000e+04 -7.322786e+02 0.0
-3.300000e+03 4.853616e+02 0.0
-3.600000e+03 -4.849454e+02 0.0
1.225000e+04 -6.055274e+02 0.0
1.230000e+04 -7.324822e+02 0.0
-3.200000e+03 4.855308e+02 0.0
1.235000e+04 -6.056998e+02 0.0
1.240000e+04 -7.326958e+02 0.0
-3.100000e+03 4.857137e+02 0.0
-3.400000e+03 -4.852071e+02 0.0
1.245000e+04 -6.058805e+02 0.0
-3.000000e+03 4.859094e+02 0.0
-2.900000e+03 4.861169e+02 0.0
-2.800000e+03 4.863355e+02 0.0
1.285000e+04 -6.066825e+02 0.0
1.280000e+04 -7.336467e+02 0.0
1.290000e+04 -7.339080e+02 0.0
-2.700000e+03 4.865641e+02 0.0
1.295000e+04 -6.069023e+02 0.0
1.300000e+04 -7.341785e+02 0.0
-2.600000e+03 4.868019e+02 0.0
1.305000e+04 -6.071297e+02 0.0
1.310000e+04 -7.344580e+02 0.0
-2.500000e+03 4.870480e+02 0.0
1.315000e+04 -6.073645e+02 0.0
1.320000e+04 -7.347465e+02 0.0
-2.400000e+03 4.873015e+02 0.0
1.325000e+04 -6.076067e+02 0.0
1.330000e+04 -7.350438e+02 0.0
-2.300000e+03 4.875614e+02 0.0
1.335000e+04 -6.078560e+02 0.0
1.340000e+04 -7.353497e+02 0.0
-2.200000e+03 4.878268e+02 0.0
1.345000e+04 -6.081125e+02 0.0
1.350000e+04 -7.356642e+02 0.0
-2.100000e+03 4.880969e+02 0.0
1.355000e+04 -6.083760e+02 0.0
1.360000e+04 -7.359871e+02 0.0
-2.000000e+03 4.883708e+02 0.0
1.365000e+04 -6.086465e+02 0.0
1.370000e+04 -7.363183e+02 0.0
-1.900000e+03 4.886475e+02 0.0
1.375000e+04 -6.089236e+02 0.0
1.380000e+04 -7.366573e+02 0.0
-1.800000e+03 4.889261e+02 0.0
1.385000e+04 -6.092069e+02 0.0
1.390000e+04 -7.370034e+02 0.0
-1.700000e+03 4.892058e+02 0.0
1.395000e+04 -6.094958e+02 0.0
-1.600000e+03 4.894855e+02 0.0
-1.500000e+03 4.897645e+02 0.0
-1.400000e+03 4.900418e+02 0.0
1.435000e+04 -6.106955e+02 0.0
1.430000e+04 -7.384449e+02 0.0
1.440000e+04 -7.388159e+02 0.0
-1.300000e+03 4.903165e+02 0.0
1.445000e+04 -6.110036e+02 0.0
1.450000e+04 -7.391899e+02 0.0
-1.200000e+03 4.905877e+02 0.0
1.455000e+04 -6.113137e+02 0.0
1.460000e+04 -7.395660e+02 0.0
-1.100000e+03 4.908545e+02 0.0
1.465000e+04 -6.116254e+02 0.0
1.470000e+04 -7.399436e+02 0.0
-1.000000e+03 4.911160e+02 0.0
1.475000e+04 -6.119379e+02 0.0
1.480000e+04 -7.403219e+02 0.0
-9.000000e+02 4.913712e+02 0.0
1.485000e+04 -6.122508e+02 0.0
1.490000e+04 -7.407003e+02 0.0
-8.000000e+02 4.916194e+02 0.0
1.495000e+04 -6.125635e+02 0.0
1.500000e+04 -7.410780e+02 0.0
-7.000000e+02 4.918595e+02 0.0
1.505000e+04 -6.128753e+02 0.0
1.510000e+04 -7.414544e+02 0.0
-6.000000e+02 4.920906e+02 0.0
1.515000e+04 -6.131857e+02 0.0
1.520000e+04 -7.418287e+02 0.0
-5.000000e+02 4.923120e+02 0.0
-8.000000e+02 -4.916194e+02 0.0
1.525000e+04 -6.134941e+02 0.0
1.530000e+04 -7.422002e+02 0.0
-4.000000e+02 4.925225e+02 0.0
-7.000000e+02 -4.918595e+02 0.0
1.535000e+04 -6.137999e+02 0.0
-3.000000e+02 4.927215e+02 0.0
-2.000000e+02 4.929079e+02 0.0
-1.000000e+02 4.930808e+02 0.0
1.575000e+04 -6.149857e+02 0.0
1.570000e+04 -7.436446e+02 0.0
1.580000e+04 -7.439917e+02 0.0
-1.455192e-11 4.932393e+02 0.0
1.585000e+04 -6.152699e+02 0.0
1.590000e+04 -7.443318e+02 0.0
1.000000e+02 4.933828e+02 0.0
1.595000e+04 -6.155480e+02 0.0
1.600000e+04 -7.446642e+02 0.0
2.000000e+02 4.935113e+02 0.0
1.605000e+04 -6.158194e+02 0.0
1.610000e+04 -7.449882e+02 0.0
3.000000e+02 4.936250e+02 0.0
1.615000e+04 -6.160836e+02 0.0
1.620000e+04 -7.453031e+02 0.0
4.000000e+02 4.937243e+02 0.0
1.625000e+04 -6.163400e+02 0.0
1.630000e+04 -7.456081e+02 0.0
5.000000e+02 4.938095e+02 0.0
1.635000e+04 -6.165879e+02 0.0
1.640000e+04 -7.459027e+02 0.0
6.000000e+02 4.938807e+02 0.0
1.645000e+04 -6.168268e+02 0.0
1.650000e+04 -7.461860e+02 0.0
7.000000e+02 4.939383e+02 0.0
1.655000e+04 -6.170562e+02 0.0
1.660000e+04 -7.464573e+02 0.0
8.000000e+02 4.939826e+02 0.0
1.665000e+04 -6.172754e+02 0.0
1.670000e+04 -7.467160e+02 0.0
9.000000e+02 4.940138e+02 0.0
1.675000e+04 -6.174839e+02 0.0
1.000000e+03 4.940322e+02 0.0
1.100000e+03 4.940382e+02 0.0
1.200000e+03 4.940318e+02 0.0
1.715000e+04 -6.181986e+02 0.0
1.710000e+04 -7.476103e+02 0.0
1.720000e+04 -7.477953e+02 0.0
1.300000e+03 4.940135e+02 0.0
1.725000e+04 -6.183446e+02 0.0
1.730000e+04 -7.479633e+02 0.0
1.400000e+03 4.939836e+02 0.0
1.735000e+04 -6.184763e+02 0.0
1.740000e+04 -7.481138e+02 0.0
1.500000e+03 4.939422e+02 0.0
1.745000e+04 -6.185932e+02 0.0
1.750000e+04 -7.482459e+02 0.0
1.600000e+03 4.938896e+02 0.0
1.755000e+04 -6.186947e+02 0.0
1.760000e+04 -7.483591e+02 0.0
1.700000e+03 4.938262e+02 0.0
1.765000e+04 -6.187802e+02 0.0
1.770000e+04 -7.484526e+02 0.0
1.800000e+03 4.937523e+02 0.0
1.775000e+04 -6.188492e+02 0.0
1.780000e+04 -7.485257e+02 0.0
1.900000e+03 4.936680e+02 0.0
1.785000e+04 -6.189009e+02 0.0
1.790000e+04 -7.485777e+02 0.0
2.000000e+03 4.935737e+02 0.0
1.795000e+04 -6.189350e+02 0.0
1.800000e+04 -7.486078e+02 0.0
2.100000e+03 4.934696e+02 0.0
1.805000e+04 -6.189507e+02 0.0
1.810000e+04 -7.486155e+02 0.0
2.200000e+03 4.933560e+02 0.0
1.815000e+04 -6.189475e+02 0.0
1.820000e+04 -7.485999e+02 0.0
2.300000e+03 4.932333e+02 0.0
2.000000e+03 -4.935737e+02 0.0
2.400000e+03 4.931016e+02 0.0
2.100000e+03 -4.934696e+02 0.0
2.500000e+03 4.929613e+02 0.0
1.855000e+04 -6.187470e+02 0.0
1.850000e+04 -7.484170e+02 0.0
1.860000e+04 -7.483146e+02 0.0
2.600000e+03 4.928125e+02 0.0
1.865000e+04 -6.186544e+02 0.0
1.870000e+04 -7.481933e+02 0.0
2.700000e+03 4.926557e+02 0.0
1.875000e+04 -6.185468e+02 0.0
1.880000e+04 -7.480545e+02 0.0
2.800000e+03 4.924911e+02 0.0
1.885000e+04 -6.184252e+02 0.0
1.890000e+04 -7.478994e+02 0.0
2.900000e+03 4.923189e+02 0.0
1.895000e+04 -6.182906e+02 0.0
1.900000e+04 -7.477292e+02 0.0
3.000000e+03 4.921394e+02 0.0
1.905000e+04 -6.181439e+02 0.0
1.910000e+04 -7.475450e+02 0.0
3.100000e+03 4.919529e+02 0.0
1.915000e+04 -6.179863e+02 0.0
1.920000e+04 -7.473481e+02 0.0
3.200000e+03 4.917598e+02 0.0
1.925000e+04 -6.178186e+02 0.0
1.930000e+04 -7.471397e+02 0.0
3.300000e+03 4.915601e+02 0.0
1.935000e+04 -6.176419e+02 0.0
1.940000e+04 -7.469210e+02 0.0
3.400000e+03 4.913543e+02 0.0
1.945000e+04 -6.174572e+02 0.0
1.950000e+04 -7.466932e+02 0.0
3.500000e+03 4.911426e+02 0.0
1.955000e+04 -6.172655e+02 0.0
3.600000e+03 4.909253e+02 0.0
3.700000e+03 4.907026e+02 0.0
3.400000e+03 -4.913543e+02 0.0
3.800000e+03 4.904749e+02 0.0
1.995000e+04 -6.164483e+02 0.0
1.990000e+04 -7.457152e+02 0.0
2.000000e+04 -7.454600e+02 0.0
3.900000e+03 4.902423e+02 0.0
3.600000e+03 -4.909253e+02 0.0
2.005000e+04 -6.162364e+02 0.0
2.010000e+04 -7.452030e+02 0.0
4.000000e+03 4.900053e+02 0.0
2.015000e+04 -6.160236e+02 0.0
2.020000e+04 -7.449454e+02 0.0
4.100000e+03 4.897640e+02 0.0
2.025000e+04 -6.158106e+02 0.0
2.030000e+04 -7.446883e+02 0.0
4.200000e+03 4.895188e+02 0.0
2.035000e+04 -6.155987e+02 0.0
2.040000e+04 -7.444329e+02 0.0
4.300000e+03 4.892698e+02 0.0
2.045000e+04 -6.153887e+02 0.0
2.050000e+04 -7.441806e+02 0.0
4.400000e+03 4.890175e+02 0.0
2.055000e+04 -6.151816e+02 0.0
2.060000e+04 -7.439324e+02 0.0
4.500000e+03 4.887620e+02 0.0
2.065000e+04 -6.149785e+02 0.0
2.070000e+04 -7.436896e+02 0.0
4.600000e+03 4.885037e+02 0.0
2.075000e+04 -6.147804e+02 0.0
2.080000e+04 -7.434534e+02 0.0
4.700000e+03 4.882427e+02 0.0
2.085000e+04 -6.145882e+02 0.0
2.090000e+04 -7.432250e+02 0.0
4.800000e+03 4.879794e+02 0.0
4.900000e+03 4.877141e+02 0.0
5.000000e+03 4.874469e+02 0.0
2.125000e+04 -6.138990e+02 0.0
2.120000e+04 -7.425988e+02 0.0
2.130000e+04 -7.424137e+02 0.0
5.100000e+03 4.871782e+02 0.0
2.135000e+04 -6.137516e+02 0.0
2.140000e+04 -7.422425e+02 0.0
5.200000e+03 4.869082e+02 0.0
4.900000e+03 -4.877141e+02 0.0
2.145000e+04 -6.136161e+02 0.0
2.150000e+04 -7.420863e+02 0.0
5.300000e+03 4.866372e+02 0.0
5.000000e+03 -4.874469e+02 0.0
2.155000e+04 -6.134936e+02 0.0
2.160000e+04 -7.419463e+02 0.0
5.400000e+03 4.863654e+02 0.0
2.165000e+04 -6.133849e+02 0.0
2.170000e+04 -7.418238e+02 0.0
5.500000e+03 4.860930e+02 0.0
2.175000e+04 -6.132913e+02 0.0
2.180000e+04 -7.417200e+02 0.0
5.600000e+03 4.858205e+02 0.0
2.185000e+04 -6.132135e+02 0.0
2.190000e+04 -7.416361e+02 0.0
5.700000e+03 4.855479e+02 0.0
2.195000e+04 -6.131527e+02 0.0
2.200000e+04 -7.415732e+02 0.0
5.800000e+03 4.852756e+02 0.0
2.205000e+04 -6.131098e+02 0.0
2.210000e+04 -7.415327e+02 0.0
5.900000e+03 4.850038e+02 0.0
2.215000e+04 -6.130859e+02 0.0
2.220000e+04 -7.415156e+02 0.0
6.000000e+03 4.847329e+02 0.0
2.225000e+04 -6.130819e+02 0.0
6.100000e+03 4.844630e+02 0.0
6.200000e+03 4.841943e+02 0.0
6.300000e+03 4.839273e+02 0.0
2.265000e+04 -6.132850e+02 0.0
2.260000e+04 -7.417065e+02 0.0
2.270000e+04 -7.418250e+02 0.0
6.400000e+03 4.836621e+02 0.0
2.275000e+04 -6.133956e+02 0.0
2.280000e+04 -7.419741e+02 0.0
6.500000e+03 4.833990e+02 0.0
2.285000e+04 -6.135315e+02 0.0
2.290000e+04 -7.421533e+02 0.0
6.600000e+03 4.831382e+02 0.0
2.295000e+04 -6.136917e+02 0.0
2.300000e+04 -7.423613e+02 0.0
6.700000e+03 4.828801e+02 0.0
2.305000e+04 -6.138751e+02 0.0
2.310000e+04 -7.425968e+02 0.0
6.800000e+03 4.826248e+02 0.0
2.315000e+04 -6.140808e+02 0.0
2.320000e+04 -7.428584e+02 0.0
6.900000e+03 4.823726e+02 0.0
2.325000e+04 -6.143075e+02 0.0
2.330000e+04 -7.431448e+02 0.0
7.000000e+03 4.821239e+02 0.0
2.335000e+04 -6.145541e+02 0.0
2.340000e+04 -7.434548e+02 0.0
7.100000e+03 4.818788e+02 0.0
2.345000e+04 -6.148197e+02 0.0
2.350000e+04 -7.437869e+02 0.0
7.200000e+03 4.816376e+02 0.0
2.355000e+04 -6.151030e+02 0.0
2.360000e+04 -7.441398e+02 0.0
7.300000e+03 4.814006e+02 0.0
2.365000e+04 -6.154031e+02 0.0
7.400000e+03 4.811680e+02 0.0
7.500000e+03 4.809401e+02 0.0
7.600000e+03 4.807172e+02 0.0
2.405000e+04 -6.167484e+02 0.0
2.400000e+04 -7.457339e+02 0.0
2.410000e+04 -7.461713e+02 0.0
7.700000e+03 4.804995e+02 0.0
2.415000e+04 -6.171156e+02 0.0
2.420000e+04 -7.466217e+02 0.0
7.800000e+03 4.802872e+02 0.0
2.425000e+04 -6.174928e+02 0.0
2.430000e+04 -7.470836e+02 0.0
7.900000e+03 4.800807e+02 0.0
7.600000e+03 -4.807172e+02 0.0
2.435000e+04 -6.178792e+02 0.0
2.440000e+04 -7.475559e+02 0.0
8.000000e+03 4.798802e+02 0.0
7.700000e+03 -4.804995e+02 0.0
2.445000e+04 -6.182735e+02 0.0
2.450000e+04 -7.480371e+02 0.0
8.100000e+03 4.796860e+02 0.0
2.455000e+04 -6.186747e+02 0.0
2.460000e+04 -7.485260e+02 0.0
8.200000e+03 4.794982e+02 0.0
2.465000e+04 -6.190816e+02 0.0
2.470000e+04 -7.490212e+02 0.0
8.300000e+03 4.793173e+02 0.0
2.475000e+04 -6.194932e+02 0.0
2.480000e+04 -7.495213e+02 0.0
8.400000e+03 4.791434e+02 0.0
2.485000e+04 -6.199084e+02 0.0
2.490000e+04 -7.500252e+02 0.0
8.500000e+03 4.789768e+02 0.0
2.495000e+04 -6.203261e+02 0.0
8.600000e+03 4.788177e+02 0.0
8.700000e+03 4.786665e+02 0.0
8.800000e+03 4.785233e+02 0.0
2.535000e+04 -6.220000e+02 0.0
2.530000e+04 -7.520510e+02 0.0
2.540000e+04 -7.525534e+02 0.0
8.900000e+03 4.783885e+02 0.0
2.545000e+04 -6.224138e+02 0.0
2.550000e+04 -7.530516e+02 0.0
9.000000e+03 4.782622e+02 0.0
2.555000e+04 -6.228235e+02 0.0
2.560000e+04 -7.535442e+02 0.0
9.100000e+03 4.781449e+02 0.0
2.565000e+04 -6.232280e+02 0.0
2.570000e+04 -7.540299e+02 0.0
9.200000e+03 4.780366e+02 0.0
2.575000e+04 -6.236264e+02 0.0
2.580000e+04 -7.545073e+02 0.0
9.300000e+03 4.779372e+02 0.0
2.585000e+04 -6.240173e+02 0.0
2.590000e+04 -7.549753e+02 0.0
9.400000e+03 4.778469e+02 0.0
2.595000e+04 -6.243999e+02 0.0
2.600000e+04 -7.554324e+02 0.0
9.500000e+03 4.777653e+02 0.0
2.605000e+04 -6.247729e+02 0.0
2.610000e+04 -7.558773e+02 0.0
9.600000e+03 4.776925e+02 0.0
2.615000e+04 -6.251353e+02 0.0
2.620000e+04 -7.563087e+02 0.0
9.700000e+03 4.776284e+02 0.0
2.625000e+04 -6.254860e+02 0.0
2.630000e+04 -7.567252e+02 0.0
9.800000e+03 4.775730e+02 0.0
2.635000e+04 -6.258239e+02 0.0
9.900000e+03 4.775260e+02 0.0
1.000000e+04 4.774874e+02 0.0
1.010000e+04 4.774573e+02 0.0
2.675000e+04 -6.270255e+02 0.0
2.670000e+04 -7.582168e+02 0.0
2.680000e+04 -7.585395e+02 0.0
1.020000e+04 4.774354e+02 0.0
2.685000e+04 -6.272830e+02 0.0
2.690000e+04 -7.588393e+02 0.0
1.030000e+04 4.774217e+02 0.0
2.695000e+04 -6.275211e+02 0.0
2.700000e+04 -7.591151e+02 0.0
1.040000e+04 4.774161e+02 0.0
2.705000e+04 -6.277387e+02 0.0
2.710000e+04 -7.593655e+02 0.0
1.050000e+04 4.774185e+02 0.0
2.715000e+04 -6.279349e+02 0.0
2.720000e+04 -7.595892e+02 0.0
1.060000e+04 4.774289e+02 0.0
2.725000e+04 -6.281083e+02 0.0
2.730000e+04 -7.597849e+02 0.0
1.070000e+04 4.774471e+02 0.0
1.040000e+04 -4.774161e+02 0.0
2.735000e+04 -6.282582e+02 0.0
2.740000e+04 -7.599519e+02 0.0
1.080000e+04 4.774732e+02 0.0
1.050000e+04 -4.774185e+02 0.0
2.745000e+04 -6.283848e+02 0.0
2.750000e+04 -7.600914e+02 0.0
1.090000e+04 4.775069e+02 0.0
2.755000e+04 -6.284890e+02 0.0
2.760000e+04 -7.602042e+02 0.0
1.100000e+04 4.775483e+02 0.0
2.765000e+04 -6.285716e+02 0.0
2.770000e+04 -7.602915e+02 0.0
1.110000e+04 4.775972e+02 0.0
2.775000e+04 -6.286336e+02 0.0
2.780000e+04 -7.603543e+02 0.0
1.120000e+04 4.776536e+02 0.0
1.130000e+04 4.777173e+02 0.0
1.140000e+04 4.777884e+02 0.0
2.815000e+04 -6.286921e+02 0.0
2.810000e+04 -7.604064e+02 0.0
2.820000e+04 -7.603819e+02 0.0
1.150000e+04 4.778667e+02 0.0
2.825000e+04 -6.286638e+02 0.0
2.830000e+04 -7.603382e+02 0.0
1.160000e+04 4.779521e+02 0.0
2.835000e+04 -6.286200e+02 0.0
2.840000e+04 -7.602764e+02 0.0
1.170000e+04 4.780445e+02 0.0
2.845000e+04 -6.285617e+02 0.0
2.850000e+04 -7.601974e+02 0.0
1.180000e+04 4.781440e+02 0.0
2.855000e+04 -6.284897e+02 0.0
2.860000e+04 -7.601025e+02 0.0
1.190000e+04 4.782503e+02 0.0
2.865000e+04 -6.284050e+02 0.0
2.870000e+04 -7.599926e+02 0.0
1.200000e+04 4.783635e+02 0.0
2.875000e+04 -6.283082e+02 0.0
2.880000e+04 -7.598688e+02 0.0
1.210000e+04 4.784833e+02 0.0
2.885000e+04 -6.282005e+02 0.0
2.890000e+04 -7.597322e+02 0.0
1.220000e+04 4.786099e+02 0.0
2.895000e+04 -6.280825e+02 0.0
2.900000e+04 -7.595838e+02 0.0
1.230000e+04 4.787429e+02 0.0
2.905000e+04 -6.279553e+02 0.0
1.240000e+04 4.788825e+02 0.0
1.250000e+04 4.790285e+02 0.0
1.260000e+04 4.791808e+02 0.0
2.945000e+04 -6.273708e+02 0.0
2.940000e+04 -7.588936e+02 0.0
2.950000e+04 -7.587021e+02 0.0
1.270000e+04 4.793393e+02 0.0
2.955000e+04 -6.272102e+02 0.0
2.960000e+04 -7.585053e+02 0.0
1.280000e+04 4.795040e+02 0.0
2.965000e+04 -6.270455e+02 0.0
2.970000e+04 -7.583040e+02 0.0
1.290000e+04 4.796748e+02 0.0
2.975000e+04 -6.268776e+02 0.0
2.980000e+04 -7.580995e+02 0.0
1.300000e+04 4.798516e+02 0.0
2.985000e+04 -6.267075e+02 0.0
2.990000e+04 -7.578927e+02 0.0
1.310000e+04 4.800343e+02 0.0
2.995000e+04 -6.265359e+02 0.0
3.000000e+04 -7.576847e+02 0.0
1.320000e+04 4.802228e+02 0.0
3.005000e+04 -6.263637e+02 0.0
3.010000e+04 -7.574765e+02 0.0
1.330000e+04 4.804171e+02 0.0
3.015000e+04 -6.261919e+02 0.0
3.020000e+04 -7.572693e+02 0.0
1.340000e+04 4.806171e+02 0.0
3.025000e+04 -6.260213e+02 0.0
3.030000e+04 -7.570641e+02 0.0
1.350000e+04 4.808226e+02 0.0
1.320000e+04 -4.802228e+02 0.0
3.035000e+04 -6.258527e+02 0.0
1.360000e+04 4.810337e+02 0.0
1.330000e+04 -4.804171e+02 0.0
1.370000e+04 4.812502e+02 0.0
1.380000e+04 4.814717e+02 0.0
3.075000e+04 -6.252168e+02 0.0
3.070000e+04 -7.562840e+02 0.0
3.080000e+04 -7.561045e+02 0.0
1.390000e+04 4.816980e+02 0.0
3.085000e+04 -6.250717e+02 0.0
3.090000e+04 -7.559334e+02 0.0
1.400000e+04 4.819284e+02 0.0
3.095000e+04 -6.249340e+02 0.0
3.100000e+04 -7.557716e+02 0.0
1.410000e+04 4.821625e+02 0.0
3.105000e+04 -6.248044e+02 0.0
3.110000e+04 -7.556202e+02 0.0
1.420000e+04 4.823999e+02 0.0
3.115000e+04 -6.246839e+02 0.0
3.120000e+04 -7.554804e+02 0.0
1.430000e+04 4.826401e+02 0.0
3.125000e+04 -6.245734e+02 0.0
3.130000e+04 -7.553531e+02 0.0
1.440000e+04 4.828826e+02 0.0
3.135000e+04 -6.244737e+02 0.0
3.140000e+04 -7.552395e+02 0.0
1.450000e+04 4.831270e+02 0.0
3.145000e+04 -6.243857e+02 0.0
3.150000e+04 -7.551405e+02 0.0
1.460000e+04 4.833728e+02 0.0
3.155000e+04 -6.243103e+02 0.0
3.160000e+04 -7.550573e+02 0.0
1.470000e+04 4.836196e+02 0.0
3.165000e+04 -6.242483e+02 0.0
3.170000e+04 -7.549908e+02 0.0
1.480000e+04 4.838669e+02 0.0
3.175000e+04 -6.242006e+02 0.0
1.490000e+04 4.841142e+02 0.0
1.500000e+04 4.843610e+02 0.0
1.510000e+04 4.846070e+02 0.0
3.215000e+04 -6.241626e+02 0.0
3.210000e+04 -7.549082e+02 0.0
3.220000e+04 -7.549327e+02 0.0
1.520000e+04 4.848517e+02 0.0
3.225000e+04 -6.241900e+02 0.0
3.230000e+04 -7.549742e+02 0.0
1.530000e+04 4.850945e+02 0.0
3.235000e+04 -6.242312e+02 0.0
3.240000e+04 -7.550323e+02 0.0
1.540000e+04 4.853351e+02 0.0
3.245000e+04 -6.242858e+02 0.0
3.250000e+04 -7.551063e+02 0.0
1.550000e+04 4.855729e+02 0.0
3.255000e+04 -6.243534e+02 0.0
3.260000e+04 -7.551957e+02 0.0
1.560000e+04 4.858075e+02 0.0
3.265000e+04 -6.244335e+02 0.0
3.270000e+04 -7.552999e+02 0.0
1.570000e+04 4.860385e+02 0.0
3.275000e+04 -6.245257e+02 0.0
3.280000e+04 -7.554185e+02 0.0
1.580000e+04 4.862654e+02 0.0
3.285000e+04 -6.246295e+02 0.0
3.290000e+04 -7.555509e+02 0.0
1.590000e+04 4.864877e+02 0.0
3.295000e+04 -6.247445e+02 0.0
3.300000e+04 -7.556965e+02 0.0
1.600000e+04 4.867049e+02 0.0
3.305000e+04 -6.248702e+02 0.0
3.310000e+04 -7.558548e+02 0.0
1.610000e+04 4.869167e+02 0.0
1.620000e+04 4.871225e+02 0.0
1.630000e+04 4.873219e+02 0.0
1.600000e+04 -4.867049e+02 0.0
3.345000e+04 -6.254712e+02 0.0
3.340000e+04 -7.564005e+02 0.0
3.350000e+04 -7.566042e+02 0.0
1.640000e+04 4.875144e+02 0.0
1.610000e+04 -4.869167e+02 0.0
3.355000e+04 -6.256438e+02 0.0
3.360000e+04 -7.568178e+02 0.0
1.650000e+04 4.876996e+02 0.0
3.365000e+04 -6.258244e+02 0.0
3.370000e+04 -7.570409e+02 0.0
1.660000e+04 4.878769e+02 0.0
3.375000e+04 -6.260126e+02 0.0
3.380000e+04 -7.572729e+02 0.0
1.670000e+04 4.880460e+02 0.0
3.385000e+04 -6.262079e+02 0.0
3.390000e+04 -7.575133e+02 0.0
1.680000e+04 4.882064e+02 0.0
3.395000e+04 -6.264100e+02 0.0
3.400000e+04 -7.577615e+02 0.0
1.690000e+04 4.883576e+02 0.0
3.405000e+04 -6.266182e+02 0.0
3.410000e+04 -7.580170e+02 0.0
1.700000e+04 4.884991e+02 0.0
3.415000e+04 -6.268323e+02 0.0
3.420000e+04 -7.582792e+02 0.0
1.710000e+04 4.886305e+02 0.0
3.425000e+04 -6.270517e+02 0.0
3.430000e+04 -7.585476e+02 0.0
1.720000e+04 4.887514e+02 0.0
3.435000e+04 -6.272760e+02 0.0
1.730000e+04 4.888612e+02 0.0
1.740000e+04 4.889596e+02 0.0
1.750000e+04 4.890459e+02 0.0
3.475000e+04 -6.282133e+02 0.0
3.470000e+04 -7.596723e+02 0.0
3.480000e+04 -7.599635e+02 0.0
1.760000e+04 4.891199e+02 0.0
3.485000e+04 -6.284553e+02 0.0
3.490000e+04 -7.602577e+02 0.0
1.770000e+04 4.891810e+02 0.0
3.495000e+04 -6.286996e+02 0.0
3.500000e+04 -7.605543e+02 0.0
1.780000e+04 4.892288e+02 0.0
3.505000e+04 -6.289457e+02 0.0
3.510000e+04 -7.608528e+02 0.0
1.790000e+04 4.892628e+02 0.0
3.515000e+04 -6.291930e+02 0.0
3.520000e+04 -7.611525e+02 0.0
1.800000e+04 4.892825e+02 0.0
3.525000e+04 -6.294412e+02 0.0
3.530000e+04 -7.614531e+02 0.0
1.810000e+04 4.892875e+02 0.0
3.535000e+04 -6.296899e+02 0.0
3.540000e+04 -7.617538e+02 0.0
1.820000e+04 4.892773e+02 0.0
3.545000e+04 -6.299385e+02 0.0
3.550000e+04 -7.620543e+02 0.0
1.830000e+04 4.892518e+02 0.0
3.555000e+04 -6.301866e+02 0.0
3.560000e+04 -7.623539e+02 0.0
1.840000e+04 4.892117e+02 0.0
3.565000e+04 -6.304338e+02 0.0
3.570000e+04 -7.626521e+02 0.0
1.850000e+04 4.891578e+02 0.0
3.575000e+04 -6.306796e+02 0.0
3.580000e+04 -7.629484e+02 0.0
1.860000e+04 4.890908e+02 0.0
1.870000e+04 4.890115e+02 0.0
1.880000e+04 4.889208e+02 0.0
3.615000e+04 -6.316401e+02 0.0
3.610000e+04 -7.638202e+02 0.0
3.620000e+04 -7.641033e+02 0.0
1.890000e+04 4.888195e+02 0.0
3.625000e+04 -6.318724e+02 0.0
3.630000e+04 -7.643818e+02 0.0
1.900000e+04 4.887082e+02 0.0
3.635000e+04 -6.321005e+02 0.0
3.640000e+04 -7.646551e+02 0.0
1.910000e+04 4.885878e+02 0.0
3.645000e+04 -6.323242e+02 0.0
3.650000e+04 -7.649228e+02 0.0
1.920000e+04 4.884591e+02 0.0
1.890000e+04 -4.888195e+02 0.0
3.655000e+04 -6.325433e+02 0.0
3.660000e+04 -7.651850e+02 0.0
1.930000e+04 4.883229e+02 0.0
1.900000e+04 -4.887082e+02 0.0
3.665000e+04 -6.327577e+02 0.0
3.670000e+04 -7.654416e+02 0.0
1.940000e+04 4.881800e+02 0.0
3.675000e+04 -6.329675e+02 0.0
3.680000e+04 -7.656924e+02 0.0
1.950000e+04 4.880311e+02 0.0
3.685000e+04 -6.331725e+02 0.0
3.690000e+04 -7.659376e+02 0.0
1.960000e+04 4.878770e+02 0.0
3.695000e+04 -6.333728e+02 0.0
3.700000e+04 -7.661769e+02 0.0
1.970000e+04 4.877186e+02 0.0
3.705000e+04 -6.335683e+02 0.0
1.980000e+04 4.875566e+02 0.0
1.990000e+04 4.873919e+02 0.0
2.000000e+04 4.872251e+02 0.0
3.745000e+04 -6.343018e+02 0.0
3.740000e+04 -7.670758e+02 0.0
3.750000e+04 -7.672857e+02 0.0
2.010000e+04 4.870571e+02 0.0
3.755000e+04 -6.344728e+02 0.0
3.760000e+04 -7.674895e+02 0.0
2.020000e+04 4.868887e+02 0.0
3.765000e+04 -6.346388e+02 0.0
3.770000e+04 -7.676873e+02 0.0
2.030000e+04 4.867207e+02 0.0
3.775000e+04 -6.347998e+02 0.0
3.780000e+04 -7.678789e+02 0.0
2.040000e+04 4.865538e+02 0.0
3.785000e+04 -6.349557e+02 0.0
3.790000e+04 -7.680644e+02 0.0
2.050000e+04 4.863888e+02 0.0
3.795000e+04 -6.351065e+02 0.0
3.800000e+04 -7.682436e+02 0.0
2.060000e+04 4.862266e+02 0.0
3.805000e+04 -6.352521e+02 0.0
3.810000e+04 -7.684166e+02 0.0
2.070000e+04 4.860680e+02 0.0
3.815000e+04 -6.353925e+02 0.0
3.820000e+04 -7.685833e+02 0.0
2.080000e+04 4.859136e+02 0.0
3.825000e+04 -6.355278e+02 0.0
3.830000e+04 -7.687437e+02 0.0
2.090000e+04 4.857643e+02 0.0
3.835000e+04 -6.356577e+02 0.0
2.100000e+04 4.856210e+02 0.0
2.110000e+04 4.854843e+02 0.0
2.120000e+04 4.853550e+02 0.0
3.875000e+04 -6.361242e+02 0.0
3.870000e+04 -7.693209e+02 0.0
3.880000e+04 -7.694489e+02 0.0
2.130000e+04 4.852341e+02 0.0
3.885000e+04 -6.362273e+02 0.0
3.890000e+04 -7.695703e+02 0.0
2.140000e+04 4.851221e+02 0.0
3.895000e+04 -6.363249e+02 0.0
3.900000e+04 -7.696850e+02 0.0
2.150000e+04 4.850200e+02 0.0
3.905000e+04 -6.364170e+02 0.0
3.910000e+04 -7.697931e+02 0.0
2.160000e+04 4.849286e+02 0.0
3.915000e+04 -6.365036e+02 0.0
3.920000e+04 -7.698944e+02 0.0
2.170000e+04 4.848485e+02 0.0
3.925000e+04 -6.365845e+02 0.0
3.930000e+04 -7.699889e+02 0.0
2.180000e+04 4.847807e+02 0.0
3.935000e+04 -6.366599e+02 0.0
3.940000e+04 -7.700766e+02 0.0
2.190000e+04 4.847258e+02 0.0
3.945000e+04 -6.367295e+02 0.0
3.950000e+04 -7.701574e+02 0.0
2.200000e+04 4.846847e+02 0.0
2.170000e+04 -4.848485e+02 0.0
3.955000e+04 -6.367935e+02 0.0
3.960000e+04 -7.702313e+02 0.0
2.210000e+04 4.846582e+02 0.0
2.180000e+04 -4.847807e+02 0.0
3.965000e+04 -6.368518e+02 0.0
2.220000e+04 4.846471e+02 0.0
2.230000e+04 4.846520e+02 0.0
2.240000e+04 4.846740e+02 0.0
4.005000e+04 -6.370266e+02 0.0
4.000000e+04 -7.704570e+02 0.0
4.010000e+04 -7.704956e+02 0.0
2.250000e+04 4.847136e+02 0.0
4.015000e+04 -6.370556e+02 0.0
4.020000e+04 -7.705271e+02 0.0
2.260000e+04 4.847718e+02 0.0
4.025000e+04 -6.370787e+02 0.0
4.030000e+04 -7.705514e+02 0.0
2.270000e+04 4.848493e+02 0.0
4.035000e+04 -6.370958e+02 0.0
4.040000e+04 -7.705684e+02 0.0
2.280000e+04 4.849467e+02 0.0
4.045000e+04 -6.371068e+02 0.0
4.050000e+04 -7.705781e+02 0.0
2.290000e+04 4.850639e+02 0.0
4.055000e+04 -6.371118e+02 0.0
4.060000e+04 -7.705804e+02 0.0
2.300000e+04 4.851998e+02 0.0
4.065000e+04 -6.371107e+02 0.0
4.070000e+04 -7.705754e+02 0.0
2.310000e+04 4.853537e+02 0.0
4.075000e+04 -6.371034e+02 0.0
4.080000e+04 -7.705629e+02 0.0
2.320000e+04 4.855247e+02 0.0
4.085000e+04 -6.370900e+02 0.0
4.090000e+04 -7.705429e+02 0.0
2.330000e+04 4.857119e+02 0.0
4.095000e+04 -6.370703e+02 0.0
4.100000e+04 -7.705154e+02 0.0
2.340000e+04 4.859145e+02 0.0
2.350000e+04 4.861315e+02 0.0
2.360000e+04 4.863622e+02 0.0
4.135000e+04 -6.369345e+02 0.0
4.130000e+04 -7.703918e+02 0.0
4.140000e+04 -7.703383e+02 0.0
2.370000e+04 4.866057e+02 0.0
4.145000e+04 -6.368879e+02 0.0
4.150000e+04 -7.702793e+02 0.0
2.380000e+04 4.868611e+02 0.0
4.155000e+04 -6.368370e+02 0.0
4.160000e+04 -7.702153e+02 0.0
2.390000e+04 4.871275e+02 0.0
4.165000e+04 -6.367821e+02 0.0
4.170000e+04 -7.701466e+02 0.0
2.400000e+04 4.874041e+02 0.0
4.175000e+04 -6.367236e+02 0.0
4.180000e+04 -7.700738e+02 0.0
2.410000e+04 4.876900e+02 0.0
4.185000e+04 -6.366618e+02 0.0
4.190000e+04 -7.699972e+02 0.0
2.420000e+04 4.879843e+02 0.0
4.195000e+04 -6.365971e+02 0.0
4.200000e+04 -7.699173e+02 0.0
2.430000e+04 4.882863e+02 0.0
4.205000e+04 -6.365298e+02 0.0
4.210000e+04 -7.698345e+02 0.0
2.440000e+04 4.885949e+02 0.0
4.215000e+04 -6.364602e+02 0.0
4.220000e+04 -7.697492e+02 0.0
2.450000e+04 4.889095e+02 0.0
4.225000e+04 -6.363888e+02 0.0
4.230000e+04 -7.696618e+02 0.0
2.460000e+04 4.892290e+02 0.0
2.470000e+04 4.895526e+02 0.0
2.440000e+04 -4.885949e+02 0.0
2.480000e+04 4.898795e+02 0.0
2.450000e+04 -4.889095e+02 0.0
4.265000e+04 -6.360911e+02 0.0
4.260000e+04 -7.693914e+02 0.0
4.270000e+04 -7.693000e+02 0.0
2.490000e+04 4.902088e+02 0.0
4.275000e+04 -6.360155e+02 0.0
4.280000e+04 -7.692086e+02 0.0
2.500000e+04 4.905397e+02 0.0
4.285000e+04 -6.359401e+02 0.0
4.290000e+04 -7.691177e+02 0.0
2.510000e+04 4.908712e+02 0.0
4.295000e+04 -6.358653e+02 0.0
4.300000e+04 -7.690277e+02 0.0
2.520000e+04 4.912026e+02 0.0
4.305000e+04 -6.357914e+02 0.0
4.310000e+04 -7.689390e+02 0.0
2.530000e+04 4.915329e+02 0.0
4.315000e+04 -6.357187e+02 0.0
4.320000e+04 -7.688521e+02 0.0
2.540000e+04 4.918612e+02 0.0
4.325000e+04 -6.356477e+02 0.0
4.330000e+04 -7.687673e+02 0.0
2.550000e+04 4.921868e+02 0.0
4.335000e+04 -6.355786e+02 0.0
4.340000e+04 -7.686851e+02 0.0
2.560000e+04 4.925088e+02 0.0
4.345000e+04 -6.355119e+02 0.0
4.350000e+04 -7.686060e+02 0.0
2.570000e+04 4.928262e+02 0.0
4.355000e+04 -6.354478e+02 0.0
2.580000e+04 4.931383e+02 0.0
2.590000e+04 4.934442e+02 0.0
2.600000e+04 4.937429e+02 0.0
4.395000e+04 -6.352252e+02 0.0
4.390000e+04 -7.683279e+02 0.0
4.400000e+04 -7.682702e+02 0.0
2.610000e+04 4.940337e+02 0.0
4.405000e+04 -6.351797e+02 0.0
4.410000e+04 -7.682180e+02 0.0
2.620000e+04 4.943157e+02 0.0
4.415000e+04 -6.351390e+02 0.0
4.420000e+04 -7.681718e+02 0.0
2.630000e+04 4.945879e+02 0.0
4.425000e+04 -6.351034e+02 0.0
4.430000e+04 -7.681320e+02 0.0
2.640000e+04 4.948496e+02 0.0
4.435000e+04 -6.350733e+02 0.0
4.440000e+04 -7.680990e+02 0.0
2.650000e+04 4.950999e+02 0.0
4.445000e+04 -6.350490e+02 0.0
4.450000e+04 -7.680733e+02 0.0
2.660000e+04 4.953379e+02 0.0
4.455000e+04 -6.350309e+02 0.0
4.460000e+04 -7.680553e+02 0.0
2.670000e+04 4.955628e+02 0.0
4.465000e+04 -6.350192e+02 0.0
4.470000e+04 -7.680454e+02 0.0
2.680000e+04 4.957737e+02 0.0
4.475000e+04 -6.350145e+02 0.0
4.480000e+04 -7.680439e+02 0.0
2.690000e+04 4.959697e+02 0.0
4.485000e+04 -6.350170e+02 0.0
2.700000e+04 4.961499e+02 0.0
2.710000e+04 4.963136e+02 0.0
2.720000e+04 4.964598e+02 0.0
4.525000e+04 -6.351061e+02 0.0
4.520000e+04 -7.681320e+02 0.0
4.530000e+04 -7.681795e+02 0.0
2.730000e+04 4.965877e+02 0.0
4.535000e+04 -6.351500e+02 0.0
4.540000e+04 -7.682381e+02 0.0
2.740000e+04 4.966969e+02 0.0
4.545000e+04 -6.352032e+02 0.0
4.550000e+04 -7.683082e+02 0.0
2.750000e+04 4.967880e+02 0.0
2.720000e+04 -4.964598e+02 0.0
4.555000e+04 -6.352658e+02 0.0
4.560000e+04 -7.683892e+02 0.0
2.760000e+04 4.968617e+02 0.0
2.730000e+04 -4.965877e+02 0.0
4.565000e+04 -6.353368e+02 0.0
4.570000e+04 -7.684796e+02 0.0
2.770000e+04 4.969188e+02 0.0
4.575000e+04 -6.354149e+02 0.0
4.580000e+04 -7.685777e+02 0.0
2.780000e+04 4.969598e+02 0.0
4.585000e+04 -6.354987e+02 0.0
4.590000e+04 -7.686821e+02 0.0
2.790000e+04 4.969856e+02 0.0
4.595000e+04 -6.355871e+02 0.0
4.600000e+04 -7.687910e+02 0.0
2.800000e+04 4.969967e+02 0.0
4.605000e+04 -6.356785e+02 0.0
4.610000e+04 -7.689028e+02 0.0
2.810000e+04 4.969939e+02 0.0
4.615000e+04 -6.357717e+02 0.0
2.820000e+04 4.969779e+02 0.0
2.830000e+04 4.969493e+02 0.0
2.840000e+04 4.969089e+02 0.0
4.655000e+04 -6.361356e+02 0.0
4.650000e+04 -7.693475e+02 0.0
4.660000e+04 -7.694500e+02 0.0
2.850000e+04 4.968573e+02 0.0
4.665000e+04 -6.362178e+02 0.0
4.670000e+04 -7.695458e+02 0.0
2.860000e+04 4.967953e+02 0.0
4.675000e+04 -6.362937e+02 0.0
4.680000e+04 -7.696334e+02 0.0
2.870000e+04 4.967235e+02 0.0
4.685000e+04 -6.363621e+02 0.0
4.690000e+04 -7.697110e+02 0.0
2.880000e+04 4.966425e+02 0.0
4.695000e+04 -6.364217e+02 0.0
4.700000e+04 -7.697771e+02 0.0
2.890000e+04 4.965533e+02 0.0
4.705000e+04 -6.364711e+02 0.0
4.710000e+04 -7.698300e+02 0.0
2.900000e+04 4.964563e+02 0.0
4.715000e+04 -6.365090e+02 0.0
4.720000e+04 -7.698683e+02 0.0
2.910000e+04 4.963523e+02 0.0
4.725000e+04 -6.365340e+02 0.0
4.730000e+04 -7.698902e+02 0.0
2.920000e+04 4.962419e+02 0.0
4.735000e+04 -6.365449e+02 0.0
4.740000e+04 -7.698942e+02 0.0
2.930000e+04 4.961260e+02 0.0
4.745000e+04 -6.365403e+02 0.0
2.940000e+04 4.960051e+02 0.0
2.950000e+04 4.958800e+02 0.0
2.960000e+04 4.957513e+02 0.0
4.785000e+04 -6.363403e+02 0.0
4.780000e+04 -7.696986e+02 0.0
4.790000e+04 -7.695888e+02 0.0
2.970000e+04 4.956198e+02 0.0
4.795000e+04 -6.362383e+02 0.0
4.800000e+04 -7.694514e+02 0.0
2.980000e+04 4.954861e+02 0.0
4.805000e+04 -6.361128e+02 0.0
4.810000e+04 -7.692849e+02 0.0
2.990000e+04 4.953509e+02 0.0
4.815000e+04 -6.359625e+02 0.0
4.820000e+04 -7.690875e+02 0.0
3.000000e+04 4.952150e+02 0.0
4.825000e+04 -6.357861e+02 0.0
4.830000e+04 -7.688577e+02 0.0
3.010000e+04 4.950790e+02 0.0
4.835000e+04 -6.355822e+02 0.0
4.840000e+04 -7.685939e+02 0.0
3.020000e+04 4.949435e+02 0.0
4.845000e+04 -6.353495e+02 0.0
4.850000e+04 -7.682945e+02 0.0
3.030000e+04 4.948094e+02 0.0
3.000000e+04 -4.952150e+02 0.0
4.855000e+04 -6.350868e+02 0.0
4.860000e+04 -7.679579e+02 0.0
3.040000e+04 4.946772e+02 0.0
3.010000e+04 -4.950790e+02 0.0
4.865000e+04 -6.347926e+02 0.0
4.870000e+04 -7.675824e+02 0.0
3.050000e+04 4.945477e+02 0.0
4.875000e+04 -6.344656e+02 0.0
3.060000e+04 4.944216e+02 0.0
3.070000e+04 4.942995e+02 0.0
3.080000e+04 4.941822e+02 0.0
4.915000e+04 -6.328034e+02 0.0
4.910000e+04 -7.656602e+02 0.0
4.920000e+04 -7.650665e+02 0.0
3.090000e+04 4.940704e+02 0.0
4.925000e+04 -6.322927e+02 0.0
4.930000e+04 -7.644243e+02 0.0
3.100000e+04 4.939646e+02 0.0
4.935000e+04 -6.317412e+02 0.0
4.940000e+04 -7.637320e+02 0.0
3.110000e+04 4.938657e+02 0.0
3.120000e+04 4.937743e+02 0.0
3.130000e+04 4.936911e+02 0.0
5.000000e+04 0.000000e+00 0.0
5.000000e+04 1.516874e+02 0.0
3.140000e+04 4.936169e+02 0.0
4.991340e+04 2.277988e+02 0.0
5.000000e+04 3.033747e+02 0.0
3.150000e+04 4.935522e+02 0.0
3.160000e+04 4.934978e+02 0.0
3.170000e+04 4.934543e+02 0.0
3.180000e+04 4.934226e+02 0.0
3.190000e+04 4.934031e+02 0.0
3.200000e+04 4.933958e+02 0.0
3.210000e+04 4.934003e+02 0.0
3.220000e+04 4.934163e+02 0.0
3.230000e+04 4.934435e+02 0.0
3.240000e+04 4.934814e+02 0.0
3.250000e+04 4.935298e+02 0.0
3.260000e+04 4.935882e+02 0.0
3.270000e+04 4.936564e+02 0.0
3.280000e+04 4.937339e+02 0.0
3.290000e+04 4.938204e+02 0.0
3.300000e+04 4.939155e+02 0.0
3.310000e+04 4.940190e+02 0.0
3.280000e+04 -4.937339e+02 0.0
3.320000e+04 4.941304e+02 0.0
3.290000e+04 -4.938204e+02 0.0
3.330000e+04 4.942494e+02 0.0
3.340000e+04 4.943757e+02 0.0
3.350000e+04 4.945088e+02 0.0
3.360000e+04 4.946484e+02 0.0
3.370000e+04 4.947943e+02 0.0
3.380000e+04 4.949459e+02 0.0
3.390000e+04 4.951030e+02 0.0
3.400000e+04 4.952652e+02 0.0
3.410000e+04 4.954322e+02 0.0
3.420000e+04 4.956036e+02 0.0
3.430000e+04 4.957790e+02 0.0
3.440000e+04 4.959581e+02 0.0
3.450000e+04 4.961406e+02 0.0
3.460000e+04 4.963260e+02 0.0
3.470000e+04 4.965141e+02 0.0
3.480000e+04 4.967044e+02 0.0
3.490000e+04 4.968967e+02 0.0
3.500000e+04 4.970906e+02 0.0
3.510000e+04 4.972856e+02 0.0
3.520000e+04 4.974815e+02 0.0
3.530000e+04 4.976780e+02 0.0
3.540000e+04 4.978746e+02 0.0
3.550000e+04 4.980709e+02 0.0
3.560000e+04 4.982668e+02 0.0
3.570000e+04 4.984617e+02 0.0
3.580000e+04 4.986553e+02 0.0
3.590000e+04 4.988473e+02 0.0
3.600000e+04 4.990374e+02 0.0
3.570000e+04 -4.984617e+02 0.0
3.610000e+04 4.992251e+02 0.0
3.580000e+04 -4.986553e+02 0.0
3.620000e+04 4.994102e+02 0.0
3.630000e+04 4.995922e+02 0.0
3.640000e+04 4.997708e+02 0.0
3.650000e+04 4.999458e+02 0.0
3.660000e+04 5.001172e+02 0.0
3.670000e+04 5.002848e+02 0.0
3.680000e+04 5.004488e+02 0.0
3.690000e+04 5.006090e+02 0.0
3.700000e+04 5.007654e+02 0.0
3.710000e+04 5.009181e+02 0.0
3.720000e+04 5.010669e+02 0.0
3.730000e+04 5.012119e+02 0.0
3.740000e+04 5.013530e+02 0.0
3.750000e+04 5.014901e+02 0.0
3.760000e+04 5.016233e+02 0.0
3.770000e+04 5.017526e+02 0.0
3.780000e+04 5.018778e+02 0.0
3.790000e+04 5.019991e+02 0.0
3.800000e+04 5.021162e+02 0.0
3.810000e+04 5.022293e+02 0.0
3.820000e+04 5.023383e+02 0.0
3.830000e+04 5.024431e+02 0.0
3.840000e+04 5.025437e+02 0.0
3.850000e+04 5.026402e+02 0.0
3.860000e+04 5.027324e+02 0.0
3.870000e+04 5.028203e+02 0.0
3.880000e+04 5.029040e+02 0.0
3.850000e+04 -5.026402e+02 0.0
3.890000e+04 5.029833e+02 0.0
3.860000e+04 -5.027324e+02 0.0
3.900000e+04 5.030583e+02 0.0
3.910000e+04 5.031289e+02 0.0
3.920000e+04 5.031951e+02 0.0
3.930000e+04 5.032569e+02 0.0
3.940000e+04 5.033142e+02 0.0
3.950000e+04 5.033671e+02 0.0
3.960000e+04 5.034154e+02 0.0
3.970000e+04 5.034591e+02 0.0
3.980000e+04 5.034983e+02 0.0
3.990000e+04 5.035329e+02 0.0
4.000000e+04 5.035628e+02 0.0
4.010000e+04 5.035881e+02 0.0
4.020000e+04 5.036087e+02 0.0
4.030000e+04 5.036246e+02 0.0
4.040000e+04 5.036357e+02 0.0
4.050000e+04 5.036420e+02 0.0
4.060000e+04 5.036435e+02 0.0
4.070000e+04 5.036402e+02 0.0
4.080000e+04 5.036321e+02 0.0
4.090000e+04 5.036190e+02 0.0
4.100000e+04 5.036010e+02 0.0
4.110000e+04 5.035784e+02 0.0
4.120000e+04 5.035514e+02 0.0
4.130000e+04 5.035202e+02 0.0
4.140000e+04 5.034853e+02 0.0
4.150000e+04 5.034467e+02 0.0
4.160000e+04 5.034049e+02 0.0
4.130000e+04 -5.035202e+02 0.0
4.170000e+04 5.033600e+02 0.0
4.140000e+04 -5.034853e+02 0.0
4.180000e+04 5.033124e+02 0.0
4.190000e+04 5.032624e+02 0.0
4.200000e+04 5.032101e+02 0.0
4.210000e+04 5.031560e+02 0.0
4.220000e+04 5.031002e+02 0.0
4.230000e+04 5.030431e+02 0.0
4.240000e+04 5.029849e+02 0.0
4.250000e+04 5.029259e+02 0.0
4.260000e+04 5.028664e+02 0.0
4.270000e+04 5.028066e+02 0.0
4.280000e+04 5.027469e+02 0.0
4.290000e+04 5.026875e+02 0.0
4.300000e+04 5.026287e+02 0.0
4.310000e+04 5.025707e+02 0.0
4.320000e+04 5.025139e+02 0.0
4.330000e+04 5.024585e+02 0.0
4.340000e+04 5.024048e+02 0.0
4.350000e+04 5.023530e+02 0.0
4.360000e+04 5.023035e+02 0.0
4.370000e+04 5.022566e+02 0.0
4.380000e+04 5.022124e+02 0.0
4.390000e+04 5.021713e+02 0.0
4.400000e+04 5.021336e+02 0.0
4.410000e+04 5.020995e+02 0.0
4.420000e+04 5.020693e+02 0.0
4.430000e+04 5.020433e+02 0.0
4.440000e+04 5.020217e+02 0.0
4.410000e+04 -5.020995e+02 0.0
4.450000e+04 5.020049e+02 0.0
4.420000e+04 -5.020693e+02 0.0
4.460000e+04 5.019931e+02 0.0
4.470000e+04 5.019866e+02 0.0
4.480000e+04 5.019857e+02 0.0
4.490000e+04 5.019906e+02 0.0
4.500000e+04 5.020017e+02 0.0
4.510000e+04 5.020191e+02 0.0
4.520000e+04 5.020432e+02 0.0
4.530000e+04 5.020743e+02 0.0
4.540000e+04 5.021126e+02 0.0
4.550000e+04 5.021584e+02 0.0
4.560000e+04 5.022114e+02 0.0
4.570000e+04 5.022704e+02 0.0
4.580000e+04 5.023346e+02 0.0
4.590000e+04 5.024028e+02 0.0
4.600000e+04 5.024740e+02 0.0
4.610000e+04 5.025471e+02 0.0
4.620000e+04 5.026210e+02 0.0
4.630000e+04 5.026948e+02 0.0
4.640000e+04 5.027674e+02 0.0
4.650000e+04 5.028377e+02 0.0
4.660000e+04 5.029047e+02 0.0
4.670000e+04 5.029673e+02 0.0
4.680000e+04 5.030245e+02 0.0
4.690000e+04 5.030753e+02 0.0
4.700000e+04 5.031185e+02 0.0
4.670000e+04 -5.029673e+02 0.0
4.710000e+04 5.031531e+02 0.0
4.680000e+04 -5.030245e+02 0.0
4.720000e+04 5.031781e+02 0.0
4.730000e+04 5.031924e+02 0.0
4.740000e+04 5.031950e+02 0.0
4.750000e+04 5.031849e+02 0.0
4.760000e+04 5.031609e+02 0.0
4.770000e+04 5.031220e+02 0.0
4.780000e+04 5.030672e+02 0.0
4.790000e+04 5.029954e+02 0.0
4.800000e+04 5.029056e+02 0.0
4.810000e+04 5.027968e+02 0.0
4.820000e+04 5.026678e+02 0.0
4.830000e+04 5.025176e+02 0.0
4.840000e+04 5.023452e+02 0.0
4.850000e+04 5.021495e+02 0.0
4.860000e+04 5.019295e+02 0.0
4.870000e+04 5.016841e+02 0.0
4.880000e+04 5.014123e+02 0.0
4.890000e+04 5.011130e+02 0.0
4.900000e+04 5.007851e+02 0.0
4.910000e+04 5.004277e+02 0.0
4.920000e+04 5.000397e+02 0.0
4.930000e+04 4.996199e+02 0.0
4.940000e+04 4.991675e+02 0.0
4.950000e+04 4.986813e+02 0.0
5.000000e+04 -1.516874e+02 0.0
4.974679e+04 -3.674802e+02 0.0
4.970287e+04 -4.965427e+02 0.0
4.991340e+04 -2.277988e+02 0.0
5.000000e+04 -3.033747e+02 0.0
4.965385e+04 -3.585301e+02 0.0
4.960000e+04 -4.981602e+02 0.0
4.970287e+04 4.965579e+02 0.0
4.982679e+04 -1.520354e+02 0.0
4.960000e+04 4.981602e+02 0.0
4.982679e+04 3.040707e+02 0.0
4.982679e+04 1.520354e+02 0.0
4.974678e+04 3.674858e+02 0.0
4.951657e+04 9.303257e+00 0.0
4.940455e+04 1.397458e+01 0.0
4.945318e+04 -1.043245e+02 0.0
4.965345e+04 3.597249e+02 0.0
4.982679e+04 -3.040707e+02 0.0
4.950000e+04 -4.986813e+02 0.0
4.973159e+04 -8.205740e+01 0.0
4.973606e+04 -2.309822e+02 0.0
4.940000e+04 -4.991675e+02 0.0
4.930000e+04 -4.996199e+02 0.0
4.920000e+04 -5.000397e+02 0.0
4.910000e+04 -5.004277e+02 0.0
4.900000e+04 -5.007851e+02 0.0
4.890000e+04 -5.011130e+02 0.0
4.915000e+04 3.676717e+02 0.0
4.880000e+04 -5.014123e+02 0.0
4.870000e+04 -5.016841e+02 0.0
4.895000e+04 3.681973e+02 0.0
4.860000e+04 -5.019295e+02 0.0
4.850000e+04 -5.021495e+02 0.0
4.885000e+04 3.684277e+02 0.0
4.840000e+04 -5.023452e+02 0.0
4.830000e+04 -5.025176e+02 0.0
4.820000e+04 -5.026678e+02 0.0
4.810000e+04 -5.027968e+02 0.0
4.800000e+04 -5.029056e+02 0.0
4.790000e+04 -5.029954e+02 0.0
4.780000e+04 -5.030672e+02 0.0
4.770000e+04 -5.031220e+02 0.0
4.760000e+04 -5.031609e+02 0.0
4.785000e+04 3.697267e+02 0.0
4.750000e+04 -5.031849e+02 0.0
4.740000e+04 -5.031950e+02 0.0
4.765000e+04 3.698075e+02 0.0
4.730000e+04 -5.031924e+02 0.0
4.755000e+04 3.698305e+02 0.0
4.720000e+04 -5.031781e+02 0.0
4.710000e+04 -5.031531e+02 0.0
4.700000e+04 -5.031185e+02 0.0
4.690000e+04 -5.030753e+02 0.0
4.660000e+04 -5.029047e+02 0.0
4.650000e+04 -5.028377e+02 0.0
4.685000e+04 3.697394e+02 0.0
4.640000e+04 -5.027674e+02 0.0
4.630000e+04 -5.026948e+02 0.0
4.655000e+04 3.696078e+02 0.0
4.620000e+04 -5.026210e+02 0.0
4.610000e+04 -5.025471e+02 0.0
4.635000e+04 3.695046e+02 0.0
4.600000e+04 -5.024740e+02 0.0
4.625000e+04 3.694507e+02 0.0
4.590000e+04 -5.024028e+02 0.0
4.580000e+04 -5.023346e+02 0.0
4.615000e+04 3.693963e+02 0.0
4.570000e+04 -5.022704e+02 0.0
4.605000e+04 3.693422e+02 0.0
4.560000e+04 -5.022114e+02 0.0
4.550000e+04 -5.021584e+02 0.0
4.540000e+04 -5.021126e+02 0.0
4.530000e+04 -5.020743e+02 0.0
4.520000e+04 -5.020432e+02 0.0
4.510000e+04 -5.020191e+02 0.0
4.500000e+04 -5.020017e+02 0.0
4.525000e+04 3.690097e+02 0.0
4.490000e+04 -5.019906e+02 0.0
4.480000e+04 -5.019857e+02 0.0
4.505000e+04 3.689741e+02 0.0
4.470000e+04 -5.019866e+02 0.0
4.495000e+04 3.689637e+02 0.0
4.460000e+04 -5.019931e+02 0.0
4.450000e+04 -5.020049e+02 0.0
4.440000e+04 -5.020217e+02 0.0
4.430000e+04 -5.020433e+02 0.0
4.400000e+04 -5.021336e+02 0.0
4.390000e+04 -5.021713e+02 0.0
4.425000e+04 3.690081e+02 0.0
4.380000e+04 -5.022124e+02 0.0
4.370000e+04 -5.022566e+02 0.0
4.395000e+04 3.690788e+02 0.0
4.360000e+04 -5.023035e+02 0.0
4.350000e+04 -5.023530e+02 0.0
4.375000e+04 3.691392e+02 0.0
4.340000e+04 -5.024048e+02 0.0
4.365000e+04 3.691727e+02 0.0
4.330000e+04 -5.024585e+02 0.0
4.320000e+04 -5.025139e+02 0.0
4.310000e+04 -5.025707e+02 0.0
4.300000e+04 -5.026287e+02 0.0
4.290000e+04 -5.026875e+02 0.0
4.280000e+04 -5.027469e+02 0.0
4.315000e+04 3.693656e+02 0.0
4.270000e+04 -5.028066e+02 0.0
4.305000e+04 3.694078e+02 0.0
4.260000e+04 -5.028664e+02 0.0
4.250000e+04 -5.029259e+02 0.0
4.240000e+04 -5.029849e+02 0.0
4.265000e+04 3.695819e+02 0.0
4.230000e+04 -5.030431e+02 0.0
4.220000e+04 -5.031002e+02 0.0
4.245000e+04 3.696694e+02 0.0
4.210000e+04 -5.031560e+02 0.0
4.235000e+04 3.697125e+02 0.0
4.200000e+04 -5.032101e+02 0.0
4.190000e+04 -5.032624e+02 0.0
4.180000e+04 -5.033124e+02 0.0
4.170000e+04 -5.033600e+02 0.0
4.160000e+04 -5.034049e+02 0.0
4.150000e+04 -5.034467e+02 0.0
4.120000e+04 -5.035514e+02 0.0
4.110000e+04 -5.035784e+02 0.0
4.145000e+04 3.700449e+02 0.0
4.100000e+04 -5.036010e+02 0.0
4.125000e+04 3.700963e+02 0.0
4.090000e+04 -5.036190e+02 0.0
4.115000e+04 3.701177e+02 0.0
4.080000e+04 -5.036321e+02 0.0
4.105000e+04 3.701360e+02 0.0
4.070000e+04 -5.036402e+02 0.0
4.060000e+04 -5.036435e+02 0.0
4.050000e+04 -5.036420e+02 0.0
4.040000e+04 -5.036357e+02 0.0
4.030000e+04 -5.036246e+02 0.0
4.020000e+04 -5.036087e+02 0.0
4.010000e+04 -5.035881e+02 0.0
4.000000e+04 -5.035628e+02 0.0
4.035000e+04 3.701657e+02 0.0
3.990000e+04 -5.035329e+02 0.0
4.025000e+04 3.701557e+02 0.0
3.980000e+04 -5.034983e+02 0.0
4.005000e+04 3.701255e+02 0.0
3.970000e+04 -5.034591e+02 0.0
3.960000e+04 -5.034154e+02 0.0
3.985000e+04 3.700815e+02 0.0
3.950000e+04 -5.033671e+02 0.0
3.975000e+04 3.700544e+02 0.0
3.940000e+04 -5.033142e+02 0.0
3.930000e+04 -5.032569e+02 0.0
3.920000e+04 -5.031951e+02 0.0
3.910000e+04 -5.031289e+02 0.0
3.900000e+04 -5.030583e+02 0.0
3.890000e+04 -5.029833e+02 0.0
3.880000e+04 -5.029040e+02 0.0
3.870000e+04 -5.028203e+02 0.0
3.875000e+04 3.696012e+02 0.0
3.840000e+04 -5.025437e+02 0.0
3.830000e+04 -5.024431e+02 0.0
3.820000e+04 -5.023383e+02 0.0
3.845000e+04 3.694026e+02 0.0
3.855000e+04 3.694719e+02 0.0
3.810000e+04 -5.022293e+02 0.0
3.800000e+04 -5.021162e+02 0.0
3.790000e+04 -5.019991e+02 0.0
3.780000e+04 -5.018778e+02 0.0
3.770000e+04 -5.017526e+02 0.0
3.760000e+04 -5.016233e+02 0.0
3.750000e+04 -5.014901e+02 0.0
3.740000e+04 -5.013530e+02 0.0
3.730000e+04 -5.012119e+02 0.0
3.720000e+04 -5.010669e+02 0.0
3.755000e+04 3.686417e+02 0.0
3.710000e+04 -5.009181e+02 0.0
3.745000e+04 3.685423e+02 0.0
3.700000e+04 -5.007654e+02 0.0
3.725000e+04 3.683349e+02 0.0
3.690000e+04 -5.006090e+02 0.0
3.715000e+04 3.682269e+02 0.0
3.680000e+04 -5.004488e+02 0.0
3.670000e+04 -5.002848e+02 0.0
3.660000e+04 -5.001172e+02 0.0
3.650000e+04 -4.999458e+02 0.0
3.640000e+04 -4.997708e+02 0.0
3.630000e+04 -4.995922e+02 0.0
3.620000e+04 -4.994102e+02 0.0
3.610000e+04 -4.992251e+02 0.0
3.600000e+04 -4.990374e+02 0.0
3.590000e+04 -4.988473e+02 0.0
3.615000e+04 3.669958e+02 0.0
3.595000e+04 3.667199e+02 0.0
3.560000e+04 -4.982668e+02 0.0
3.595000e+04 1.184324e+02 0.0
3.600000e+04 2.345418e+02 0.0
3.590000e+04 2.344525e+02 0.0
3.550000e+04 -4.980709e+02 0.0
3.540000e+04 -4.978746e+02 0.0
3.530000e+04 -4.976780e+02 0.0
3.520000e+04 -4.974815e+02 0.0
3.510000e+04 -4.972856e+02 0.0
3.500000e+04 -4.970906e+02 0.0
3.490000e+04 -4.968967e+02 0.0
3.480000e+04 -4.967044e+02 0.0
3.470000e+04 -4.965141e+02 0.0
3.460000e+04 -4.963260e+02 0.0
3.450000e+04 -4.961406e+02 0.0
3.470000e+04 2.333559e+02 0.0
3.475000e+04 3.650047e+02 0.0
3.465000e+04 3.648656e+02 0.0
3.440000e+04 -4.959581e+02 0.0
3.430000e+04 -4.957790e+02 0.0
3.460000e+04 2.332675e+02 0.0
3.420000e+04 -4.956036e+02 0.0
3.410000e+04 -4.954322e+02 0.0
3.400000e+04 -4.952652e+02 0.0
3.390000e+04 -4.951030e+02 0.0
3.380000e+04 -4.949459e+02 0.0
3.370000e+04 -4.947943e+02 0.0
3.360000e+04 -4.946484e+02 0.0
3.350000e+04 -4.945088e+02 0.0
3.340000e+04 -4.943757e+02 0.0
3.330000e+04 -4.942494e+02 0.0
3.320000e+04 -4.941304e+02 0.0
3.345000e+04 3.634116e+02 0.0
3.310000e+04 -4.940190e+02 0.0
3.300000e+04 -4.939155e+02 0.0
3.325000e+04 3.632261e+02 0.0
3.315000e+04 3.631413e+02 0.0
3.270000e+04 -4.936564e+02 0.0
3.260000e+04 -4.935882e+02 0.0
3.295000e+04 3.629893e+02 0.0
3.250000e+04 -4.935298e+02 0.0
3.240000e+04 -4.934814e+02 0.0
3.230000e+04 -4.934435e+02 0.0
3.220000e+04 -4.934163e+02 0.0
3.210000e+04 -4.934003e+02 0.0
3.200000e+04 -4.933958e+02 0.0
3.190000e+04 -4.934031e+02 0.0
3.215000e+04 3.626512e+02 0.0
3.180000e+04 -4.934226e+02 0.0
3.170000e+04 -4.934543e+02 0.0
3.195000e+04 3.626446e+02 0.0
3.160000e+04 -4.934978e+02 0.0
3.150000e+04 -4.935522e+02 0.0
3.185000e+04 3.626544e+02 0.0
3.140000e+04 -4.936169e+02 0.0
3.130000e+04 -4.936911e+02 0.0
3.120000e+04 -4.937743e+02 0.0
3.110000e+04 -4.938657e+02 0.0
3.100000e+04 -4.939646e+02 0.0
4.973166e+04 8.185268e+01 0.0
3.090000e+04 -4.940704e+02 0.0
4.973601e+04 2.311546e+02 0.0
3.080000e+04 -4.941822e+02 0.0
3.070000e+04 -4.942995e+02 0.0
4.945000e+04 -3.667097e+02 0.0
3.060000e+04 -4.944216e+02 0.0
4.935000e+04 -3.670546e+02 0.0
3.050000e+04 -4.945477e+02 0.0
3.075000e+04 3.632637e+02 0.0
4.925000e+04 -3.673750e+02 0.0
3.040000e+04 -4.946772e+02 0.0
3.030000e+04 -4.948094e+02 0.0
3.055000e+04 3.634430e+02 0.0
4.905000e+04 -3.679456e+02 0.0
3.020000e+04 -4.949435e+02 0.0
3.045000e+04 3.635370e+02 0.0
4.875000e+04 -3.686375e+02 0.0
4.865000e+04 -3.688275e+02 0.0
2.990000e+04 -4.953509e+02 0.0
4.855000e+04 -3.689984e+02 0.0
2.980000e+04 -4.954861e+02 0.0
3.015000e+04 3.638303e+02 0.0
4.845000e+04 -3.691511e+02 0.0
2.970000e+04 -4.956198e+02 0.0
4.835000e+04 -3.692862e+02 0.0
2.960000e+04 -4.957513e+02 0.0
4.825000e+04 -3.694047e+02 0.0
2.950000e+04 -4.958800e+02 0.0
4.815000e+04 -3.695072e+02 0.0
2.940000e+04 -4.960051e+02 0.0
4.805000e+04 -3.695945e+02 0.0
2.930000e+04 -4.961260e+02 0.0
4.795000e+04 -3.696674e+02 0.0
2.920000e+04 -4.962419e+02 0.0
2.945000e+04 3.645153e+02 0.0
2.910000e+04 -4.963523e+02 0.0
2.900000e+04 -4.964563e+02 0.0
2.925000e+04 3.646928e+02 0.0
4.755000e+04 -3.698305e+02 0.0
2.890000e+04 -4.965533e+02 0.0
4.745000e+04 -3.698429e+02 0.0
2.880000e+04 -4.966425e+02 0.0
4.735000e+04 -3.698456e+02 0.0
2.870000e+04 -4.967235e+02 0.0
2.905000e+04 3.648549e+02 0.0
4.725000e+04 -3.698393e+02 0.0
2.860000e+04 -4.967953e+02 0.0
4.715000e+04 -3.698247e+02 0.0
2.850000e+04 -4.968573e+02 0.0
4.705000e+04 -3.698027e+02 0.0
2.840000e+04 -4.969089e+02 0.0
4.695000e+04 -3.697740e+02 0.0
2.830000e+04 -4.969493e+02 0.0
4.675000e+04 -3.696997e+02 0.0
2.820000e+04 -4.969779e+02 0.0
2.810000e+04 -4.969939e+02 0.0
4.665000e+04 -3.696555e+02 0.0
2.800000e+04 -4.969967e+02 0.0
2.790000e+04 -4.969856e+02 0.0
2.815000e+04 3.652829e+02 0.0
2.780000e+04 -4.969598e+02 0.0
4.625000e+04 -3.694507e+02 0.0
2.770000e+04 -4.969188e+02 0.0
2.795000e+04 3.652869e+02 0.0
4.605000e+04 -3.693422e+02 0.0
2.760000e+04 -4.968617e+02 0.0
2.785000e+04 3.652734e+02 0.0
4.595000e+04 -3.692891e+02 0.0
2.750000e+04 -4.967880e+02 0.0
2.740000e+04 -4.966969e+02 0.0
4.585000e+04 -3.692378e+02 0.0
4.575000e+04 -3.691890e+02 0.0
4.565000e+04 -3.691436e+02 0.0
2.710000e+04 -4.963136e+02 0.0
4.555000e+04 -3.691024e+02 0.0
2.700000e+04 -4.961499e+02 0.0
2.735000e+04 3.650309e+02 0.0
4.545000e+04 -3.690660e+02 0.0
2.690000e+04 -4.959697e+02 0.0
4.535000e+04 -3.690351e+02 0.0
2.680000e+04 -4.957737e+02 0.0
2.670000e+04 -4.955628e+02 0.0
2.660000e+04 -4.953379e+02 0.0
4.495000e+04 -3.689637e+02 0.0
2.650000e+04 -4.950999e+02 0.0
2.675000e+04 3.643146e+02 0.0
4.485000e+04 -3.689579e+02 0.0
2.640000e+04 -4.948496e+02 0.0
4.475000e+04 -3.689564e+02 0.0
2.630000e+04 -4.945879e+02 0.0
2.655000e+04 3.639842e+02 0.0
4.465000e+04 -3.689592e+02 0.0
2.620000e+04 -4.943157e+02 0.0
2.645000e+04 3.638047e+02 0.0
4.455000e+04 -3.689659e+02 0.0
2.610000e+04 -4.940337e+02 0.0
4.445000e+04 -3.689764e+02 0.0
2.600000e+04 -4.937429e+02 0.0
2.635000e+04 3.636165e+02 0.0
4.435000e+04 -3.689906e+02 0.0
2.590000e+04 -4.934442e+02 0.0
2.625000e+04 3.634201e+02 0.0
4.415000e+04 -3.690287e+02 0.0
2.580000e+04 -4.931383e+02 0.0
2.570000e+04 -4.928262e+02 0.0
4.405000e+04 -3.690524e+02 0.0
2.560000e+04 -4.925088e+02 0.0
2.550000e+04 -4.921868e+02 0.0
2.540000e+04 -4.918612e+02 0.0
4.365000e+04 -3.691727e+02 0.0
2.530000e+04 -4.915329e+02 0.0
4.355000e+04 -3.692082e+02 0.0
2.520000e+04 -4.912026e+02 0.0
4.345000e+04 -3.692454e+02 0.0
2.510000e+04 -4.908712e+02 0.0
2.535000e+04 3.613947e+02 0.0
4.335000e+04 -3.692842e+02 0.0
2.500000e+04 -4.905397e+02 0.0
4.325000e+04 -3.693243e+02 0.0
2.490000e+04 -4.902088e+02 0.0
2.515000e+04 3.609093e+02 0.0
4.305000e+04 -3.694078e+02 0.0
2.480000e+04 -4.898795e+02 0.0
2.505000e+04 3.606657e+02 0.0
4.295000e+04 -3.694507e+02 0.0
2.470000e+04 -4.895526e+02 0.0
2.460000e+04 -4.892290e+02 0.0
4.285000e+04 -3.694942e+02 0.0
4.275000e+04 -3.695380e+02 0.0
2.430000e+04 -4.882863e+02 0.0
2.420000e+04 -4.879843e+02 0.0
2.455000e+04 3.594626e+02 0.0
4.235000e+04 -3.697125e+02 0.0
2.410000e+04 -4.876900e+02 0.0
4.225000e+04 -3.697549e+02 0.0
2.400000e+04 -4.874041e+02 0.0
4.215000e+04 -3.697964e+02 0.0
2.390000e+04 -4.871275e+02 0.0
4.205000e+04 -3.698368e+02 0.0
2.380000e+04 -4.868611e+02 0.0
2.405000e+04 3.583434e+02 0.0
4.195000e+04 -3.698759e+02 0.0
2.370000e+04 -4.866057e+02 0.0
4.185000e+04 -3.699135e+02 0.0
2.360000e+04 -4.863622e+02 0.0
2.385000e+04 3.579370e+02 0.0
4.175000e+04 -3.699494e+02 0.0
2.350000e+04 -4.861315e+02 0.0
2.375000e+04 3.577452e+02 0.0
4.165000e+04 -3.699834e+02 0.0
2.340000e+04 -4.859145e+02 0.0
4.155000e+04 -3.700153e+02 0.0
2.330000e+04 -4.857119e+02 0.0
4.135000e+04 -3.700720e+02 0.0
2.320000e+04 -4.855247e+02 0.0
2.310000e+04 -4.853537e+02 0.0
2.345000e+04 3.572228e+02 0.0
4.125000e+04 -3.700963e+02 0.0
2.300000e+04 -4.851998e+02 0.0
2.335000e+04 3.570685e+02 0.0
4.105000e+04 -3.701360e+02 0.0
2.290000e+04 -4.850639e+02 0.0
4.095000e+04 -3.701509e+02 0.0
2.280000e+04 -4.849467e+02 0.0
4.085000e+04 -3.701623e+02 0.0
2.270000e+04 -4.848493e+02 0.0
4.075000e+04 -3.701701e+02 0.0
2.260000e+04 -4.847718e+02 0.0
4.065000e+04 -3.701743e+02 0.0
2.250000e+04 -4.847136e+02 0.0
4.055000e+04 -3.701750e+02 0.0
2.240000e+04 -4.846740e+02 0.0
2.265000e+04 3.563311e+02 0.0
4.045000e+04 -3.701721e+02 0.0
2.230000e+04 -4.846520e+02 0.0
4.025000e+04 -3.701557e+02 0.0
2.220000e+04 -4.846471e+02 0.0
2.245000e+04 3.562455e+02 0.0
4.015000e+04 -3.701423e+02 0.0
2.210000e+04 -4.846582e+02 0.0
2.235000e+04 3.562229e+02 0.0
2.200000e+04 -4.846847e+02 0.0
2.190000e+04 -4.847258e+02 0.0
3.975000e+04 -3.700544e+02 0.0
3.965000e+04 -3.700239e+02 0.0
2.160000e+04 -4.849286e+02 0.0
3.955000e+04 -3.699900e+02 0.0
2.150000e+04 -4.850200e+02 0.0
2.185000e+04 3.562896e+02 0.0
3.945000e+04 -3.699529e+02 0.0
2.140000e+04 -4.851221e+02 0.0
3.935000e+04 -3.699124e+02 0.0
2.130000e+04 -4.852341e+02 0.0
3.925000e+04 -3.698686e+02 0.0
2.120000e+04 -4.853550e+02 0.0
3.915000e+04 -3.698216e+02 0.0
2.110000e+04 -4.854843e+02 0.0
3.905000e+04 -3.697713e+02 0.0
2.100000e+04 -4.856210e+02 0.0
2.125000e+04 3.566879e+02 0.0
3.895000e+04 -3.697178e+02 0.0
2.090000e+04 -4.857643e+02 0.0
3.865000e+04 3.695381e+02 0.0
3.885000e+04 -3.696611e+02 0.0
2.080000e+04 -4.859136e+02 0.0
2.105000e+04 3.568777e+02 0.0
2.070000e+04 -4.860680e+02 0.0
2.095000e+04 3.569807e+02 0.0
2.060000e+04 -4.862266e+02 0.0
3.845000e+04 -3.694026e+02 0.0
2.050000e+04 -4.863888e+02 0.0
3.835000e+04 -3.693301e+02 0.0
2.040000e+04 -4.865538e+02 0.0
3.825000e+04 -3.692546e+02 0.0
2.030000e+04 -4.867207e+02 0.0
3.815000e+04 -3.691761e+02 0.0
2.020000e+04 -4.868887e+02 0.0
2.055000e+04 3.574331e+02 0.0
3.805000e+04 -3.690945e+02 0.0
2.010000e+04 -4.870571e+02 0.0
2.045000e+04 3.575534e+02 0.0
3.795000e+04 -3.690098e+02 0.0
2.000000e+04 -4.872251e+02 0.0
3.785000e+04 -3.689222e+02 0.0
1.990000e+04 -4.873919e+02 0.0
3.775000e+04 -3.688317e+02 0.0
1.980000e+04 -4.875566e+02 0.0
3.765000e+04 -3.687381e+02 0.0
1.970000e+04 -4.877186e+02 0.0
1.995000e+04 3.581691e+02 0.0
3.745000e+04 -3.685423e+02 0.0
1.960000e+04 -4.878770e+02 0.0
1.950000e+04 -4.880311e+02 0.0
1.975000e+04 3.584111e+02 0.0
3.735000e+04 -3.684400e+02 0.0
1.940000e+04 -4.881800e+02 0.0
1.965000e+04 3.585290e+02 0.0
3.715000e+04 -3.682269e+02 0.0
1.930000e+04 -4.883229e+02 0.0
3.705000e+04 -3.681162e+02 0.0
1.920000e+04 -4.884591e+02 0.0
3.695000e+04 -3.680026e+02 0.0
1.910000e+04 -4.885878e+02 0.0
3.685000e+04 -3.678862e+02 0.0
3.675000e+04 -3.677670e+02 0.0
3.665000e+04 -3.676452e+02 0.0
1.880000e+04 -4.889208e+02 0.0
3.655000e+04 -3.675206e+02 0.0
1.870000e+04 -4.890115e+02 0.0
1.905000e+04 3.591543e+02 0.0
3.645000e+04 -3.673933e+02 0.0
1.860000e+04 -4.890908e+02 0.0
3.635000e+04 -3.672633e+02 0.0
1.850000e+04 -4.891578e+02 0.0
3.625000e+04 -3.671308e+02 0.0
1.840000e+04 -4.892117e+02 0.0
1.830000e+04 -4.892518e+02 0.0
1.855000e+04 3.595047e+02 0.0
1.820000e+04 -4.892773e+02 0.0
3.575000e+04 -3.664377e+02 0.0
1.810000e+04 -4.892875e+02 0.0
1.835000e+04 3.595838e+02 0.0
1.800000e+04 -4.892825e+02 0.0
1.825000e+04 3.596080e+02 0.0
3.565000e+04 -3.662949e+02 0.0
1.790000e+04 -4.892628e+02 0.0
3.555000e+04 -3.661513e+02 0.0
1.780000e+04 -4.892288e+02 0.0
3.545000e+04 -3.660071e+02 0.0
1.770000e+04 -4.891810e+02 0.0
3.535000e+04 -3.658627e+02 0.0
1.760000e+04 -4.891199e+02 0.0
3.525000e+04 -3.657182e+02 0.0
1.750000e+04 -4.890459e+02 0.0
3.515000e+04 -3.655740e+02 0.0
1.740000e+04 -4.889596e+02 0.0
1.775000e+04 3.595640e+02 0.0
3.505000e+04 -3.654303e+02 0.0
1.730000e+04 -4.888612e+02 0.0
1.765000e+04 3.595240e+02 0.0
3.495000e+04 -3.652873e+02 0.0
1.720000e+04 -4.887514e+02 0.0
3.485000e+04 -3.651454e+02 0.0
1.710000e+04 -4.886305e+02 0.0
1.700000e+04 -4.884991e+02 0.0
3.465000e+04 -3.648656e+02 0.0
1.690000e+04 -4.883576e+02 0.0
1.715000e+04 3.591860e+02 0.0
3.445000e+04 -3.645931e+02 0.0
1.680000e+04 -4.882064e+02 0.0
3.435000e+04 -3.644602e+02 0.0
1.670000e+04 -4.880460e+02 0.0
1.695000e+04 3.589929e+02 0.0
3.425000e+04 -3.643299e+02 0.0
1.660000e+04 -4.878769e+02 0.0
1.685000e+04 3.588853e+02 0.0
3.415000e+04 -3.642024e+02 0.0
1.650000e+04 -4.876996e+02 0.0
3.405000e+04 -3.640780e+02 0.0
1.640000e+04 -4.875144e+02 0.0
3.395000e+04 -3.639570e+02 0.0
1.630000e+04 -4.873219e+02 0.0
3.385000e+04 -3.638396e+02 0.0
1.620000e+04 -4.871225e+02 0.0
3.375000e+04 -3.637261e+02 0.0
3.365000e+04 -3.636168e+02 0.0
3.355000e+04 -3.635118e+02 0.0
1.590000e+04 -4.864877e+02 0.0
1.580000e+04 -4.862654e+02 0.0
1.615000e+04 3.579572e+02 0.0
1.570000e+04 -4.860385e+02 0.0
3.315000e+04 -3.631413e+02 0.0
1.560000e+04 -4.858075e+02 0.0
3.305000e+04 -3.630623e+02 0.0
1.550000e+04 -4.855729e+02 0.0
1.575000e+04 3.573193e+02 0.0
3.285000e+04 -3.629225e+02 0.0
1.540000e+04 -4.853351e+02 0.0
1.530000e+04 -4.850945e+02 0.0
1.555000e+04 3.569798e+02 0.0
3.275000e+04 -3.628622e+02 0.0
1.520000e+04 -4.848517e+02 0.0
1.545000e+04 3.568061e+02 0.0
3.265000e+04 -3.628086e+02 0.0
1.510000e+04 -4.846070e+02 0.0
3.255000e+04 -3.627621e+02 0.0
1.500000e+04 -4.843610e+02 0.0
3.245000e+04 -3.627228e+02 0.0
1.490000e+04 -4.841142e+02 0.0
3.235000e+04 -3.626911e+02 0.0
1.480000e+04 -4.838669e+02 0.0
3.225000e+04 -3.626671e+02 0.0
1.470000e+04 -4.836196e+02 0.0
1.460000e+04 -4.833728e+02 0.0
1.495000e+04 3.559119e+02 0.0
3.205000e+04 -3.626436e+02 0.0
1.450000e+04 -4.831270e+02 0.0
1.485000e+04 3.557302e+02 0.0
3.175000e+04 -3.626733e+02 0.0
1.440000e+04 -4.828826e+02 0.0
1.430000e+04 -4.826401e+02 0.0
3.165000e+04 -3.627010e+02 0.0
1.420000e+04 -4.823999e+02 0.0
3.155000e+04 -3.627370e+02 0.0
1.410000e+04 -4.821625e+02 0.0
1.435000e+04 3.548266e+02 0.0
3.145000e+04 -3.627808e+02 0.0
1.400000e+04 -4.819284e+02 0.0
3.135000e+04 -3.628320e+02 0.0
1.390000e+04 -4.816980e+02 0.0
1.415000e+04 3.544736e+02 0.0
3.125000e+04 -3.628899e+02 0.0
1.380000e+04 -4.814717e+02 0.0
1.405000e+04 3.543003e+02 0.0
3.115000e+04 -3.629541e+02 0.0
1.370000e+04 -4.812502e+02 0.0
3.105000e+04 -3.630241e+02 0.0
1.360000e+04 -4.810337e+02 0.0
3.095000e+04 -3.630994e+02 0.0
1.350000e+04 -4.808226e+02 0.0
3.085000e+04 -3.631794e+02 0.0
1.340000e+04 -4.806171e+02 0.0
3.045000e+04 -3.635370e+02 0.0
1.310000e+04 -4.800343e+02 0.0
3.035000e+04 -3.636332e+02 0.0
1.300000e+04 -4.798516e+02 0.0
1.335000e+04 3.531768e+02 0.0
3.025000e+04 -3.637312e+02 0.0
1.290000e+04 -4.796748e+02 0.0
3.005000e+04 -3.639301e+02 0.0
1.280000e+04 -4.795040e+02 0.0
1.270000e+04 -4.793393e+02 0.0
2.995000e+04 -3.640302e+02 0.0
1.260000e+04 -4.791808e+02 0.0
1.285000e+04 3.524949e+02 0.0
2.985000e+04 -3.641299e+02 0.0
1.250000e+04 -4.790285e+02 0.0
2.975000e+04 -3.642287e+02 0.0
1.240000e+04 -4.788825e+02 0.0
1.265000e+04 3.522528e+02 0.0
2.965000e+04 -3.643263e+02 0.0
1.230000e+04 -4.787429e+02 0.0
1.255000e+04 3.521386e+02 0.0
2.955000e+04 -3.644219e+02 0.0
1.220000e+04 -4.786099e+02 0.0
1.210000e+04 -4.784833e+02 0.0
1.200000e+04 -4.783635e+02 0.0
2.905000e+04 -3.648549e+02 0.0
1.190000e+04 -4.782503e+02 0.0
2.895000e+04 -3.649288e+02 0.0
1.180000e+04 -4.781440e+02 0.0
1.215000e+04 3.517284e+02 0.0
1.170000e+04 -4.780445e+02 0.0
1.205000e+04 3.516378e+02 0.0
2.885000e+04 -3.649973e+02 0.0
1.160000e+04 -4.779521e+02 0.0
2.875000e+04 -3.650599e+02 0.0
1.150000e+04 -4.778667e+02 0.0
2.865000e+04 -3.651161e+02 0.0
1.140000e+04 -4.777884e+02 0.0
2.855000e+04 -3.651654e+02 0.0
1.130000e+04 -4.777173e+02 0.0
2.845000e+04 -3.652072e+02 0.0
1.120000e+04 -4.776536e+02 0.0
1.145000e+04 3.511998e+02 0.0
2.835000e+04 -3.652411e+02 0.0
1.110000e+04 -4.775972e+02 0.0
2.825000e+04 -3.652665e+02 0.0
1.100000e+04 -4.775483e+02 0.0
1.125000e+04 3.510954e+02 0.0
1.090000e+04 -4.775069e+02 0.0
1.115000e+04 3.510512e+02 0.0
1.080000e+04 -4.774732e+02 0.0
2.785000e+04 -3.652734e+02 0.0
1.070000e+04 -4.774471e+02 0.0
2.775000e+04 -3.652490e+02 0.0
1.060000e+04 -4.774289e+02 0.0
2.765000e+04 -3.652130e+02 0.0
2.755000e+04 -3.651650e+02 0.0
2.745000e+04 -3.651044e+02 0.0
1.030000e+04 -4.774217e+02 0.0
2.725000e+04 -3.649438e+02 0.0
1.020000e+04 -4.774354e+02 0.0
1.010000e+04 -4.774573e+02 0.0
1.045000e+04 3.508982e+02 0.0
2.715000e+04 -3.648430e+02 0.0
1.000000e+04 -4.774874e+02 0.0
1.035000e+04 3.508994e+02 0.0
2.705000e+04 -3.647290e+02 0.0
9.900000e+03 -4.775260e+02 0.0
2.695000e+04 -3.646026e+02 0.0
9.800000e+03 -4.775730e+02 0.0
1.005000e+04 3.509387e+02 0.0
2.685000e+04 -3.644642e+02 0.0
9.700000e+03 -4.776284e+02 0.0
9.600000e+03 -4.776925e+02 0.0
9.850000e+03 3.509953e+02 0.0
9.500000e+03 -4.777653e+02 0.0
9.750000e+03 3.510330e+02 0.0
2.645000e+04 -3.638047e+02 0.0
9.400000e+03 -4.778469e+02 0.0
2.625000e+04 -3.634201e+02 0.0
9.300000e+03 -4.779372e+02 0.0
2.615000e+04 -3.632164e+02 0.0
9.200000e+03 -4.780366e+02 0.0
9.100000e+03 -4.781449e+02 0.0
2.605000e+04 -3.630058e+02 0.0
9.000000e+03 -4.782622e+02 0.0
2.595000e+04 -3.627891e+02 0.0
8.900000e+03 -4.783885e+02 0.0
9.250000e+03 3.513168e+02 0.0
2.585000e+04 -3.625668e+02 0.0
8.800000e+03 -4.785233e+02 0.0
9.150000e+03 3.513931e+02 0.0
2.575000e+04 -3.623397e+02 0.0
8.700000e+03 -4.786665e+02 0.0
2.565000e+04 -3.621082e+02 0.0
8.600000e+03 -4.788177e+02 0.0
2.555000e+04 -3.618732e+02 0.0
8.500000e+03 -4.789768e+02 0.0
2.545000e+04 -3.616351e+02 0.0
8.400000e+03 -4.791434e+02 0.0
8.650000e+03 3.518719e+02 0.0
8.300000e+03 -4.793173e+02 0.0
8.200000e+03 -4.794982e+02 0.0
8.450000e+03 3.521057e+02 0.0
2.505000e+04 -3.606657e+02 0.0
8.100000e+03 -4.796860e+02 0.0
8.350000e+03 3.522309e+02 0.0
2.495000e+04 -3.604222e+02 0.0
8.000000e+03 -4.798802e+02 0.0
2.485000e+04 -3.601795e+02 0.0
7.900000e+03 -4.800807e+02 0.0
2.475000e+04 -3.599382e+02 0.0
7.800000e+03 -4.802872e+02 0.0
2.465000e+04 -3.596991e+02 0.0
2.445000e+04 -3.592295e+02 0.0
7.500000e+03 -4.809401e+02 0.0
2.435000e+04 -3.590004e+02 0.0
7.400000e+03 -4.811680e+02 0.0
7.750000e+03 3.530858e+02 0.0
2.425000e+04 -3.587760e+02 0.0
7.300000e+03 -4.814006e+02 0.0
2.415000e+04 -3.585568e+02 0.0
7.200000e+03 -4.816376e+02 0.0
7.100000e+03 -4.818788e+02 0.0
7.000000e+03 -4.821239e+02 0.0
2.375000e+04 -3.577452e+02 0.0
6.900000e+03 -4.823726e+02 0.0
7.150000e+03 3.540891e+02 0.0
2.365000e+04 -3.575618e+02 0.0
6.800000e+03 -4.826248e+02 0.0
2.355000e+04 -3.573874e+02 0.0
6.700000e+03 -4.828801e+02 0.0
6.950000e+03 3.544494e+02 0.0
2.335000e+04 -3.570685e+02 0.0
6.600000e+03 -4.831382e+02 0.0
6.850000e+03 3.546335e+02 0.0
2.325000e+04 -3.569252e+02 0.0
6.500000e+03 -4.833990e+02 0.0
6.400000e+03 -4.836621e+02 0.0
2.315000e+04 -3.567935e+02 0.0
6.300000e+03 -4.839273e+02 0.0
2.305000e+04 -3.566740e+02 0.0
6.200000e+03 -4.841943e+02 0.0
2.295000e+04 -3.565674e+02 0.0
6.100000e+03 -4.844630e+02 0.0
6.450000e+03 3.553919e+02 0.0
2.285000e+04 -3.564743e+02 0.0
6.000000e+03 -4.847329e+02 0.0
6.350000e+03 3.555861e+02 0.0
2.275000e+04 -3.563954e+02 0.0
5.900000e+03 -4.850038e+02 0.0
5.800000e+03 -4.852756e+02 0.0
5.700000e+03 -4.855479e+02 0.0
2.235000e+04 -3.562229e+02 0.0
5.600000e+03 -4.858205e+02 0.0
2.225000e+04 -3.562131e+02 0.0
5.500000e+03 -4.860930e+02 0.0
5.750000e+03 3.567748e+02 0.0
2.215000e+04 -3.562154e+02 0.0
5.400000e+03 -4.863654e+02 0.0
2.205000e+04 -3.562293e+02 0.0
5.300000e+03 -4.866372e+02 0.0
5.550000e+03 3.571754e+02 0.0
2.195000e+04 -3.562543e+02 0.0
5.200000e+03 -4.869082e+02 0.0
5.450000e+03 3.573757e+02 0.0
2.175000e+04 -3.563348e+02 0.0
5.100000e+03 -4.871782e+02 0.0
2.165000e+04 -3.563892e+02 0.0
2.155000e+04 -3.564523e+02 0.0
4.800000e+03 -4.879794e+02 0.0
2.145000e+04 -3.565235e+02 0.0
4.700000e+03 -4.882427e+02 0.0
5.050000e+03 3.581721e+02 0.0
2.135000e+04 -3.566022e+02 0.0
4.600000e+03 -4.885037e+02 0.0
4.500000e+03 -4.887620e+02 0.0
4.400000e+03 -4.890175e+02 0.0
2.095000e+04 -3.569807e+02 0.0
4.300000e+03 -4.892698e+02 0.0
2.085000e+04 -3.570883e+02 0.0
4.200000e+03 -4.895188e+02 0.0
2.075000e+04 -3.572000e+02 0.0
4.100000e+03 -4.897640e+02 0.0
2.065000e+04 -3.573151e+02 0.0
4.000000e+03 -4.900053e+02 0.0
4.250000e+03 3.597023e+02 0.0
2.045000e+04 -3.575534e+02 0.0
3.900000e+03 -4.902423e+02 0.0
2.035000e+04 -3.576754e+02 0.0
3.800000e+03 -4.904749e+02 0.0
4.050000e+03 3.600628e+02 0.0
3.700000e+03 -4.907026e+02 0.0
3.950000e+03 3.602386e+02 0.0
2.025000e+04 -3.577986e+02 0.0
2.015000e+04 -3.579223e+02 0.0
3.500000e+03 -4.911426e+02 0.0
2.005000e+04 -3.580460e+02 0.0
3.300000e+03 -4.915601e+02 0.0
3.650000e+03 3.607459e+02 0.0
3.200000e+03 -4.917598e+02 0.0
1.965000e+04 -3.585290e+02 0.0
3.100000e+03 -4.919529e+02 0.0
1.955000e+04 -3.586439e+02 0.0
3.000000e+03 -4.921394e+02 0.0
3.350000e+03 3.612188e+02 0.0
1.945000e+04 -3.587553e+02 0.0
2.900000e+03 -4.923189e+02 0.0
1.935000e+04 -3.588626e+02 0.0
2.800000e+03 -4.924911e+02 0.0
1.925000e+04 -3.589652e+02 0.0
2.700000e+03 -4.926557e+02 0.0
1.915000e+04 -3.590627e+02 0.0
2.600000e+03 -4.928125e+02 0.0
1.895000e+04 -3.592395e+02 0.0
2.500000e+03 -4.929613e+02 0.0
2.750000e+03 3.620393e+02 0.0
2.400000e+03 -4.931016e+02 0.0
1.885000e+04 -3.593177e+02 0.0
2.300000e+03 -4.932333e+02 0.0
2.550000e+03 3.622698e+02 0.0
1.875000e+04 -3.593883e+02 0.0
2.200000e+03 -4.933560e+02 0.0
2.450000e+03 3.623760e+02 0.0
1.865000e+04 -3.594509e+02 0.0
1.900000e+03 -4.936680e+02 0.0
1.825000e+04 -3.596080e+02 0.0
1.800000e+03 -4.937523e+02 0.0
2.150000e+03 3.626564e+02 0.0
1.815000e+04 -3.596211e+02 0.0
1.700000e+03 -4.938262e+02 0.0
1.805000e+04 -3.596230e+02 0.0
1.600000e+03 -4.938896e+02 0.0
1.795000e+04 -3.596139e+02 0.0
1.500000e+03 -4.939422e+02 0.0
1.785000e+04 -3.595941e+02 0.0
1.400000e+03 -4.939836e+02 0.0
1.765000e+04 -3.595240e+02 0.0
1.300000e+03 -4.940135e+02 0.0
1.755000e+04 -3.594743e+02 0.0
1.200000e+03 -4.940318e+02 0.0
1.100000e+03 -4.940382e+02 0.0
1.745000e+04 -3.594153e+02 0.0
1.000000e+03 -4.940322e+02 0.0
1.250000e+03 3.631049e+02 0.0
1.735000e+04 -3.593474e+02 0.0
9.000000e+02 -4.940138e+02 0.0
1.725000e+04 -3.592708e+02 0.0
8.000000e+02 -4.939826e+02 0.0
1.050000e+03 3.631142e+02 0.0
7.000000e+02 -4.939383e+02 0.0
9.500000e+02 3.631052e+02 0.0
6.000000e+02 -4.938807e+02 0.0
1.685000e+04 -3.588853e+02 0.0
5.000000e+02 -4.938095e+02 0.0
8.500000e+02 3.630870e+02 0.0
1.675000e+04 -3.587708e+02 0.0
4.000000e+02 -4.937243e+02 0.0
7.500000e+02 3.630593e+02 0.0
1.665000e+04 -3.586496e+02 0.0
3.000000e+02 -4.936250e+02 0.0
1.655000e+04 -3.585223e+02 0.0
2.000000e+02 -4.935113e+02 0.0
1.645000e+04 -3.583890e+02 0.0
1.000000e+02 -4.933828e+02 0.0
1.635000e+04 -3.582502e+02 0.0
-1.455192e-11 -4.932393e+02 0.0
1.625000e+04 -3.581061e+02 0.0
-1.000000e+02 -4.930808e+02 0.0
1.605000e+04 -3.578037e+02 0.0
-2.000000e+02 -4.929079e+02 0.0
-3.000000e+02 -4.927215e+02 0.0
1.595000e+04 -3.576460e+02 0.0
-4.000000e+02 -4.925225e+02 0.0
-1.500000e+02 3.623493e+02 0.0
1.585000e+04 -3.574844e+02 0.0
-5.000000e+02 -4.923120e+02 0.0
-6.000000e+02 -4.920906e+02 0.0
-3.500000e+02 3.620754e+02 0.0
-4.500000e+02 3.619249e+02 0.0
1.545000e+04 -3.568061e+02 0.0
1.535000e+04 -3.566303e+02 0.0
-9.000000e+02 -4.913712e+02 0.0
1.525000e+04 -3.564526e+02 0.0
-1.000000e+03 -4.911160e+02 0.0
-6.500000e+02 3.615997e+02 0.0
1.515000e+04 -3.562734e+02 0.0
-1.100000e+03 -4.908545e+02 0.0
1.505000e+04 -3.560931e+02 0.0
-1.200000e+03 -4.905877e+02 0.0
1.485000e+04 -3.557302e+02 0.0
-1.300000e+03 -4.903165e+02 0.0
1.475000e+04 -3.555484e+02 0.0
-1.400000e+03 -4.900418e+02 0.0
-1.500000e+03 -4.897645e+02 0.0
1.465000e+04 -3.553668e+02 0.0
-1.600000e+03 -4.894855e+02 0.0
1.455000e+04 -3.551858e+02 0.0
-1.700000e+03 -4.892058e+02 0.0
1.445000e+04 -3.550056e+02 0.0
-1.800000e+03 -4.889261e+02 0.0
-1.900000e+03 -4.886475e+02 0.0
-1.650000e+03 3.596662e+02 0.0
-2.000000e+03 -4.883708e+02 0.0
1.405000e+04 -3.543003e+02 0.0
-2.100000e+03 -4.880969e+02 0.0
-1.850000e+03 3.592553e+02 0.0
1.395000e+04 -3.541295e+02 0.0
-2.200000e+03 -4.878268e+02 0.0
1.385000e+04 -3.539617e+02 0.0
-2.300000e+03 -4.875614e+02 0.0
1.375000e+04 -3.537971e+02 0.0
-2.400000e+03 -4.873015e+02 0.0
-2.050000e+03 3.588488e+02 0.0
1.365000e+04 -3.536360e+02 0.0
-2.500000e+03 -4.870480e+02 0.0
1.355000e+04 -3.534789e+02 0.0
-2.600000e+03 -4.868019e+02 0.0
1.345000e+04 -3.533258e+02 0.0
-2.700000e+03 -4.865641e+02 0.0
1.325000e+04 -3.530319e+02 0.0
-2.800000e+03 -4.863355e+02 0.0
-2.900000e+03 -4.861169e+02 0.0
1.315000e+04 -3.528912e+02 0.0
-3.000000e+03 -4.859094e+02 0.0
1.305000e+04 -3.527548e+02 0.0
-3.100000e+03 -4.857137e+02 0.0
1.295000e+04 -3.526226e+02 0.0
-3.200000e+03 -4.855308e+02 0.0
-3.300000e+03 -4.853616e+02 0.0
1.255000e+04 -3.521386e+02 0.0
-3.500000e+03 -4.850680e+02 0.0
-3.250000e+03 3.567989e+02 0.0
1.245000e+04 -3.520289e+02 0.0
1.235000e+04 -3.519240e+02 0.0
-3.700000e+03 -4.848401e+02 0.0
-3.400000e+03 2.280417e+02 0.0
-3.300000e+03 2.281144e+02 0.0
-3.350000e+03 3.566798e+02 0.0
1.225000e+04 -3.518238e+02 0.0
-3.800000e+03 -4.847530e+02 0.0
1.205000e+04 -3.516378e+02 0.0
-3.900000e+03 -4.846851e+02 0.0
1.195000e+04 -3.515522e+02 0.0
-4.000000e+03 -4.846372e+02 0.0
-3.650000e+03 3.563917e+02 0.0
-4.100000e+03 -4.846103e+02 0.0
1.185000e+04 -3.514715e+02 0.0
-4.200000e+03 -4.846052e+02 0.0
1.175000e+04 -3.513959e+02 0.0
-4.300000e+03 -4.846228e+02 0.0
1.165000e+04 -3.513253e+02 0.0
-4.400000e+03 -4.846642e+02 0.0
1.155000e+04 -3.512600e+02 0.0
-4.500000e+03 -4.847301e+02 0.0
-4.600000e+03 -4.848214e+02 0.0
-4.700000e+03 -4.849380e+02 0.0
1.115000e+04 -3.510512e+02 0.0
-4.800000e+03 -4.850790e+02 0.0
1.105000e+04 -3.510125e+02 0.0
-4.900000e+03 -4.852432e+02 0.0
1.095000e+04 -3.509793e+02 0.0
-5.000000e+03 -4.854298e+02 0.0
-4.750000e+03 3.564763e+02 0.0
1.085000e+04 -3.509517e+02 0.0
-5.100000e+03 -4.856376e+02 0.0
1.075000e+04 -3.509297e+02 0.0
-5.200000e+03 -4.858657e+02 0.0
-4.950000e+03 3.567175e+02 0.0
1.065000e+04 -3.509134e+02 0.0
-5.300000e+03 -4.861130e+02 0.0
-5.050000e+03 3.568626e+02 0.0
1.055000e+04 -3.509029e+02 0.0
-5.400000e+03 -4.863786e+02 0.0
1.035000e+04 -3.508994e+02 0.0
-5.500000e+03 -4.866614e+02 0.0
1.025000e+04 -3.509064e+02 0.0
-5.600000e+03 -4.869603e+02 0.0
-5.700000e+03 -4.872745e+02 0.0
1.015000e+04 -3.509195e+02 0.0
-5.800000e+03 -4.876028e+02 0.0
-5.900000e+03 -4.879443e+02 0.0
-6.000000e+03 -4.882980e+02 0.0
9.750000e+03 -3.510330e+02 0.0
-6.100000e+03 -4.886628e+02 0.0
9.650000e+03 -3.510769e+02 0.0
-6.200000e+03 -4.890377e+02 0.0
9.550000e+03 -3.511272e+02 0.0
9.450000e+03 -3.511839e+02 0.0
9.350000e+03 -3.512471e+02 0.0
-6.500000e+03 -4.902129e+02 0.0
-6.300000e+03 2.300225e+02 0.0
-6.250000e+03 3.595802e+02 0.0
-6.350000e+03 3.598655e+02 0.0
9.150000e+03 -3.513931e+02 0.0
-6.600000e+03 -4.906181e+02 0.0
9.050000e+03 -3.514760e+02 0.0
-6.700000e+03 -4.910284e+02 0.0
-6.400000e+03 2.302068e+02 0.0
-6.800000e+03 -4.914426e+02 0.0
8.950000e+03 -3.515656e+02 0.0
-6.900000e+03 -4.918599e+02 0.0
8.850000e+03 -3.516615e+02 0.0
-7.000000e+03 -4.922792e+02 0.0
8.750000e+03 -3.517637e+02 0.0
-7.100000e+03 -4.926995e+02 0.0
-7.200000e+03 -4.931198e+02 0.0
-7.300000e+03 -4.935390e+02 0.0
8.350000e+03 -3.522309e+02 0.0
-7.400000e+03 -4.939561e+02 0.0
8.250000e+03 -3.523613e+02 0.0
-7.500000e+03 -4.943702e+02 0.0
8.150000e+03 -3.524968e+02 0.0
-7.600000e+03 -4.947802e+02 0.0
8.050000e+03 -3.526372e+02 0.0
-7.700000e+03 -4.951851e+02 0.0
7.950000e+03 -3.527823e+02 0.0
-7.800000e+03 -4.955839e+02 0.0
7.850000e+03 -3.529319e+02 0.0
-7.900000e+03 -4.959755e+02 0.0
-7.550000e+03 3.635103e+02 0.0
7.650000e+03 -3.532438e+02 0.0
-8.000000e+03 -4.963590e+02 0.0
-7.650000e+03 3.638099e+02 0.0
-8.100000e+03 -4.967333e+02 0.0
-7.850000e+03 3.643959e+02 0.0
7.550000e+03 -3.534058e+02 0.0
-8.200000e+03 -4.970975e+02 0.0
7.450000e+03 -3.535715e+02 0.0
-8.300000e+03 -4.974504e+02 0.0
-8.050000e+03 3.649594e+02 0.0
7.350000e+03 -3.537407e+02 0.0
-8.400000e+03 -4.977912e+02 0.0
-8.150000e+03 3.652309e+02 0.0
7.250000e+03 -3.539133e+02 0.0
-8.500000e+03 -4.981187e+02 0.0
-8.600000e+03 -4.984321e+02 0.0
-8.700000e+03 -4.987301e+02 0.0
6.850000e+03 -3.546335e+02 0.0
-8.800000e+03 -4.990119e+02 0.0
6.750000e+03 -3.548200e+02 0.0
-8.900000e+03 -4.992764e+02 0.0
6.650000e+03 -3.550087e+02 0.0
-9.000000e+03 -4.995227e+02 0.0
6.550000e+03 -3.551994e+02 0.0
6.350000e+03 -3.555861e+02 0.0
6.250000e+03 -3.557817e+02 0.0
-9.300000e+03 -5.001439e+02 0.0
-9.400000e+03 -5.003123e+02 0.0
-9.050000e+03 3.672315e+02 0.0
6.150000e+03 -3.559786e+02 0.0
-9.500000e+03 -5.004624e+02 0.0
6.050000e+03 -3.561766e+02 0.0
-9.600000e+03 -5.005946e+02 0.0
-9.350000e+03 3.676665e+02 0.0
5.950000e+03 -3.563754e+02 0.0
-9.700000e+03 -5.007096e+02 0.0
5.850000e+03 -3.565748e+02 0.0
-9.800000e+03 -5.008080e+02 0.0
-9.550000e+03 3.678871e+02 0.0
-9.900000e+03 -5.008905e+02 0.0
-9.650000e+03 3.679779e+02 0.0
-1.000000e+04 -5.009575e+02 0.0
5.450000e+03 -3.573757e+02 0.0
-1.010000e+04 -5.010097e+02 0.0
5.350000e+03 -3.575757e+02 0.0
-1.020000e+04 -5.010477e+02 0.0
5.250000e+03 -3.577752e+02 0.0
-1.030000e+04 -5.010721e+02 0.0
5.150000e+03 -3.579740e+02 0.0
4.950000e+03 -3.583690e+02 0.0
-1.060000e+04 -5.010695e+02 0.0
4.850000e+03 -3.585647e+02 0.0
-1.070000e+04 -5.010454e+02 0.0
-1.035000e+04 3.682904e+02 0.0
4.750000e+03 -3.587590e+02 0.0
-1.080000e+04 -5.010106e+02 0.0
-1.045000e+04 3.682942e+02 0.0
4.650000e+03 -3.589517e+02 0.0
-1.090000e+04 -5.009658e+02 0.0
4.550000e+03 -3.591426e+02 0.0
-1.100000e+04 -5.009116e+02 0.0
4.450000e+03 -3.593314e+02 0.0
-1.110000e+04 -5.008485e+02 0.0
4.350000e+03 -3.595181e+02 0.0
-1.120000e+04 -5.007771e+02 0.0
-1.095000e+04 3.681879e+02 0.0
-1.130000e+04 -5.006981e+02 0.0
-1.140000e+04 -5.006120e+02 0.0
-1.115000e+04 3.680952e+02 0.0
3.950000e+03 -3.602386e+02 0.0
-1.150000e+04 -5.005195e+02 0.0
-1.125000e+04 3.680399e+02 0.0
3.850000e+03 -3.604112e+02 0.0
-1.160000e+04 -5.004211e+02 0.0
3.750000e+03 -3.605803e+02 0.0
-1.170000e+04 -5.003174e+02 0.0
3.550000e+03 -3.609076e+02 0.0
-1.180000e+04 -5.002091e+02 0.0
-1.190000e+04 -5.000967e+02 0.0
3.450000e+03 -3.610653e+02 0.0
3.250000e+03 -3.613678e+02 0.0
-1.220000e+04 -4.997409e+02 0.0
3.150000e+03 -3.615122e+02 0.0
-1.230000e+04 -4.996181e+02 0.0
-1.195000e+04 3.675259e+02 0.0
3.050000e+03 -3.616517e+02 0.0
-1.240000e+04 -4.994942e+02 0.0
2.950000e+03 -3.617862e+02 0.0
-1.250000e+04 -4.993698e+02 0.0
2.850000e+03 -3.619155e+02 0.0
-1.260000e+04 -4.992455e+02 0.0
-1.270000e+04 -4.991219e+02 0.0
-1.280000e+04 -4.989996e+02 0.0
-1.255000e+04 3.669882e+02 0.0
2.450000e+03 -3.623760e+02 0.0
-1.290000e+04 -4.988791e+02 0.0
2.350000e+03 -3.624760e+02 0.0
-1.300000e+04 -4.987612e+02 0.0
-1.275000e+04 3.668066e+02 0.0
2.250000e+03 -3.625696e+02 0.0
-1.310000e+04 -4.986463e+02 0.0
-1.285000e+04 3.667173e+02 0.0
2.050000e+03 -3.627364e+02 0.0
-1.320000e+04 -4.985350e+02 0.0
-1.330000e+04 -4.984281e+02 0.0
1.950000e+03 -3.628094e+02 0.0
-1.340000e+04 -4.983260e+02 0.0
1.850000e+03 -3.628750e+02 0.0
-1.350000e+04 -4.982293e+02 0.0
-1.315000e+04 3.664609e+02 0.0
1.750000e+03 -3.629332e+02 0.0
-1.360000e+04 -4.981388e+02 0.0
-1.325000e+04 3.663807e+02 0.0
1.650000e+03 -3.629837e+02 0.0
-1.370000e+04 -4.980548e+02 0.0
1.550000e+03 -3.630263e+02 0.0
-1.380000e+04 -4.979775e+02 0.0
1.450000e+03 -3.630609e+02 0.0
-1.390000e+04 -4.979067e+02 0.0
1.350000e+03 -3.630871e+02 0.0
-1.400000e+04 -4.978422e+02 0.0
-1.410000e+04 -4.977836e+02 0.0
-1.420000e+04 -4.977308e+02 0.0
9.500000e+02 -3.631052e+02 0.0
-1.430000e+04 -4.976836e+02 0.0
7.500000e+02 -3.630593e+02 0.0
-1.440000e+04 -4.976416e+02 0.0
-1.415000e+04 3.658482e+02 0.0
6.500000e+02 -3.630219e+02 0.0
-1.450000e+04 -4.976047e+02 0.0
-1.460000e+04 -4.975725e+02 0.0
-1.435000e+04 3.657786e+02 0.0
5.500000e+02 -3.629745e+02 0.0
-1.470000e+04 -4.975450e+02 0.0
-1.445000e+04 3.657497e+02 0.0
4.500000e+02 -3.629171e+02 0.0
3.500000e+02 -3.628493e+02 0.0
2.500000e+02 -3.627711e+02 0.0
-1.500000e+04 -4.974875e+02 0.0
1.500000e+02 -3.626821e+02 0.0
-1.510000e+04 -4.974758e+02 0.0
-1.475000e+04 3.656838e+02 0.0
5.000000e+01 -3.625822e+02 0.0
-1.520000e+04 -4.974676e+02 0.0
-5.000000e+01 -3.624711e+02 0.0
-1.530000e+04 -4.974625e+02 0.0
-1.540000e+04 -4.974603e+02 0.0
-1.550000e+04 -4.974608e+02 0.0
-4.500000e+02 -3.619249e+02 0.0
-1.560000e+04 -4.974638e+02 0.0
-5.500000e+02 -3.617661e+02 0.0
-1.570000e+04 -4.974689e+02 0.0
-7.500000e+02 -3.614264e+02 0.0
-1.580000e+04 -4.974760e+02 0.0
-1.590000e+04 -4.974848e+02 0.0
-8.500000e+02 -3.612469e+02 0.0
-1.600000e+04 -4.974951e+02 0.0
-1.575000e+04 3.656392e+02 0.0
-9.500000e+02 -3.610618e+02 0.0
-1.610000e+04 -4.975066e+02 0.0
-1.050000e+03 -3.608718e+02 0.0
-1.620000e+04 -4.975192e+02 0.0
-1.595000e+04 3.656521e+02 0.0
-1.150000e+03 -3.606776e+02 0.0
-1.630000e+04 -4.975325e+02 0.0
-1.250000e+03 -3.604798e+02 0.0
-1.640000e+04 -4.975463e+02 0.0
-1.605000e+04 3.656602e+02 0.0
-1.350000e+03 -3.602791e+02 0.0
-1.650000e+04 -4.975605e+02 0.0
-1.450000e+03 -3.600762e+02 0.0
-1.660000e+04 -4.975747e+02 0.0
-1.550000e+03 -3.598717e+02 0.0
-1.670000e+04 -4.975887e+02 0.0
-1.680000e+04 -4.976023e+02 0.0
-1.690000e+04 -4.976152e+02 0.0
-2.050000e+03 -3.588488e+02 0.0
-1.700000e+04 -4.976273e+02 0.0
-2.150000e+03 -3.586488e+02 0.0
-1.710000e+04 -4.976382e+02 0.0
-1.720000e+04 -4.976477e+02 0.0
-2.250000e+03 -3.584519e+02 0.0
-1.730000e+04 -4.976557e+02 0.0
-2.350000e+03 -3.582587e+02 0.0
-1.740000e+04 -4.976618e+02 0.0
-2.450000e+03 -3.580700e+02 0.0
-1.750000e+04 -4.976658e+02 0.0
-2.550000e+03 -3.578863e+02 0.0
-1.735000e+04 3.657765e+02 0.0
-2.650000e+03 -3.577084e+02 0.0
-2.750000e+03 -3.575369e+02 0.0
-1.780000e+04 -4.976629e+02 0.0
-1.755000e+04 3.657823e+02 0.0
-2.850000e+03 -3.573725e+02 0.0
-1.790000e+04 -4.976562e+02 0.0
-2.950000e+03 -3.572158e+02 0.0
-1.800000e+04 -4.976462e+02 0.0
-3.050000e+03 -3.570675e+02 0.0
-1.810000e+04 -4.976327e+02 0.0
-3.450000e+03 3.565718e+02 0.0
-3.150000e+03 -3.569283e+02 0.0
-1.820000e+04 -4.976155e+02 0.0
-1.830000e+04 -4.975944e+02 0.0
-1.840000e+04 -4.975694e+02 0.0
-3.550000e+03 -3.564756e+02 0.0
-1.850000e+04 -4.975406e+02 0.0
-3.750000e+03 -3.563210e+02 0.0
-1.860000e+04 -4.975081e+02 0.0
-1.870000e+04 -4.974719e+02 0.0
-3.850000e+03 -3.562639e+02 0.0
-1.880000e+04 -4.974322e+02 0.0
-3.950000e+03 -3.562213e+02 0.0
-1.890000e+04 -4.973890e+02 0.0
-4.050000e+03 -3.561937e+02 0.0
-1.900000e+04 -4.973423e+02 0.0
-4.150000e+03 -3.561818e+02 0.0
-1.910000e+04 -4.972923e+02 0.0
-4.250000e+03 -3.561864e+02 0.0
-1.920000e+04 -4.972390e+02 0.0
-1.885000e+04 3.655942e+02 0.0
-4.350000e+03 -3.562080e+02 0.0
-1.930000e+04 -4.971824e+02 0.0
-1.895000e+04 3.655612e+02 0.0
-4.450000e+03 -3.562473e+02 0.0
-1.940000e+04 -4.971227e+02 0.0
-4.550000e+03 -3.563050e+02 0.0
-1.950000e+04 -4.970600e+02 0.0
-1.925000e+04 3.654473e+02 0.0
-4.650000e+03 -3.563815e+02 0.0
-1.960000e+04 -4.969942e+02 0.0
-1.935000e+04 3.654046e+02 0.0
-1.970000e+04 -4.969255e+02 0.0
-1.980000e+04 -4.968539e+02 0.0
-5.050000e+03 -3.568626e+02 0.0
-1.990000e+04 -4.967795e+02 0.0
-5.150000e+03 -3.570228e+02 0.0
-2.000000e+04 -4.967024e+02 0.0
-5.250000e+03 -3.571976e+02 0.0
-5.350000e+03 -3.573862e+02 0.0
-5.450000e+03 -3.575878e+02 0.0
-2.030000e+04 -4.964554e+02 0.0
-5.550000e+03 -3.578017e+02 0.0
-2.040000e+04 -4.963681e+02 0.0
-2.005000e+04 3.650443e+02 0.0
-5.650000e+03 -3.580271e+02 0.0
-2.050000e+04 -4.962784e+02 0.0
-5.750000e+03 -3.582634e+02 0.0
-2.060000e+04 -4.961865e+02 0.0
-2.025000e+04 3.649233e+02 0.0
-5.850000e+03 -3.585096e+02 0.0
-2.070000e+04 -4.960922e+02 0.0
-5.950000e+03 -3.587652e+02 0.0
-2.080000e+04 -4.959959e+02 0.0
-6.050000e+03 -3.590293e+02 0.0
-2.090000e+04 -4.958974e+02 0.0
-2.065000e+04 3.646598e+02 0.0
-6.450000e+03 3.601564e+02 0.0
-6.150000e+03 -3.593012e+02 0.0
-2.100000e+04 -4.957969e+02 0.0
-2.075000e+04 3.645897e+02 0.0
-2.110000e+04 -4.956945e+02 0.0
-2.085000e+04 3.645181e+02 0.0
-2.120000e+04 -4.955902e+02 0.0
-2.095000e+04 3.644450e+02 0.0
-6.550000e+03 -3.604521e+02 0.0
-2.130000e+04 -4.954841e+02 0.0
-6.650000e+03 -3.607518e+02 0.0
-2.140000e+04 -4.953763e+02 0.0
-6.750000e+03 -3.610549e+02 0.0
-6.850000e+03 -3.613606e+02 0.0
-6.950000e+03 -3.616682e+02 0.0
-2.170000e+04 -4.950431e+02 0.0
-7.050000e+03 -3.619768e+02 0.0
-2.180000e+04 -4.949290e+02 0.0
-2.145000e+04 3.640586e+02 0.0
-7.150000e+03 -3.622858e+02 0.0
-2.190000e+04 -4.948135e+02 0.0
-7.250000e+03 -3.625944e+02 0.0
-2.200000e+04 -4.946968e+02 0.0
-2.165000e+04 3.638953e+02 0.0
-7.350000e+03 -3.629018e+02 0.0
-2.210000e+04 -4.945788e+02 0.0
-7.450000e+03 -3.632074e+02 0.0
-2.220000e+04 -4.944596e+02 0.0
-7.650000e+03 -3.638099e+02 0.0
-2.230000e+04 -4.943393e+02 0.0
-7.750000e+03 -3.641053e+02 0.0
-2.240000e+04 -4.942180e+02 0.0
-2.250000e+04 -4.940958e+02 0.0
-2.260000e+04 -4.939726e+02 0.0
-2.235000e+04 3.632921e+02 0.0
-2.270000e+04 -4.938487e+02 0.0
-8.150000e+03 -3.652309e+02 0.0
-2.280000e+04 -4.937240e+02 0.0
-2.255000e+04 3.631124e+02 0.0
-8.250000e+03 -3.654946e+02 0.0
-2.290000e+04 -4.935985e+02 0.0
-2.265000e+04 3.630215e+02 0.0
-8.350000e+03 -3.657496e+02 0.0
-8.450000e+03 -3.659953e+02 0.0
-8.550000e+03 -3.662309e+02 0.0
-2.320000e+04 -4.932176e+02 0.0
-8.650000e+03 -3.664557e+02 0.0
-2.330000e+04 -4.930889e+02 0.0
-2.295000e+04 3.627458e+02 0.0
-8.750000e+03 -3.666689e+02 0.0
-2.340000e+04 -4.929595e+02 0.0
-8.850000e+03 -3.668697e+02 0.0
-2.350000e+04 -4.928292e+02 0.0
-2.315000e+04 3.625591e+02 0.0
-8.950000e+03 -3.670575e+02 0.0
-2.360000e+04 -4.926980e+02 0.0
-9.150000e+03 -3.673910e+02 0.0
-2.370000e+04 -4.925659e+02 0.0
-2.380000e+04 -4.924328e+02 0.0
-9.250000e+03 -3.675358e+02 0.0
-2.390000e+04 -4.922988e+02 0.0
-2.400000e+04 -4.921639e+02 0.0
-2.410000e+04 -4.920279e+02 0.0
-9.650000e+03 -3.679779e+02 0.0
-2.420000e+04 -4.918910e+02 0.0
-9.750000e+03 -3.680563e+02 0.0
-2.430000e+04 -4.917530e+02 0.0
-2.405000e+04 3.616877e+02 0.0
-9.850000e+03 -3.681227e+02 0.0
-9.950000e+03 -3.681776e+02 0.0
-2.425000e+04 3.614864e+02 0.0
-1.005000e+04 -3.682214e+02 0.0
-2.460000e+04 -4.913326e+02 0.0
-2.425000e+04 1.167422e+02 0.0
-2.420000e+04 2.311831e+02 0.0
-2.430000e+04 2.311182e+02 0.0
-1.015000e+04 -3.682545e+02 0.0
-2.470000e+04 -4.911903e+02 0.0
-1.025000e+04 -3.682773e+02 0.0
-2.480000e+04 -4.910469e+02 0.0
-1.045000e+04 -3.682942e+02 0.0
-2.490000e+04 -4.909023e+02 0.0
-2.455000e+04 3.611786e+02 0.0
-1.055000e+04 -3.682890e+02 0.0
-2.500000e+04 -4.907565e+02 0.0
-2.510000e+04 -4.906095e+02 0.0
-1.065000e+04 -3.682753e+02 0.0
-2.520000e+04 -4.904613e+02 0.0
-1.075000e+04 -3.682536e+02 0.0
-2.530000e+04 -4.903118e+02 0.0
-1.085000e+04 -3.682243e+02 0.0
-2.540000e+04 -4.901611e+02 0.0
-2.550000e+04 -4.900091e+02 0.0
-2.560000e+04 -4.898559e+02 0.0
-1.125000e+04 -3.680399e+02 0.0
-2.570000e+04 -4.897012e+02 0.0
-1.135000e+04 -3.679792e+02 0.0
-1.145000e+04 -3.679135e+02 0.0
-1.155000e+04 -3.678433e+02 0.0
-2.600000e+04 -4.892293e+02 0.0
-2.580000e+04 2.300806e+02 0.0
-2.575000e+04 3.598704e+02 0.0
-2.585000e+04 3.597553e+02 0.0
-1.165000e+04 -3.677690e+02 0.0
-2.610000e+04 -4.890691e+02 0.0
-1.175000e+04 -3.676910e+02 0.0
-2.620000e+04 -4.889076e+02 0.0
-2.595000e+04 3.596391e+02 0.0
-1.185000e+04 -3.676098e+02 0.0
-2.630000e+04 -4.887446e+02 0.0
-2.605000e+04 3.595220e+02 0.0
-1.205000e+04 -3.674395e+02 0.0
-2.640000e+04 -4.885802e+02 0.0
-2.650000e+04 -4.884142e+02 0.0
-1.215000e+04 -3.673513e+02 0.0
-2.660000e+04 -4.882468e+02 0.0
-1.225000e+04 -3.672617e+02 0.0
-2.670000e+04 -4.880778e+02 0.0
-1.235000e+04 -3.671709e+02 0.0
-2.680000e+04 -4.879072e+02 0.0
-1.245000e+04 -3.670797e+02 0.0
-2.690000e+04 -4.877351e+02 0.0
-2.700000e+04 -4.875614e+02 0.0
-2.710000e+04 -4.873861e+02 0.0
-1.285000e+04 -3.667173e+02 0.0
-1.295000e+04 -3.666297e+02 0.0
-1.305000e+04 -3.665440e+02 0.0
-2.740000e+04 -4.868503e+02 0.0
-1.325000e+04 -3.663807e+02 0.0
-2.750000e+04 -4.866689e+02 0.0
-2.715000e+04 3.581611e+02 0.0
-1.335000e+04 -3.663038e+02 0.0
-2.760000e+04 -4.864866e+02 0.0
-2.770000e+04 -4.863036e+02 0.0
-2.735000e+04 3.578985e+02 0.0
-1.345000e+04 -3.662307e+02 0.0
-2.780000e+04 -4.861204e+02 0.0
-2.755000e+04 3.576319e+02 0.0
-1.355000e+04 -3.661618e+02 0.0
-2.790000e+04 -4.859372e+02 0.0
-1.365000e+04 -3.660976e+02 0.0
-2.800000e+04 -4.857544e+02 0.0
-2.770000e+04 2.285571e+02 0.0
-2.760000e+04 2.286431e+02 0.0
-2.765000e+04 3.574976e+02 0.0
-1.375000e+04 -3.660384e+02 0.0
-2.810000e+04 -4.855723e+02 0.0
-1.385000e+04 -3.659840e+02 0.0
-2.820000e+04 -4.853912e+02 0.0
-1.395000e+04 -3.659343e+02 0.0
-2.830000e+04 -4.852116e+02 0.0
-1.405000e+04 -3.658891e+02 0.0
-2.840000e+04 -4.850335e+02 0.0
-2.850000e+04 -4.848576e+02 0.0
-1.445000e+04 -3.657497e+02 0.0
-1.455000e+04 -3.657243e+02 0.0
-2.880000e+04 -4.843450e+02 0.0
-1.465000e+04 -3.657024e+02 0.0
-2.890000e+04 -4.841803e+02 0.0
-2.855000e+04 3.563035e+02 0.0
-1.485000e+04 -3.656683e+02 0.0
-2.900000e+04 -4.840193e+02 0.0
-2.910000e+04 -4.838623e+02 0.0
-2.875000e+04 3.560522e+02 0.0
-1.495000e+04 -3.656557e+02 0.0
-2.920000e+04 -4.837096e+02 0.0
-1.505000e+04 -3.656458e+02 0.0
-2.930000e+04 -4.835615e+02 0.0
-1.515000e+04 -3.656385e+02 0.0
-2.940000e+04 -4.834183e+02 0.0
-1.525000e+04 -3.656337e+02 0.0
-2.950000e+04 -4.832805e+02 0.0
-2.925000e+04 3.554689e+02 0.0
-1.535000e+04 -3.656310e+02 0.0
-2.960000e+04 -4.831483e+02 0.0
-1.545000e+04 -3.656304e+02 0.0
-2.970000e+04 -4.830220e+02 0.0
-2.945000e+04 3.552585e+02 0.0
-1.555000e+04 -3.656317e+02 0.0
-2.980000e+04 -4.829020e+02 0.0
-2.955000e+04 3.551592e+02 0.0
-1.565000e+04 -3.656347e+02 0.0
-2.990000e+04 -4.827885e+02 0.0
-1.585000e+04 -3.656451e+02 0.0
-1.615000e+04 -3.656690e+02 0.0
-3.020000e+04 -4.824911e+02 0.0
-3.030000e+04 -4.824073e+02 0.0
-2.995000e+04 3.548070e+02 0.0
-1.625000e+04 -3.656785e+02 0.0
-3.040000e+04 -4.823318e+02 0.0
-1.635000e+04 -3.656885e+02 0.0
-3.050000e+04 -4.822648e+02 0.0
-3.015000e+04 3.546612e+02 0.0
-1.645000e+04 -3.656989e+02 0.0
-3.060000e+04 -4.822067e+02 0.0
-1.655000e+04 -3.657093e+02 0.0
-3.070000e+04 -4.821578e+02 0.0
-1.665000e+04 -3.657197e+02 0.0
-3.080000e+04 -4.821185e+02 0.0
-1.675000e+04 -3.657299e+02 0.0
-3.090000e+04 -4.820890e+02 0.0
-1.685000e+04 -3.657396e+02 0.0
-3.100000e+04 -4.820697e+02 0.0
-1.695000e+04 -3.657488e+02 0.0
-3.110000e+04 -4.820610e+02 0.0
-1.705000e+04 -3.657573e+02 0.0
-3.120000e+04 -4.820630e+02 0.0
-1.715000e+04 -3.657648e+02 0.0
-3.130000e+04 -4.820763e+02 0.0
-3.105000e+04 3.543143e+02 0.0
-1.725000e+04 -3.657713e+02 0.0
-3.125000e+04 3.543174e+02 0.0
-1.745000e+04 -3.657802e+02 0.0
-3.160000e+04 -4.821864e+02 0.0
-3.125000e+04 1.144270e+02 0.0
-3.120000e+04 2.265641e+02 0.0
-3.130000e+04 2.265703e+02 0.0
-1.765000e+04 -3.657826e+02 0.0
-3.170000e+04 -4.822476e+02 0.0
-1.775000e+04 -3.657810e+02 0.0
-3.180000e+04 -4.823216e+02 0.0
-1.785000e+04 -3.657772e+02 0.0
-3.190000e+04 -4.824087e+02 0.0
-3.155000e+04 3.543852e+02 0.0
-1.795000e+04 -3.657711e+02 0.0
-3.200000e+04 -4.825087e+02 0.0
-1.805000e+04 -3.657625e+02 0.0
-3.210000e+04 -4.826212e+02 0.0
-1.815000e+04 -3.657512e+02 0.0
-3.220000e+04 -4.827457e+02 0.0
-1.825000e+04 -3.657371e+02 0.0
-3.230000e+04 -4.828819e+02 0.0
-1.835000e+04 -3.657201e+02 0.0
-3.240000e+04 -4.830293e+02 0.0
-1.845000e+04 -3.657004e+02 0.0
-3.250000e+04 -4.831877e+02 0.0
-1.855000e+04 -3.656778e+02 0.0
-3.260000e+04 -4.833565e+02 0.0
-1.865000e+04 -3.656526e+02 0.0
-3.270000e+04 -4.835354e+02 0.0
-1.875000e+04 -3.656247e+02 0.0
-1.895000e+04 -3.655612e+02 0.0
-1.905000e+04 -3.655256e+02 0.0
-3.300000e+04 -4.841285e+02 0.0
-3.310000e+04 -4.843437e+02 0.0
-3.275000e+04 3.554641e+02 0.0
-3.320000e+04 -4.845669e+02 0.0
-3.300000e+04 2.275348e+02 0.0
-3.295000e+04 3.557549e+02 0.0
-3.305000e+04 3.559099e+02 0.0
-1.935000e+04 -3.654046e+02 0.0
-3.330000e+04 -4.847979e+02 0.0
-1.945000e+04 -3.653596e+02 0.0
-3.340000e+04 -4.850361e+02 0.0
-1.955000e+04 -3.653123e+02 0.0
-3.350000e+04 -4.852812e+02 0.0
-1.965000e+04 -3.652629e+02 0.0
-3.360000e+04 -4.855328e+02 0.0
-1.975000e+04 -3.652113e+02 0.0
-3.370000e+04 -4.857905e+02 0.0
-1.985000e+04 -3.651577e+02 0.0
-3.380000e+04 -4.860538e+02 0.0
-1.995000e+04 -3.651020e+02 0.0
-3.390000e+04 -4.863225e+02 0.0
-2.015000e+04 -3.649847e+02 0.0
-3.400000e+04 -4.865960e+02 0.0
-3.410000e+04 -4.868740e+02 0.0
-2.035000e+04 -3.648600e+02 0.0
-2.045000e+04 -3.647950e+02 0.0
-3.440000e+04 -4.877309e+02 0.0
-2.055000e+04 -3.647282e+02 0.0
-3.450000e+04 -4.880229e+02 0.0
-3.415000e+04 3.579529e+02 0.0
-3.460000e+04 -4.883173e+02 0.0
-2.075000e+04 -3.645897e+02 0.0
-3.470000e+04 -4.886139e+02 0.0
-3.435000e+04 3.583729e+02 0.0
-2.095000e+04 -3.644450e+02 0.0
-3.480000e+04 -4.889121e+02 0.0
-2.105000e+04 -3.643704e+02 0.0
-3.490000e+04 -4.892116e+02 0.0
-2.115000e+04 -3.642944e+02 0.0
-3.500000e+04 -4.895120e+02 0.0
-3.475000e+04 3.592378e+02 0.0
-2.125000e+04 -3.642171e+02 0.0
-3.510000e+04 -4.898129e+02 0.0
-2.135000e+04 -3.641385e+02 0.0
-3.520000e+04 -4.901139e+02 0.0
-3.495000e+04 3.596780e+02 0.0
-2.155000e+04 -3.639775e+02 0.0
-3.530000e+04 -4.904146e+02 0.0
-3.505000e+04 3.598990e+02 0.0
-3.540000e+04 -4.907145e+02 0.0
-2.175000e+04 -3.638120e+02 0.0
-3.550000e+04 -4.910134e+02 0.0
-3.560000e+04 -4.913108e+02 0.0
-2.185000e+04 -3.637276e+02 0.0
-2.195000e+04 -3.636423e+02 0.0
-2.205000e+04 -3.635560e+02 0.0
-3.590000e+04 -4.921898e+02 0.0
-2.215000e+04 -3.634688e+02 0.0
-3.600000e+04 -4.924772e+02 0.0
-3.565000e+04 3.612194e+02 0.0
-2.225000e+04 -3.633808e+02 0.0
-3.610000e+04 -4.927610e+02 0.0
-3.620000e+04 -4.930410e+02 0.0
-3.585000e+04 3.616502e+02 0.0
-3.630000e+04 -4.933166e+02 0.0
-2.265000e+04 -3.630215e+02 0.0
-3.640000e+04 -4.935876e+02 0.0
-2.275000e+04 -3.629302e+02 0.0
-3.650000e+04 -4.938536e+02 0.0
-2.285000e+04 -3.628382e+02 0.0
-3.660000e+04 -4.941148e+02 0.0
-2.305000e+04 -3.626527e+02 0.0
-3.670000e+04 -4.943710e+02 0.0
-3.680000e+04 -4.946225e+02 0.0
-2.325000e+04 -3.624649e+02 0.0
-3.690000e+04 -4.948692e+02 0.0
-3.665000e+04 3.632661e+02 0.0
-3.700000e+04 -4.951111e+02 0.0
-2.335000e+04 -3.623700e+02 0.0
-3.685000e+04 3.636358e+02 0.0
-2.345000e+04 -3.622746e+02 0.0
-3.695000e+04 3.638153e+02 0.0
-2.355000e+04 -3.621785e+02 0.0
-3.730000e+04 -4.958087e+02 0.0
-2.365000e+04 -3.620817e+02 0.0
-3.740000e+04 -4.960320e+02 0.0
-3.705000e+04 3.639914e+02 0.0
-2.375000e+04 -3.619843e+02 0.0
-3.750000e+04 -4.962508e+02 0.0
-2.385000e+04 -3.618861e+02 0.0
-3.760000e+04 -4.964650e+02 0.0
-3.725000e+04 3.643332e+02 0.0
-2.395000e+04 -3.617873e+02 0.0
-3.770000e+04 -4.966748e+02 0.0
-3.745000e+04 3.646615e+02 0.0
-3.780000e+04 -4.968801e+02 0.0
-3.755000e+04 3.648206e+02 0.0
-3.790000e+04 -4.970810e+02 0.0
-3.765000e+04 3.649764e+02 0.0
-2.445000e+04 -3.612820e+02 0.0
-3.800000e+04 -4.972776e+02 0.0
-3.775000e+04 3.651290e+02 0.0
-3.810000e+04 -4.974698e+02 0.0
-3.785000e+04 3.652783e+02 0.0
-2.465000e+04 -3.610745e+02 0.0
-3.820000e+04 -4.976578e+02 0.0
-3.795000e+04 3.654243e+02 0.0
-3.830000e+04 -4.978415e+02 0.0
-3.805000e+04 3.655672e+02 0.0
-2.475000e+04 -3.609694e+02 0.0
-3.840000e+04 -4.980210e+02 0.0
-3.815000e+04 3.657069e+02 0.0
-2.485000e+04 -3.608636e+02 0.0
-2.495000e+04 -3.607569e+02 0.0
-3.835000e+04 3.659770e+02 0.0
-2.505000e+04 -3.606493e+02 0.0
-3.870000e+04 -4.985346e+02 0.0
-3.845000e+04 3.661073e+02 0.0
-2.515000e+04 -3.605408e+02 0.0
-3.880000e+04 -4.986976e+02 0.0
-3.855000e+04 3.662347e+02 0.0
-2.525000e+04 -3.604314e+02 0.0
-3.890000e+04 -4.988566e+02 0.0
-3.875000e+04 3.664803e+02 0.0
-2.535000e+04 -3.603211e+02 0.0
-3.900000e+04 -4.990117e+02 0.0
-2.545000e+04 -3.602099e+02 0.0
-3.910000e+04 -4.991628e+02 0.0
-3.895000e+04 3.667141e+02 0.0
-2.555000e+04 -3.600977e+02 0.0
-3.920000e+04 -4.993100e+02 0.0
-2.565000e+04 -3.599845e+02 0.0
-3.930000e+04 -4.994533e+02 0.0
-3.905000e+04 3.668266e+02 0.0
-3.940000e+04 -4.995928e+02 0.0
-3.915000e+04 3.669362e+02 0.0
-2.585000e+04 -3.597553e+02 0.0
-3.950000e+04 -4.997285e+02 0.0
-3.925000e+04 3.670430e+02 0.0
-2.605000e+04 -3.595220e+02 0.0
-3.960000e+04 -4.998605e+02 0.0
-3.935000e+04 3.671469e+02 0.0
-2.615000e+04 -3.594038e+02 0.0
-3.970000e+04 -4.999888e+02 0.0
-3.945000e+04 3.672480e+02 0.0
-2.625000e+04 -3.592845e+02 0.0
-3.980000e+04 -5.001134e+02 0.0
-3.955000e+04 3.673464e+02 0.0
-2.635000e+04 -3.591642e+02 0.0
-2.645000e+04 -3.590427e+02 0.0
-3.975000e+04 3.675350e+02 0.0
-2.655000e+04 -3.589202e+02 0.0
-4.010000e+04 -5.004655e+02 0.0
-3.985000e+04 3.676252e+02 0.0
-2.665000e+04 -3.587966e+02 0.0
-4.020000e+04 -5.005758e+02 0.0
-3.995000e+04 3.677128e+02 0.0
-2.675000e+04 -3.586718e+02 0.0
-4.030000e+04 -5.006826e+02 0.0
-4.015000e+04 3.678801e+02 0.0
-2.685000e+04 -3.585459e+02 0.0
-4.040000e+04 -5.007860e+02 0.0
-2.695000e+04 -3.584188e+02 0.0
-4.050000e+04 -5.008859e+02 0.0
-4.035000e+04 3.680371e+02 0.0
-2.705000e+04 -3.582905e+02 0.0
-4.060000e+04 -5.009825e+02 0.0
-2.725000e+04 -3.580304e+02 0.0
-4.070000e+04 -5.010758e+02 0.0
-4.045000e+04 3.681118e+02 0.0
-4.080000e+04 -5.011658e+02 0.0
-4.055000e+04 3.681841e+02 0.0
-2.745000e+04 -3.577656e+02 0.0
-4.090000e+04 -5.012525e+02 0.0
-4.065000e+04 3.682538e+02 0.0
-4.100000e+04 -5.013360e+02 0.0
-4.075000e+04 3.683212e+02 0.0
-4.110000e+04 -5.014163e+02 0.0
-4.085000e+04 3.683861e+02 0.0
-2.765000e+04 -3.574976e+02 0.0
-4.120000e+04 -5.014934e+02 0.0
-4.095000e+04 3.684487e+02 0.0
-2.785000e+04 -3.572283e+02 0.0
-4.105000e+04 3.685089e+02 0.0
-2.795000e+04 -3.570938e+02 0.0
-4.115000e+04 3.685667e+02 0.0
-2.805000e+04 -3.569597e+02 0.0
-4.150000e+04 -5.017051e+02 0.0
-4.125000e+04 3.686222e+02 0.0
-2.815000e+04 -3.568262e+02 0.0
-4.160000e+04 -5.017691e+02 0.0
-2.825000e+04 -3.566936e+02 0.0
-4.170000e+04 -5.018298e+02 0.0
-4.155000e+04 3.687742e+02 0.0
-2.835000e+04 -3.565621e+02 0.0
-4.180000e+04 -5.018871e+02 0.0
-2.845000e+04 -3.564320e+02 0.0
-4.190000e+04 -5.019412e+02 0.0
-4.175000e+04 3.688634e+02 0.0
-2.865000e+04 -3.561768e+02 0.0
-4.200000e+04 -5.019918e+02 0.0
-4.210000e+04 -5.020392e+02 0.0
-4.185000e+04 3.689043e+02 0.0
-2.885000e+04 -3.559299e+02 0.0
-4.220000e+04 -5.020831e+02 0.0
-4.195000e+04 3.689428e+02 0.0
-4.230000e+04 -5.021237e+02 0.0
-4.205000e+04 3.689788e+02 0.0
-2.895000e+04 -3.558102e+02 0.0
-4.240000e+04 -5.021609e+02 0.0
-4.215000e+04 3.690124e+02 0.0
-2.905000e+04 -3.556933e+02 0.0
-4.250000e+04 -5.021946e+02 0.0
-4.225000e+04 3.690434e+02 0.0
-2.915000e+04 -3.555794e+02 0.0
-4.260000e+04 -5.022249e+02 0.0
-4.245000e+04 3.690980e+02 0.0
-4.255000e+04 3.691216e+02 0.0
-2.955000e+04 -3.551592e+02 0.0
-4.290000e+04 -5.022951e+02 0.0
-4.265000e+04 3.691426e+02 0.0
-2.965000e+04 -3.550642e+02 0.0
-4.300000e+04 -5.023116e+02 0.0
-4.275000e+04 3.691611e+02 0.0
-2.975000e+04 -3.549737e+02 0.0
-4.310000e+04 -5.023245e+02 0.0
-4.295000e+04 3.691904e+02 0.0
-2.985000e+04 -3.548878e+02 0.0
-4.320000e+04 -5.023340e+02 0.0
-3.005000e+04 -3.547314e+02 0.0
-4.330000e+04 -5.023399e+02 0.0
-4.315000e+04 3.692094e+02 0.0
-4.340000e+04 -5.023422e+02 0.0
-3.025000e+04 -3.545967e+02 0.0
-4.350000e+04 -5.023410e+02 0.0
-4.325000e+04 3.692151e+02 0.0
-4.360000e+04 -5.023363e+02 0.0
-3.035000e+04 -3.545381e+02 0.0
-4.370000e+04 -5.023279e+02 0.0
-4.345000e+04 3.692185e+02 0.0
-3.045000e+04 -3.544857e+02 0.0
-4.380000e+04 -5.023160e+02 0.0
-4.355000e+04 3.692163e+02 0.0
-3.055000e+04 -3.544397e+02 0.0
-4.390000e+04 -5.023004e+02 0.0
-4.365000e+04 3.692115e+02 0.0
-3.065000e+04 -3.544003e+02 0.0
-4.400000e+04 -5.022812e+02 0.0
-4.375000e+04 3.692040e+02 0.0
-3.075000e+04 -3.543679e+02 0.0
-4.385000e+04 3.691939e+02 0.0
-3.085000e+04 -3.543425e+02 0.0
-4.395000e+04 3.691812e+02 0.0
-3.095000e+04 -3.543246e+02 0.0
-4.430000e+04 -5.022017e+02 0.0
-4.405000e+04 3.691657e+02 0.0
-4.440000e+04 -5.021678e+02 0.0
-4.415000e+04 3.691476e+02 0.0
-4.450000e+04 -5.021303e+02 0.0
-4.435000e+04 3.691032e+02 0.0
-3.145000e+04 -3.543538e+02 0.0
-4.460000e+04 -5.020890e+02 0.0
-4.470000e+04 -5.020440e+02 0.0
-4.455000e+04 3.690480e+02 0.0
-3.165000e+04 -3.544255e+02 0.0
-4.480000e+04 -5.019953e+02 0.0
-4.490000e+04 -5.019428e+02 0.0
-4.465000e+04 3.690163e+02 0.0
-3.175000e+04 -3.544752e+02 0.0
-4.500000e+04 -5.018866e+02 0.0
-4.475000e+04 3.689819e+02 0.0
-3.185000e+04 -3.545344e+02 0.0
-4.510000e+04 -5.018266e+02 0.0
-4.485000e+04 3.689447e+02 0.0
-3.195000e+04 -3.546032e+02 0.0
-4.520000e+04 -5.017627e+02 0.0
-4.495000e+04 3.689048e+02 0.0
-3.205000e+04 -3.546813e+02 0.0
-4.530000e+04 -5.016951e+02 0.0
-4.505000e+04 3.688620e+02 0.0
-3.215000e+04 -3.547684e+02 0.0
-4.515000e+04 3.688165e+02 0.0
-3.225000e+04 -3.548643e+02 0.0
-4.525000e+04 3.687682e+02 0.0
-3.235000e+04 -3.549686e+02 0.0
-4.560000e+04 -5.014694e+02 0.0
-4.535000e+04 3.687171e+02 0.0
-3.245000e+04 -3.550810e+02 0.0
-4.570000e+04 -5.013871e+02 0.0
-4.545000e+04 3.686631e+02 0.0
-3.255000e+04 -3.552012e+02 0.0
-4.580000e+04 -5.013019e+02 0.0
-4.555000e+04 3.686064e+02 0.0
-3.265000e+04 -3.553290e+02 0.0
-4.590000e+04 -5.012142e+02 0.0
-4.565000e+04 3.685471e+02 0.0
-3.285000e+04 -3.556062e+02 0.0
-4.600000e+04 -5.011243e+02 0.0
-4.575000e+04 3.684856e+02 0.0
-4.610000e+04 -5.010326e+02 0.0
-4.595000e+04 3.683567e+02 0.0
-4.620000e+04 -5.009395e+02 0.0
-3.305000e+04 -3.559099e+02 0.0
-4.630000e+04 -5.008454e+02 0.0
-4.615000e+04 3.682220e+02 0.0
-3.325000e+04 -3.562381e+02 0.0
-4.640000e+04 -5.007506e+02 0.0
-3.335000e+04 -3.564105e+02 0.0
-4.650000e+04 -5.006555e+02 0.0
-4.625000e+04 3.681531e+02 0.0
-3.345000e+04 -3.565882e+02 0.0
-4.660000e+04 -5.005605e+02 0.0
-4.635000e+04 3.680837e+02 0.0
-3.355000e+04 -3.567708e+02 0.0
-4.645000e+04 3.680139e+02 0.0
-3.365000e+04 -3.569580e+02 0.0
-4.655000e+04 3.679440e+02 0.0
-3.375000e+04 -3.571495e+02 0.0
-4.690000e+04 -5.002799e+02 0.0
-4.665000e+04 3.678743e+02 0.0
-3.385000e+04 -3.573450e+02 0.0
-4.700000e+04 -5.001891e+02 0.0
-4.675000e+04 3.678051e+02 0.0
-3.395000e+04 -3.575443e+02 0.0
-4.710000e+04 -5.001002e+02 0.0
-4.685000e+04 3.677367e+02 0.0
-3.405000e+04 -3.577470e+02 0.0
-4.720000e+04 -5.000137e+02 0.0
-4.695000e+04 3.676693e+02 0.0
-3.425000e+04 -3.581616e+02 0.0
-4.730000e+04 -4.999300e+02 0.0
-4.705000e+04 3.676032e+02 0.0
-4.740000e+04 -4.998493e+02 0.0
-4.715000e+04 3.675388e+02 0.0
-3.445000e+04 -3.585865e+02 0.0
-4.750000e+04 -4.997722e+02 0.0
-4.735000e+04 3.674157e+02 0.0
-4.760000e+04 -4.996989e+02 0.0
-3.455000e+04 -3.588020e+02 0.0
-4.770000e+04 -4.996298e+02 0.0
-4.755000e+04 3.673023e+02 0.0
-3.465000e+04 -3.590192e+02 0.0
-4.780000e+04 -4.995654e+02 0.0
-4.790000e+04 -4.995059e+02 0.0
-4.765000e+04 3.672500e+02 0.0
-4.800000e+04 -4.994518e+02 0.0
-4.775000e+04 3.672009e+02 0.0
-3.505000e+04 -3.598990e+02 0.0
-4.785000e+04 3.671553e+02 0.0
-3.515000e+04 -3.601203e+02 0.0
-4.795000e+04 3.671136e+02 0.0
-3.525000e+04 -3.603414e+02 0.0
-4.830000e+04 -4.993256e+02 0.0
-4.805000e+04 3.670759e+02 0.0
-3.535000e+04 -3.605622e+02 0.0
-4.840000e+04 -4.992968e+02 0.0
-4.815000e+04 3.670426e+02 0.0
-3.545000e+04 -3.607823e+02 0.0
-4.850000e+04 -4.992752e+02 0.0
-4.825000e+04 3.670139e+02 0.0
-3.555000e+04 -3.610015e+02 0.0
-4.860000e+04 -4.992613e+02 0.0
-4.835000e+04 3.669902e+02 0.0
-3.575000e+04 -3.614357e+02 0.0
-4.870000e+04 -4.992554e+02 0.0
-4.845000e+04 3.669717e+02 0.0
-4.880000e+04 -4.992579e+02 0.0
-4.855000e+04 3.669586e+02 0.0
-3.595000e+04 -3.618626e+02 0.0
-4.890000e+04 -4.992691e+02 0.0
-4.875000e+04 3.669500e+02 0.0
-4.900000e+04 -4.992895e+02 0.0
-3.605000e+04 -3.620725e+02 0.0
-4.910000e+04 -4.993194e+02 0.0
-4.895000e+04 3.669665e+02 0.0
-3.615000e+04 -3.622798e+02 0.0
-4.920000e+04 -4.993592e+02 0.0
-3.625000e+04 -3.624840e+02 0.0
-4.930000e+04 -4.994093e+02 0.0
-4.905000e+04 3.669850e+02 0.0
-3.635000e+04 -3.626849e+02 0.0
-4.940000e+04 -4.994700e+02 0.0
-4.915000e+04 3.670106e+02 0.0
-3.645000e+04 -3.628823e+02 0.0
-4.925000e+04 3.670436e+02 0.0
-4.982679e+04 -2.228262e-11 0.0
-3.655000e+04 -3.630760e+02 0.0
-4.960000e+04 -4.996249e+02 0.0
-4.935000e+04 3.670842e+02 0.0
-4.945000e+04 3.671329e+02 0.0
-4.970000e+04 -4.997198e+02 0.0
-3.695000e+04 -3.638153e+02 0.0
-4.973612e+04 -2.344697e+02 0.0
-3.715000e+04 -3.641640e+02 0.0
-3.735000e+04 -3.644990e+02 0.0
-4.955533e+04 -3.581531e+02 0.0
-4.973259e+04 -8.319040e+01 0.0
-4.955562e+04 3.585056e+02 0.0
-4.965346e+04 3.610256e+02 0.0
-4.973276e+04 8.330977e+01 0.0
-4.973602e+04 2.321369e+02 0.0
-4.963409e+04 2.037965e+02 0.0
-4.945000e+04 -3.671329e+02 0.0
-4.935000e+04 -3.670842e+02 0.0
-4.925000e+04 -3.670436e+02 0.0
-4.915000e+04 -3.670106e+02 0.0
-4.905000e+04 -3.669850e+02 0.0
-4.885000e+04 -3.669550e+02 0.0
-4.865000e+04 -3.669513e+02 0.0
-4.855000e+04 -3.669586e+02 0.0
-4.845000e+04 -3.669717e+02 0.0
-4.835000e+04 -3.669902e+02 0.0
-4.825000e+04 -3.670139e+02 0.0
-4.815000e+04 -3.670426e+02 0.0
-4.805000e+04 -3.670759e+02 0.0
-4.795000e+04 -3.671136e+02 0.0
-4.785000e+04 -3.671553e+02 0.0
-4.775000e+04 -3.672009e+02 0.0
-4.765000e+04 -3.672500e+02 0.0
-4.745000e+04 -3.673577e+02 0.0
-4.725000e+04 -3.674762e+02 0.0
-4.715000e+04 -3.675388e+02 0.0
-4.705000e+04 -3.676032e+02 0.0
-4.695000e+04 -3.676693e+02 0.0
-4.685000e+04 -3.677367e+02 0.0
-4.675000e+04 -3.678051e+02 0.0
-4.665000e+04 -3.678743e+02 0.0
-4.655000e+04 -3.679440e+02 0.0
-4.645000e+04 -3.680139e+02 0.0
-4.635000e+04 -3.680837e+02 0.0
-4.625000e+04 -3.681531e+02 0.0
-4.605000e+04 -3.682899e+02 0.0
-4.585000e+04 -3.684220e+02 0.0
-4.575000e+04 -3.684856e+02 0.0
-4.565000e+04 -3.685471e+02 0.0
-4.555000e+04 -3.686064e+02 0.0
-4.545000e+04 -3.686631e+02 0.0
-4.535000e+04 -3.687171e+02 0.0
-4.525000e+04 -3.687682e+02 0.0
-4.515000e+04 -3.688165e+02 0.0
-4.505000e+04 -3.688620e+02 0.0
-4.495000e+04 -3.689048e+02 0.0
-4.485000e+04 -3.689447e+02 0.0
-4.475000e+04 -3.689819e+02 0.0
-4.465000e+04 -3.690163e+02 0.0
-4.445000e+04 -3.690770e+02 0.0
-4.425000e+04 -3.691268e+02 0.0
-4.415000e+04 -3.691476e+02 0.0
-4.405000e+04 -3.691657e+02 0.0
-4.395000e+04 -3.691812e+02 0.0
-4.385000e+04 -3.691939e+02 0.0
-4.375000e+04 -3.692040e+02 0.0
-4.365000e+04 -3.692115e+02 0.0
-4.355000e+04 -3.692163e+02 0.0
-4.335000e+04 -3.692181e+02 0.0
-4.345000e+04 -3.692185e+02 0.0
-4.335000e+04 3.692181e+02 0.0
-4.325000e+04 -3.692151e+02 0.0
-4.305000e+04 -3.692012e+02 0.0
-4.285000e+04 -3.691770e+02 0.0
-4.275000e+04 -3.691611e+02 0.0
-4.265000e+04 -3.691426e+02 0.0
-4.255000e+04 -3.691216e+02 0.0
-4.235000e+04 -3.690720e+02 0.0
-4.245000e+04 -3.690980e+02 0.0
-4.235000e+04 3.690720e+02 0.0
-4.225000e+04 -3.690434e+02 0.0
-4.215000e+04 -3.690124e+02 0.0
-4.205000e+04 -3.689788e+02 0.0
-4.195000e+04 -3.689428e+02 0.0
-4.185000e+04 -3.689043e+02 0.0
-4.165000e+04 -3.688200e+02 0.0
-4.145000e+04 -3.687259e+02 0.0
-4.135000e+04 -3.686752e+02 0.0
-4.135000e+04 3.686752e+02 0.0
-4.125000e+04 -3.686222e+02 0.0
-4.115000e+04 -3.685667e+02 0.0
-4.105000e+04 -3.685089e+02 0.0
-4.095000e+04 -3.684487e+02 0.0
-4.085000e+04 -3.683861e+02 0.0
-4.075000e+04 -3.683212e+02 0.0
-4.065000e+04 -3.682538e+02 0.0
-4.055000e+04 -3.681841e+02 0.0
-4.045000e+04 -3.681118e+02 0.0
-4.025000e+04 -3.679599e+02 0.0
-4.005000e+04 -3.677977e+02 0.0
-3.995000e+04 -3.677128e+02 0.0
-3.985000e+04 -3.676252e+02 0.0
-3.965000e+04 -3.674421e+02 0.0
-3.975000e+04 -3.675350e+02 0.0
-3.965000e+04 3.674421e+02 0.0
-3.955000e+04 -3.673464e+02 0.0
-3.945000e+04 -3.672480e+02 0.0
-3.935000e+04 -3.671469e+02 0.0
-3.925000e+04 -3.670430e+02 0.0
-3.915000e+04 -3.669362e+02 0.0
-3.905000e+04 -3.668266e+02 0.0
-3.885000e+04 -3.665987e+02 0.0
-3.865000e+04 -3.663590e+02 0.0
-3.855000e+04 -3.662347e+02 0.0
-3.845000e+04 -3.661073e+02 0.0
-3.825000e+04 -3.658435e+02 0.0
-3.835000e+04 -3.659770e+02 0.0
-3.825000e+04 3.658435e+02 0.0
-3.815000e+04 -3.657069e+02 0.0
-3.805000e+04 -3.655672e+02 0.0
-3.795000e+04 -3.654243e+02 0.0
-3.785000e+04 -3.652783e+02 0.0
-3.755000e+04 -3.648206e+02 0.0
-3.775000e+04 -3.651290e+02 0.0
-3.765000e+04 -3.649764e+02 0.0
-3.745000e+04 -3.646615e+02 0.0
-3.685000e+04 -3.636358e+02 0.0
-3.675000e+04 -3.634527e+02 0.0
-3.665000e+04 -3.632661e+02 0.0
-3.675000e+04 3.634527e+02 0.0
-3.495000e+04 -3.596780e+02 0.0
-3.485000e+04 -3.594575e+02 0.0
-3.475000e+04 -3.592378e+02 0.0
-3.485000e+04 3.594575e+02 0.0
-3.315000e+04 3.560711e+02 0.0
-3.125000e+04 -3.543174e+02 0.0
-3.115000e+04 -3.543118e+02 0.0
-3.105000e+04 -3.543143e+02 0.0
-3.115000e+04 3.543118e+02 0.0
-2.945000e+04 -3.552585e+02 0.0
-2.935000e+04 -3.553618e+02 0.0
-2.925000e+04 -3.554689e+02 0.0
-2.935000e+04 3.553618e+02 0.0
-2.775000e+04 3.573630e+02 0.0
-2.755000e+04 -3.576319e+02 0.0
-2.595000e+04 -3.596391e+02 0.0
-2.425000e+04 -3.614864e+02 0.0
-2.415000e+04 -3.615875e+02 0.0
-2.405000e+04 -3.616877e+02 0.0
-2.415000e+04 3.615875e+02 0.0
-2.255000e+04 -3.631124e+02 0.0
-2.245000e+04 -3.632025e+02 0.0
-2.235000e+04 -3.632921e+02 0.0
-2.245000e+04 3.632025e+02 0.0
-2.085000e+04 -3.645181e+02 0.0
-2.065000e+04 -3.646598e+02 0.0
-1.925000e+04 -3.654473e+02 0.0
-1.915000e+04 -3.654877e+02 0.0
-1.905000e+04 3.655256e+02 0.0
-1.915000e+04 3.654877e+02 0.0
-1.755000e+04 -3.657823e+02 0.0
-1.735000e+04 -3.657765e+02 0.0
-1.745000e+04 3.657802e+02 0.0
-1.595000e+04 -3.656521e+02 0.0
-1.575000e+04 -3.656392e+02 0.0
-1.585000e+04 3.656451e+02 0.0
-1.435000e+04 -3.657786e+02 0.0
-1.425000e+04 -3.658114e+02 0.0
-1.415000e+04 -3.658482e+02 0.0
-1.425000e+04 3.658114e+02 0.0
-1.275000e+04 -3.668066e+02 0.0
-1.265000e+04 -3.668970e+02 0.0
-1.255000e+04 -3.669882e+02 0.0
-1.265000e+04 3.668970e+02 0.0
-1.115000e+04 -3.680952e+02 0.0
-1.105000e+04 -3.681447e+02 0.0
-1.095000e+04 -3.681879e+02 0.0
-1.105000e+04 3.681447e+02 0.0
-9.550000e+03 -3.678871e+02 0.0
-9.450000e+03 -3.677835e+02 0.0
-9.350000e+03 -3.676665e+02 0.0
-9.450000e+03 3.677835e+02 0.0
-8.050000e+03 -3.649594e+02 0.0
-7.950000e+03 -3.646808e+02 0.0
-7.850000e+03 -3.643959e+02 0.0
-7.950000e+03 3.646808e+02 0.0
-6.350000e+03 -3.598655e+02 0.0
-4.950000e+03 -3.567175e+02 0.0
-4.850000e+03 -3.565885e+02 0.0
-4.750000e+03 -3.564763e+02 0.0
-4.850000e+03 3.565885e+02 0.0
-3.350000e+03 -3.566798e+02 0.0
-3.250000e+03 -3.567989e+02 0.0
-1.850000e+03 -3.592553e+02 0.0
-1.750000e+03 -3.594606e+02 0.0
-1.650000e+03 -3.596662e+02 0.0
-1.750000e+03 3.594606e+02 0.0
-3.500000e+02 -3.620754e+02 0.0
-2.500000e+02 -3.622171e+02 0.0
-1.500000e+02 -3.623493e+02 0.0
-2.500000e+02 3.622171e+02 0.0
1.050000e+03 -3.631142e+02 0.0
1.150000e+03 -3.631140e+02 0.0
1.250000e+03 -3.631049e+02 0.0
1.150000e+03 3.631140e+02 0.0
2.550000e+03 -3.622698e+02 0.0
2.650000e+03 -3.621575e+02 0.0
2.750000e+03 -3.620393e+02 0.0
2.650000e+03 3.621575e+02 0.0
4.050000e+03 -3.600628e+02 0.0
4.150000e+03 -3.598839e+02 0.0
4.250000e+03 -3.597023e+02 0.0
4.150000e+03 3.598839e+02 0.0
5.550000e+03 -3.571754e+02 0.0
5.650000e+03 -3.569751e+02 0.0
5.750000e+03 -3.567748e+02 0.0
5.650000e+03 3.569751e+02 0.0
6.950000e+03 -3.544494e+02 0.0
7.050000e+03 -3.542678e+02 0.0
7.150000e+03 -3.540891e+02 0.0
7.050000e+03 3.542678e+02 0.0
8.450000e+03 -3.521057e+02 0.0
8.550000e+03 -3.519860e+02 0.0
8.650000e+03 -3.518719e+02 0.0
8.550000e+03 3.519860e+02 0.0
9.850000e+03 -3.509953e+02 0.0
9.950000e+03 -3.509639e+02 0.0
1.005000e+04 -3.509387e+02 0.0
9.950000e+03 3.509639e+02 0.0
1.125000e+04 -3.510954e+02 0.0
1.135000e+04 -3.511449e+02 0.0
1.145000e+04 -3.511998e+02 0.0
1.135000e+04 3.511449e+02 0.0
1.265000e+04 -3.522528e+02 0.0
1.275000e+04 -3.523716e+02 0.0
1.285000e+04 -3.524949e+02 0.0
1.275000e+04 3.523716e+02 0.0
1.415000e+04 -3.544736e+02 0.0
1.425000e+04 -3.546491e+02 0.0
1.435000e+04 -3.548266e+02 0.0
1.425000e+04 3.546491e+02 0.0
1.555000e+04 -3.569798e+02 0.0
1.565000e+04 -3.571510e+02 0.0
1.575000e+04 -3.573193e+02 0.0
1.565000e+04 3.571510e+02 0.0
1.695000e+04 -3.589929e+02 0.0
1.705000e+04 -3.590933e+02 0.0
1.715000e+04 -3.591860e+02 0.0
1.705000e+04 3.590933e+02 0.0
1.835000e+04 -3.595838e+02 0.0
1.845000e+04 -3.595492e+02 0.0
1.855000e+04 -3.595047e+02 0.0
1.845000e+04 3.595492e+02 0.0
1.975000e+04 -3.584111e+02 0.0
1.985000e+04 -3.582910e+02 0.0
1.995000e+04 -3.581691e+02 0.0
1.985000e+04 3.582910e+02 0.0
2.105000e+04 -3.568777e+02 0.0
2.115000e+04 -3.567799e+02 0.0
2.125000e+04 -3.566879e+02 0.0
2.115000e+04 3.567799e+02 0.0
2.245000e+04 -3.562455e+02 0.0
2.255000e+04 -3.562814e+02 0.0
2.265000e+04 -3.563311e+02 0.0
2.255000e+04 3.562814e+02 0.0
2.385000e+04 -3.579370e+02 0.0
2.395000e+04 -3.581366e+02 0.0
2.405000e+04 -3.583434e+02 0.0
2.395000e+04 3.581366e+02 0.0
2.515000e+04 -3.609093e+02 0.0
2.525000e+04 -3.611526e+02 0.0
2.535000e+04 -3.613947e+02 0.0
2.525000e+04 3.611526e+02 0.0
2.655000e+04 -3.639842e+02 0.0
2.665000e+04 -3.641544e+02 0.0
2.675000e+04 -3.643146e+02 0.0
2.665000e+04 3.641544e+02 0.0
2.795000e+04 -3.652869e+02 0.0
2.805000e+04 -3.652899e+02 0.0
2.815000e+04 -3.652829e+02 0.0
2.805000e+04 3.652899e+02 0.0
2.925000e+04 -3.646928e+02 0.0
2.935000e+04 -3.646057e+02 0.0
2.945000e+04 -3.645153e+02 0.0
2.935000e+04 3.646057e+02 0.0
3.055000e+04 -3.634430e+02 0.0
3.065000e+04 -3.633518e+02 0.0
3.075000e+04 -3.632637e+02 0.0
3.065000e+04 3.633518e+02 0.0
3.195000e+04 -3.626446e+02 0.0
3.215000e+04 -3.626512e+02 0.0
3.205000e+04 3.626436e+02 0.0
3.325000e+04 -3.632261e+02 0.0
3.335000e+04 -3.633162e+02 0.0
3.345000e+04 -3.634116e+02 0.0
3.335000e+04 3.633162e+02 0.0
3.455000e+04 3.647283e+02 0.0
3.595000e+04 -3.667199e+02 0.0
3.605000e+04 -3.668588e+02 0.0
3.615000e+04 -3.669958e+02 0.0
3.605000e+04 3.668588e+02 0.0
3.725000e+04 -3.683349e+02 0.0
3.735000e+04 3.684400e+02 0.0
3.865000e+04 -3.695381e+02 0.0
3.875000e+04 -3.696012e+02 0.0
3.985000e+04 -3.700815e+02 0.0
3.995000e+04 -3.701052e+02 0.0
4.005000e+04 -3.701255e+02 0.0
3.995000e+04 3.701052e+02 0.0
4.115000e+04 -3.701177e+02 0.0
4.135000e+04 3.700720e+02 0.0
4.245000e+04 -3.696694e+02 0.0
4.255000e+04 -3.696258e+02 0.0
4.265000e+04 -3.695819e+02 0.0
4.255000e+04 3.696258e+02 0.0
4.375000e+04 -3.691392e+02 0.0
4.385000e+04 -3.691078e+02 0.0
4.395000e+04 -3.690788e+02 0.0
4.385000e+04 3.691078e+02 0.0
4.505000e+04 -3.689741e+02 0.0
4.515000e+04 -3.689894e+02 0.0
4.525000e+04 -3.690097e+02 0.0
4.515000e+04 3.689894e+02 0.0
4.635000e+04 -3.695046e+02 0.0
4.645000e+04 -3.695572e+02 0.0
4.655000e+04 -3.696078e+02 0.0
4.645000e+04 3.695572e+02 0.0
4.765000e+04 -3.698075e+02 0.0
4.775000e+04 -3.697731e+02 0.0
4.785000e+04 -3.697267e+02 0.0
4.775000e+04 3.697731e+02 0.0
4.895000e+04 -3.681973e+02 0.0
4.915000e+04 -3.676717e+02 0.0
4.905000e+04 3.679456e+02 0.0
4.925000e+04 3.673750e+02 0.0
4.795000e+04 3.696674e+02 0.0
4.665000e+04 3.696555e+02 0.0
4.535000e+04 3.690351e+02 0.0
4.405000e+04 3.690524e+02 0.0
4.275000e+04 3.695380e+02 0.0
4.145000e+04 -3.700449e+02 0.0
4.015000e+04 3.701423e+02 0.0
3.885000e+04 3.696611e+02 0.0
3.755000e+04 -3.686417e+02 0.0
3.625000e+04 3.671308e+02 0.0
3.485000e+04 3.651454e+02 0.0
3.355000e+04 3.635118e+02 0.0
3.225000e+04 3.626671e+02 0.0
3.085000e+04 3.631794e+02 0.0
2.955000e+04 3.644219e+02 0.0
2.825000e+04 3.652665e+02 0.0
2.685000e+04 3.644642e+02 0.0
2.545000e+04 3.616351e+02 0.0
2.415000e+04 3.585568e+02 0.0
2.275000e+04 3.563954e+02 0.0
2.135000e+04 3.566022e+02 0.0
2.005000e+04 3.580460e+02 0.0
1.865000e+04 3.594509e+02 0.0
1.725000e+04 3.592708e+02 0.0
1.585000e+04 3.574844e+02 0.0
1.445000e+04 3.550056e+02 0.0
1.295000e+04 3.526226e+02 0.0
1.155000e+04 3.512600e+02 0.0
1.015000e+04 3.509195e+02 0.0
8.750000e+03 3.517637e+02 0.0
7.250000e+03 3.539133e+02 0.0
5.850000e+03 3.565748e+02 0.0
4.350000e+03 3.595181e+02 0.0
2.850000e+03 3.619155e+02 0.0
1.350000e+03 3.630871e+02 0.0
-5.000000e+01 3.624711e+02 0.0
-1.550000e+03 3.598717e+02 0.0
-3.150000e+03 3.569283e+02 0.0
-4.650000e+03 3.563815e+02 0.0
-6.150000e+03 3.593012e+02 0.0
-7.750000e+03 3.641053e+02 0.0
-9.250000e+03 3.675358e+02 0.0
-1.085000e+04 3.682243e+02 0.0
-1.245000e+04 3.670797e+02 0.0
-1.405000e+04 3.658891e+02 0.0
-1.565000e+04 3.656347e+02 0.0
-1.725000e+04 3.657713e+02 0.0
-2.055000e+04 3.647282e+02 0.0
-2.225000e+04 3.633808e+02 0.0
-2.395000e+04 3.617873e+02 0.0
-2.565000e+04 3.599845e+02 0.0
-2.745000e+04 3.577656e+02 0.0
-2.915000e+04 3.555794e+02 0.0
-3.095000e+04 3.543246e+02 0.0
-3.285000e+04 3.556062e+02 0.0
-3.465000e+04 3.590192e+02 0.0
-3.655000e+04 3.630760e+02 0.0
-3.735000e+04 3.644990e+02 0.0
-3.865000e+04 3.663590e+02 0.0
-3.875000e+04 -3.664803e+02 0.0
-3.885000e+04 3.665987e+02 0.0
-3.895000e+04 -3.667141e+02 0.0
-4.005000e+04 3.677977e+02 0.0
-4.015000e+04 -3.678801e+02 0.0
-4.025000e+04 3.679599e+02 0.0
-4.035000e+04 -3.680371e+02 0.0
-4.145000e+04 3.687259e+02 0.0
-4.155000e+04 -3.687742e+02 0.0
-4.165000e+04 3.688200e+02 0.0
-4.175000e+04 -3.688634e+02 0.0
-4.285000e+04 3.691770e+02 0.0
-4.295000e+04 -3.691904e+02 0.0
-4.305000e+04 3.692012e+02 0.0
-4.315000e+04 -3.692094e+02 0.0
-4.425000e+04 3.691268e+02 0.0
-4.435000e+04 -3.691032e+02 0.0
-4.445000e+04 3.690770e+02 0.0
-4.455000e+04 -3.690480e+02 0.0
-4.585000e+04 3.684220e+02 0.0
-4.595000e+04 -3.683567e+02 0.0
-4.605000e+04 3.682899e+02 0.0
-4.615000e+04 -3.682220e+02 0.0
-4.725000e+04 3.674762e+02 0.0
-4.735000e+04 -3.674157e+02 0.0
-4.745000e+04 3.673577e+02 0.0
-4.755000e+04 -3.673023e+02 0.0
-4.865000e+04 3.669513e+02 0.0
-4.875000e+04 -3.669500e+02 0.0
-4.885000e+04 3.669550e+02 0.0
-4.895000e+04 -3.669665e+02 0.0
-4.950941e+04 2.345488e+02 0.0
-4.965215e+04 -3.596154e+02 0.0
-4.963327e+04 -2.013355e+02 0.0
-3.725000e+04 -3.643332e+02 0.0
-3.760000e+04 -2.333328e+02 0.0
-3.715000e+04 3.641640e+02 0.0
-3.750000e+04 -2.332321e+02 0.0
-3.705000e+04 -3.639914e+02 0.0
-3.740000e+04 -2.331293e+02 0.0
-3.685000e+04 1.174364e+02 0.0
-3.680000e+04 2.324669e+02 0.0
-3.690000e+04 2.325828e+02 0.0
-3.730000e+04 -2.330244e+02 0.0
-3.670000e+04 2.323487e+02 0.0
-4.950965e+04 -2.298606e+02 0.0
-3.645000e+04 3.628823e+02 0.0
-4.940000e+04 -2.347451e+02 0.0
-3.635000e+04 3.626849e+02 0.0
-3.625000e+04 3.624840e+02 0.0
-3.615000e+04 3.622798e+02 0.0
-3.605000e+04 3.620725e+02 0.0
-4.900000e+04 -2.346603e+02 0.0
-3.595000e+04 3.618626e+02 0.0
-4.890000e+04 -2.346507e+02 0.0
-3.585000e+04 -3.616502e+02 0.0
-3.620000e+04 -2.317236e+02 0.0
-4.880000e+04 -2.346454e+02 0.0
-3.575000e+04 3.614357e+02 0.0
-3.610000e+04 -2.315920e+02 0.0
-3.565000e+04 -3.612194e+02 0.0
-3.600000e+04 -2.314586e+02 0.0
-3.555000e+04 3.610015e+02 0.0
-3.590000e+04 -2.313235e+02 0.0
-3.545000e+04 3.607823e+02 0.0
-3.535000e+04 3.605622e+02 0.0
-4.830000e+04 -2.346773e+02 0.0
-3.525000e+04 3.603414e+02 0.0
-3.515000e+04 3.601203e+02 0.0
-3.495000e+04 1.161582e+02 0.0
-3.490000e+04 2.299238e+02 0.0
-3.500000e+04 2.300650e+02 0.0
-3.455000e+04 3.588020e+02 0.0
-4.760000e+04 -2.348527e+02 0.0
-3.445000e+04 3.585865e+02 0.0
-3.480000e+04 -2.297830e+02 0.0
-4.750000e+04 -2.348871e+02 0.0
-3.435000e+04 -3.583729e+02 0.0
-3.470000e+04 -2.296429e+02 0.0
-4.740000e+04 -2.349234e+02 0.0
-3.425000e+04 3.581616e+02 0.0
-3.460000e+04 -2.295035e+02 0.0
-3.415000e+04 -3.579529e+02 0.0
-3.405000e+04 3.577470e+02 0.0
-3.440000e+04 -2.292279e+02 0.0
-3.395000e+04 3.575443e+02 0.0
-3.385000e+04 3.573450e+02 0.0
-4.690000e+04 -2.351258e+02 0.0
-3.375000e+04 3.571495e+02 0.0
-3.365000e+04 3.569580e+02 0.0
-3.355000e+04 3.567708e+02 0.0
-3.345000e+04 3.565882e+02 0.0
-3.335000e+04 3.564105e+02 0.0
-3.325000e+04 3.562381e+02 0.0
-4.620000e+04 -2.354358e+02 0.0
-3.315000e+04 -3.560711e+02 0.0
-3.340000e+04 -2.279614e+02 0.0
-3.315000e+04 1.149934e+02 0.0
-3.310000e+04 2.276359e+02 0.0
-3.320000e+04 2.277409e+02 0.0
-4.610000e+04 -2.354795e+02 0.0
-4.600000e+04 -2.355226e+02 0.0
-3.275000e+04 -3.554641e+02 0.0
-3.295000e+04 -3.557549e+02 0.0
-3.265000e+04 3.553290e+02 0.0
-3.300000e+04 -2.275348e+02 0.0
-3.255000e+04 3.552012e+02 0.0
-3.245000e+04 3.550810e+02 0.0
-4.560000e+04 -2.356848e+02 0.0
-3.235000e+04 3.549686e+02 0.0
-3.225000e+04 3.548643e+02 0.0
-3.215000e+04 3.547684e+02 0.0
-3.205000e+04 3.546813e+02 0.0
-3.195000e+04 3.546032e+02 0.0
-3.185000e+04 3.545344e+02 0.0
-3.175000e+04 3.544752e+02 0.0
-3.165000e+04 3.544255e+02 0.0
-3.200000e+04 -2.267735e+02 0.0
-3.155000e+04 -3.543852e+02 0.0
-3.190000e+04 -2.267265e+02 0.0
-3.145000e+04 3.543538e+02 0.0
-3.180000e+04 -2.266856e+02 0.0
-4.460000e+04 -2.359760e+02 0.0
-4.450000e+04 -2.359954e+02 0.0
-3.135000e+04 3.543313e+02 0.0
-3.160000e+04 -2.266220e+02 0.0
-3.135000e+04 -3.543313e+02 0.0
-4.440000e+04 -2.360131e+02 0.0
-3.110000e+04 2.265631e+02 0.0
-3.085000e+04 3.543425e+02 0.0
-3.075000e+04 3.543679e+02 0.0
-3.065000e+04 3.544003e+02 0.0
-3.055000e+04 3.544397e+02 0.0
-3.045000e+04 3.544857e+02 0.0
-3.035000e+04 3.545381e+02 0.0
-3.025000e+04 3.545967e+02 0.0
-3.060000e+04 -2.266316e+02 0.0
-3.015000e+04 -3.546612e+02 0.0
-3.050000e+04 -2.266589e+02 0.0
-3.005000e+04 3.547314e+02 0.0
-3.040000e+04 -2.266904e+02 0.0
-2.995000e+04 -3.548070e+02 0.0
-4.320000e+04 -2.360912e+02 0.0
-2.985000e+04 3.548878e+02 0.0
-3.020000e+04 -2.267652e+02 0.0
-4.310000e+04 -2.360867e+02 0.0
-2.975000e+04 3.549737e+02 0.0
-4.300000e+04 -2.360806e+02 0.0
-2.965000e+04 3.550642e+02 0.0
-2.940000e+04 2.272010e+02 0.0
-2.930000e+04 2.272683e+02 0.0
-2.945000e+04 1.147309e+02 0.0
-2.950000e+04 2.271362e+02 0.0
-2.905000e+04 3.556933e+02 0.0
-2.895000e+04 3.558102e+02 0.0
-2.885000e+04 3.559299e+02 0.0
-2.920000e+04 -2.273379e+02 0.0
-2.875000e+04 -3.560522e+02 0.0
-2.910000e+04 -2.274097e+02 0.0
-2.865000e+04 3.561768e+02 0.0
-2.900000e+04 -2.274835e+02 0.0
-2.855000e+04 -3.563035e+02 0.0
-2.845000e+04 3.564320e+02 0.0
-2.880000e+04 -2.276365e+02 0.0
-4.180000e+04 -2.358811e+02 0.0
-2.835000e+04 3.565621e+02 0.0
-4.170000e+04 -2.358542e+02 0.0
-2.825000e+04 3.566936e+02 0.0
-4.160000e+04 -2.358257e+02 0.0
-2.815000e+04 3.568262e+02 0.0
-2.805000e+04 3.569597e+02 0.0
-2.795000e+04 3.570938e+02 0.0
-2.785000e+04 3.572283e+02 0.0
-2.775000e+04 -3.573630e+02 0.0
-2.735000e+04 -3.578985e+02 0.0
-2.770000e+04 -2.285571e+02 0.0
-2.725000e+04 3.580304e+02 0.0
-2.760000e+04 -2.286431e+02 0.0
-2.715000e+04 -3.581611e+02 0.0
-2.705000e+04 3.582905e+02 0.0
-2.740000e+04 -2.288140e+02 0.0
-2.695000e+04 3.584188e+02 0.0
-4.040000e+04 -2.353636e+02 0.0
-2.685000e+04 3.585459e+02 0.0
-4.030000e+04 -2.353150e+02 0.0
-2.675000e+04 3.586718e+02 0.0
-4.020000e+04 -2.352648e+02 0.0
-2.665000e+04 3.587966e+02 0.0
-2.655000e+04 3.589202e+02 0.0
-2.645000e+04 3.590427e+02 0.0
-2.635000e+04 3.591642e+02 0.0
-2.625000e+04 3.592845e+02 0.0
-2.615000e+04 3.594038e+02 0.0
-2.640000e+04 -2.296270e+02 0.0
-2.630000e+04 -2.297043e+02 0.0
-2.590000e+04 2.300067e+02 0.0
-2.620000e+04 -2.297809e+02 0.0
-2.555000e+04 3.600977e+02 0.0
-2.575000e+04 -3.598704e+02 0.0
-2.545000e+04 3.602099e+02 0.0
-3.900000e+04 -2.345297e+02 0.0
-2.535000e+04 3.603211e+02 0.0
-3.890000e+04 -2.344568e+02 0.0
-2.525000e+04 3.604314e+02 0.0
-3.880000e+04 -2.343821e+02 0.0
-2.515000e+04 3.605408e+02 0.0
-2.505000e+04 3.606493e+02 0.0
-2.495000e+04 3.607569e+02 0.0
-2.485000e+04 3.608636e+02 0.0
-2.475000e+04 3.609694e+02 0.0
-2.465000e+04 3.610745e+02 0.0
-2.455000e+04 -3.611786e+02 0.0
-2.490000e+04 -2.307184e+02 0.0
-2.445000e+04 3.612820e+02 0.0
-2.480000e+04 -2.307864e+02 0.0
-2.470000e+04 -2.308538e+02 0.0
-2.435000e+04 3.613846e+02 0.0
-2.460000e+04 -2.309207e+02 0.0
-2.435000e+04 -3.613846e+02 0.0
-2.410000e+04 2.312474e+02 0.0
-3.750000e+04 2.332321e+02 0.0
-2.385000e+04 3.618861e+02 0.0
-3.740000e+04 2.331293e+02 0.0
-2.375000e+04 3.619843e+02 0.0
-3.730000e+04 2.330244e+02 0.0
-2.365000e+04 3.620817e+02 0.0
-3.720000e+04 2.329173e+02 0.0
-2.355000e+04 3.621785e+02 0.0
-2.345000e+04 3.622746e+02 0.0
-3.710000e+04 2.328080e+02 0.0
-2.335000e+04 3.623700e+02 0.0
-3.700000e+04 2.326965e+02 0.0
-2.325000e+04 3.624649e+02 0.0
-2.315000e+04 -3.625591e+02 0.0
-2.350000e+04 -2.316240e+02 0.0
-2.305000e+04 3.626527e+02 0.0
-2.340000e+04 -2.316853e+02 0.0
-2.295000e+04 -3.627458e+02 0.0
-2.330000e+04 -2.317461e+02 0.0
-3.660000e+04 2.322282e+02 0.0
-2.285000e+04 3.628382e+02 0.0
-2.320000e+04 -2.318065e+02 0.0
-3.650000e+04 2.321055e+02 0.0
-2.275000e+04 3.629302e+02 0.0
-3.640000e+04 2.319805e+02 0.0
-3.630000e+04 2.318531e+02 0.0
-3.610000e+04 2.315920e+02 0.0
-2.250000e+04 2.322193e+02 0.0
-2.240000e+04 2.322768e+02 0.0
-2.255000e+04 1.172673e+02 0.0
-2.260000e+04 2.321614e+02 0.0
-3.600000e+04 2.314586e+02 0.0
-3.590000e+04 2.313235e+02 0.0
-2.215000e+04 3.634688e+02 0.0
-3.580000e+04 2.311870e+02 0.0
-2.205000e+04 3.635560e+02 0.0
-2.195000e+04 3.636423e+02 0.0
-3.570000e+04 2.310492e+02 0.0
-2.185000e+04 3.637276e+02 0.0
-2.220000e+04 -2.323903e+02 0.0
-3.560000e+04 2.309104e+02 0.0
-2.175000e+04 3.638120e+02 0.0
-2.210000e+04 -2.324463e+02 0.0
-3.550000e+04 2.307706e+02 0.0
-2.165000e+04 -3.638953e+02 0.0
-2.200000e+04 -2.325018e+02 0.0
-3.540000e+04 2.306302e+02 0.0
-2.155000e+04 3.639775e+02 0.0
-3.530000e+04 2.304892e+02 0.0
-2.145000e+04 -3.640586e+02 0.0
-3.520000e+04 2.303479e+02 0.0
-2.135000e+04 3.641385e+02 0.0
-2.170000e+04 -2.326645e+02 0.0
-3.510000e+04 2.302064e+02 0.0
-2.125000e+04 3.642171e+02 0.0
-2.115000e+04 3.642944e+02 0.0
-2.105000e+04 3.643704e+02 0.0
-3.470000e+04 2.296429e+02 0.0
-3.460000e+04 2.295035e+02 0.0
-3.450000e+04 2.293651e+02 0.0
-3.430000e+04 2.290920e+02 0.0
-2.045000e+04 3.647950e+02 0.0
-2.080000e+04 -2.331123e+02 0.0
-2.035000e+04 3.648600e+02 0.0
-2.070000e+04 -2.331576e+02 0.0
-3.420000e+04 2.289577e+02 0.0
-2.025000e+04 -3.649233e+02 0.0
-2.060000e+04 -2.332019e+02 0.0
-3.410000e+04 2.288252e+02 0.0
-2.015000e+04 3.649847e+02 0.0
-3.400000e+04 2.286945e+02 0.0
-2.005000e+04 -3.650443e+02 0.0
-3.390000e+04 2.285659e+02 0.0
-1.995000e+04 3.651020e+02 0.0
-2.030000e+04 -2.333283e+02 0.0
-3.380000e+04 2.284397e+02 0.0
-1.985000e+04 3.651577e+02 0.0
-3.370000e+04 2.283159e+02 0.0
-1.975000e+04 3.652113e+02 0.0
-2.010000e+04 -2.334069e+02 0.0
-3.360000e+04 2.281948e+02 0.0
-1.965000e+04 3.652629e+02 0.0
-3.350000e+04 2.280766e+02 0.0
-1.955000e+04 3.653123e+02 0.0
-3.330000e+04 2.278494e+02 0.0
-1.945000e+04 3.653596e+02 0.0
-3.330000e+04 -2.278494e+02 0.0
-3.320000e+04 -2.277409e+02 0.0
-1.920000e+04 2.336966e+02 0.0
-1.910000e+04 2.337216e+02 0.0
-1.925000e+04 1.180214e+02 0.0
-1.930000e+04 2.336700e+02 0.0
-3.290000e+04 2.274376e+02 0.0
-1.885000e+04 -3.655942e+02 0.0
-3.280000e+04 2.273446e+02 0.0
-1.875000e+04 3.656247e+02 0.0
-1.910000e+04 -2.337216e+02 0.0
-3.270000e+04 2.272560e+02 0.0
-1.865000e+04 3.656526e+02 0.0
-1.900000e+04 -2.337451e+02 0.0
-3.260000e+04 2.271720e+02 0.0
-1.855000e+04 3.656778e+02 0.0
-1.890000e+04 -2.337671e+02 0.0
-3.250000e+04 2.270926e+02 0.0
-1.845000e+04 3.657004e+02 0.0
-1.880000e+04 -2.337874e+02 0.0
-3.240000e+04 2.270182e+02 0.0
-1.835000e+04 3.657201e+02 0.0
-3.230000e+04 2.269489e+02 0.0
-1.825000e+04 3.657371e+02 0.0
-3.220000e+04 2.268849e+02 0.0
-1.815000e+04 3.657512e+02 0.0
-3.210000e+04 2.268264e+02 0.0
-1.805000e+04 3.657625e+02 0.0
-3.190000e+04 2.267265e+02 0.0
-1.795000e+04 3.657711e+02 0.0
-3.180000e+04 2.266856e+02 0.0
-1.785000e+04 3.657772e+02 0.0
-3.170000e+04 2.266508e+02 0.0
-1.775000e+04 3.657810e+02 0.0
-3.150000e+04 2.265991e+02 0.0
-1.765000e+04 3.657826e+02 0.0
-1.750000e+04 2.338972e+02 0.0
-1.740000e+04 2.338953e+02 0.0
-3.140000e+04 2.265819e+02 0.0
-1.715000e+04 3.657648e+02 0.0
-1.705000e+04 3.657573e+02 0.0
-1.695000e+04 3.657488e+02 0.0
-3.100000e+04 2.265672e+02 0.0
-1.685000e+04 3.657396e+02 0.0
-3.090000e+04 2.265763e+02 0.0
-1.675000e+04 3.657299e+02 0.0
-3.080000e+04 2.265901e+02 0.0
-1.665000e+04 3.657197e+02 0.0
-3.070000e+04 2.266086e+02 0.0
-1.655000e+04 3.657093e+02 0.0
-3.050000e+04 2.266589e+02 0.0
-1.645000e+04 3.656989e+02 0.0
-3.040000e+04 2.266904e+02 0.0
-1.635000e+04 3.656885e+02 0.0
-3.030000e+04 2.267259e+02 0.0
-1.625000e+04 3.656785e+02 0.0
-1.615000e+04 3.656690e+02 0.0
-3.010000e+04 2.268083e+02 0.0
-1.605000e+04 -3.656602e+02 0.0
-3.000000e+04 2.268550e+02 0.0
-1.620000e+04 -2.338283e+02 0.0
-2.990000e+04 2.269050e+02 0.0
-2.980000e+04 2.269583e+02 0.0
-1.555000e+04 3.656317e+02 0.0
-1.590000e+04 -2.338121e+02 0.0
-2.970000e+04 2.270147e+02 0.0
-1.545000e+04 3.656304e+02 0.0
-2.960000e+04 2.270741e+02 0.0
-1.535000e+04 3.656310e+02 0.0
-1.525000e+04 3.656337e+02 0.0
-1.515000e+04 3.656385e+02 0.0
-1.505000e+04 3.656458e+02 0.0
-2.910000e+04 2.274097e+02 0.0
-1.495000e+04 3.656557e+02 0.0
-2.900000e+04 2.274835e+02 0.0
-1.485000e+04 3.656683e+02 0.0
-2.890000e+04 2.275591e+02 0.0
-1.475000e+04 -3.656838e+02 0.0
-1.465000e+04 3.657024e+02 0.0
-2.870000e+04 2.277155e+02 0.0
-1.455000e+04 3.657243e+02 0.0
-2.860000e+04 2.277958e+02 0.0
-1.470000e+04 -2.338404e+02 0.0
-2.850000e+04 2.278774e+02 0.0
-1.430000e+04 2.339055e+02 0.0
-1.420000e+04 2.339277e+02 0.0
-1.435000e+04 1.181284e+02 0.0
-1.440000e+04 2.338858e+02 0.0
-2.840000e+04 2.279602e+02 0.0
-2.830000e+04 2.280438e+02 0.0
-1.395000e+04 3.659343e+02 0.0
-2.820000e+04 2.281283e+02 0.0
-1.385000e+04 3.659840e+02 0.0
-2.810000e+04 2.282134e+02 0.0
-1.375000e+04 3.660384e+02 0.0
-2.800000e+04 2.282989e+02 0.0
-1.365000e+04 3.660976e+02 0.0
-2.790000e+04 2.283849e+02 0.0
-1.355000e+04 3.661618e+02 0.0
-2.780000e+04 -2.284710e+02 0.0
-1.345000e+04 3.662307e+02 0.0
-1.335000e+04 3.663038e+02 0.0
-2.750000e+04 2.287288e+02 0.0
-1.315000e+04 -3.664609e+02 0.0
-2.730000e+04 2.288987e+02 0.0
-1.305000e+04 3.665440e+02 0.0
-1.340000e+04 -2.342075e+02 0.0
-1.295000e+04 3.666297e+02 0.0
-1.330000e+04 -2.342554e+02 0.0
-2.720000e+04 2.289827e+02 0.0
-1.320000e+04 -2.343057e+02 0.0
-2.710000e+04 2.290658e+02 0.0
-1.310000e+04 -2.343580e+02 0.0
-2.700000e+04 2.291482e+02 0.0
-1.270000e+04 2.345815e+02 0.0
-1.260000e+04 2.346396e+02 0.0
-1.275000e+04 1.184604e+02 0.0
-1.280000e+04 2.345240e+02 0.0
-2.690000e+04 2.292299e+02 0.0
-2.680000e+04 2.293108e+02 0.0
-1.235000e+04 3.671709e+02 0.0
-2.670000e+04 2.293909e+02 0.0
-1.225000e+04 3.672617e+02 0.0
-2.660000e+04 2.294703e+02 0.0
-1.215000e+04 3.673513e+02 0.0
-2.650000e+04 2.295490e+02 0.0
-1.205000e+04 3.674395e+02 0.0
-2.630000e+04 2.297043e+02 0.0
-1.195000e+04 -3.675259e+02 0.0
-2.620000e+04 2.297809e+02 0.0
-1.185000e+04 3.676098e+02 0.0
-2.610000e+04 2.298568e+02 0.0
-1.175000e+04 3.676910e+02 0.0
-1.165000e+04 3.677690e+02 0.0
-2.600000e+04 -2.299321e+02 0.0
-1.155000e+04 3.678433e+02 0.0
-1.190000e+04 -2.350397e+02 0.0
-1.145000e+04 3.679135e+02 0.0
-1.135000e+04 3.679792e+02 0.0
-2.570000e+04 2.301539e+02 0.0
-2.560000e+04 2.302266e+02 0.0
-2.550000e+04 2.302986e+02 0.0
-1.110000e+04 2.353930e+02 0.0
-1.100000e+04 2.354226e+02 0.0
-1.115000e+04 1.188766e+02 0.0
-1.120000e+04 2.353595e+02 0.0
-2.540000e+04 2.303701e+02 0.0
-2.530000e+04 2.304409e+02 0.0
-1.075000e+04 3.682536e+02 0.0
-2.520000e+04 2.305111e+02 0.0
-1.065000e+04 3.682753e+02 0.0
-2.510000e+04 2.305808e+02 0.0
-1.055000e+04 3.682890e+02 0.0
-2.500000e+04 2.306499e+02 0.0
-2.480000e+04 2.307864e+02 0.0
-1.035000e+04 -3.682904e+02 0.0
-2.470000e+04 2.308538e+02 0.0
-1.025000e+04 3.682773e+02 0.0
-2.460000e+04 2.309207e+02 0.0
-1.015000e+04 3.682545e+02 0.0
-1.050000e+04 -2.355029e+02 0.0
-2.450000e+04 2.309870e+02 0.0
-1.005000e+04 3.682214e+02 0.0
-1.040000e+04 -2.355034e+02 0.0
-9.950000e+03 3.681776e+02 0.0
-2.440000e+04 2.310529e+02 0.0
-9.850000e+03 3.681227e+02 0.0
-9.750000e+03 3.680563e+02 0.0
-2.400000e+04 2.313113e+02 0.0
-9.500000e+03 2.352115e+02 0.0
-9.400000e+03 2.351410e+02 0.0
-9.549996e+03 1.188094e+02 0.0
-9.600000e+03 2.352737e+02 0.0
-2.390000e+04 2.313748e+02 0.0
-2.380000e+04 2.314377e+02 0.0
-9.150000e+03 3.673910e+02 0.0
-2.370000e+04 2.315003e+02 0.0
-9.050000e+03 -3.672315e+02 0.0
-2.360000e+04 2.315623e+02 0.0
-8.950000e+03 3.670575e+02 0.0
-2.340000e+04 2.316853e+02 0.0
-8.850000e+03 3.668697e+02 0.0
-2.330000e+04 2.317461e+02 0.0
-8.750000e+03 3.666689e+02 0.0
-2.320000e+04 2.318065e+02 0.0
-8.650000e+03 3.664557e+02 0.0
-9.000000e+03 -2.347699e+02 0.0
-2.310000e+04 2.318666e+02 0.0
-8.550000e+03 3.662309e+02 0.0
-8.450000e+03 3.659953e+02 0.0
-2.300000e+04 2.319263e+02 0.0
-8.350000e+03 3.657496e+02 0.0
-2.290000e+04 2.319856e+02 0.0
-8.250000e+03 3.654946e+02 0.0
-2.280000e+04 2.320446e+02 0.0
-2.270000e+04 2.321032e+02 0.0
-8.000000e+03 2.332830e+02 0.0
-7.900000e+03 2.331027e+02 0.0
-8.049996e+03 1.178639e+02 0.0
-8.100000e+03 2.334589e+02 0.0
-2.230000e+04 2.323338e+02 0.0
-7.550000e+03 -3.635103e+02 0.0
-2.210000e+04 2.324463e+02 0.0
-7.450000e+03 3.632074e+02 0.0
-7.800000e+03 -2.329187e+02 0.0
-2.200000e+04 2.325018e+02 0.0
-7.350000e+03 3.629018e+02 0.0
-7.700000e+03 -2.327313e+02 0.0
-2.190000e+04 2.325566e+02 0.0
-7.250000e+03 3.625944e+02 0.0
-7.600000e+03 -2.325410e+02 0.0
-7.150000e+03 3.622858e+02 0.0
-7.500000e+03 -2.323483e+02 0.0
-2.180000e+04 2.326109e+02 0.0
-7.050000e+03 3.619768e+02 0.0
-2.160000e+04 2.327174e+02 0.0
-6.950000e+03 3.616682e+02 0.0
-6.850000e+03 3.613606e+02 0.0
-2.150000e+04 2.327697e+02 0.0
-6.750000e+03 3.610549e+02 0.0
-2.140000e+04 2.328211e+02 0.0
-6.650000e+03 3.607518e+02 0.0
-2.130000e+04 2.328718e+02 0.0
-2.120000e+04 2.329217e+02 0.0
-6.550000e+03 3.604521e+02 0.0
-2.110000e+04 2.329707e+02 0.0
-6.450000e+03 -3.601564e+02 0.0
-6.449996e+03 1.163127e+02 0.0
-6.500000e+03 2.303944e+02 0.0
-2.100000e+04 2.330188e+02 0.0
-6.050000e+03 3.590293e+02 0.0
-6.250000e+03 -3.595802e+02 0.0
-2.070000e+04 2.331576e+02 0.0
-5.950000e+03 3.587652e+02 0.0
-2.060000e+04 2.332019e+02 0.0
-5.850000e+03 3.585096e+02 0.0
-6.200000e+03 -2.298420e+02 0.0
-2.050000e+04 2.332451e+02 0.0
-5.750000e+03 3.582634e+02 0.0
-5.650000e+03 3.580271e+02 0.0
-2.040000e+04 2.332873e+02 0.0
-5.550000e+03 3.578017e+02 0.0
-2.020000e+04 2.333682e+02 0.0
-5.450000e+03 3.575878e+02 0.0
-5.350000e+03 3.573862e+02 0.0
-2.000000e+04 2.334444e+02 0.0
-5.250000e+03 3.571976e+02 0.0
-5.150000e+03 3.570228e+02 0.0
-1.990000e+04 2.334806e+02 0.0
-1.980000e+04 2.335156e+02 0.0
-1.970000e+04 2.335492e+02 0.0
-4.949996e+03 1.152021e+02 0.0
-4.900000e+03 2.280587e+02 0.0
-5.000000e+03 2.281464e+02 0.0
-1.960000e+04 2.335815e+02 0.0
-1.950000e+04 2.336124e+02 0.0
-4.550000e+03 3.563050e+02 0.0
-4.900000e+03 -2.280587e+02 0.0
-1.940000e+04 2.336419e+02 0.0
-4.450000e+03 3.562473e+02 0.0
-4.800000e+03 -2.279815e+02 0.0
-4.350000e+03 3.562080e+02 0.0
-4.250000e+03 3.561864e+02 0.0
-1.900000e+04 2.337451e+02 0.0
-4.150000e+03 3.561818e+02 0.0
-1.890000e+04 2.337671e+02 0.0
-4.050000e+03 3.561937e+02 0.0
-1.880000e+04 2.337874e+02 0.0
-3.950000e+03 3.562213e+02 0.0
-1.870000e+04 2.338061e+02 0.0
-3.850000e+03 3.562639e+02 0.0
-3.750000e+03 3.563210e+02 0.0
-1.860000e+04 2.338230e+02 0.0
-3.650000e+03 -3.563917e+02 0.0
-1.850000e+04 2.338383e+02 0.0
-3.449996e+03 1.151551e+02 0.0
-3.500000e+03 2.279764e+02 0.0
-1.840000e+04 2.338518e+02 0.0
-3.550000e+03 3.564756e+02 0.0
-1.830000e+04 2.338636e+02 0.0
-3.450000e+03 -3.565718e+02 0.0
-3.700000e+03 -2.278692e+02 0.0
-1.820000e+04 2.338735e+02 0.0
-1.810000e+04 2.338816e+02 0.0
-3.050000e+03 3.570675e+02 0.0
-3.400000e+03 -2.280417e+02 0.0
-1.800000e+04 2.338880e+02 0.0
-2.950000e+03 3.572158e+02 0.0
-3.300000e+03 -2.281144e+02 0.0
-1.790000e+04 2.338927e+02 0.0
-2.850000e+03 3.573725e+02 0.0
-1.780000e+04 2.338958e+02 0.0
-2.750000e+03 3.575369e+02 0.0
-1.770000e+04 2.338975e+02 0.0
-2.650000e+03 3.577084e+02 0.0
-2.550000e+03 3.578863e+02 0.0
-2.450000e+03 3.580700e+02 0.0
-2.350000e+03 3.582587e+02 0.0
-1.730000e+04 2.338924e+02 0.0
-2.250000e+03 3.584519e+02 0.0
-1.720000e+04 2.338887e+02 0.0
-2.150000e+03 3.586488e+02 0.0
-1.710000e+04 2.338842e+02 0.0
-1.700000e+04 2.338791e+02 0.0
-1.690000e+04 2.338734e+02 0.0
-1.950000e+03 3.590512e+02 0.0
-2.200000e+03 -2.292730e+02 0.0
-1.950000e+03 -3.590512e+02 0.0
-1.680000e+04 2.338673e+02 0.0
-1.800000e+03 2.297896e+02 0.0
-1.700000e+03 2.299210e+02 0.0
-2.100000e+03 -2.293999e+02 0.0
-1.670000e+04 2.338609e+02 0.0
-1.660000e+04 2.338543e+02 0.0
-1.450000e+03 3.600762e+02 0.0
-1.650000e+04 2.338477e+02 0.0
-1.350000e+03 3.602791e+02 0.0
-1.640000e+04 2.338410e+02 0.0
-1.250000e+03 3.604798e+02 0.0
-1.630000e+04 2.338345e+02 0.0
-1.150000e+03 3.606776e+02 0.0
-1.610000e+04 2.338224e+02 0.0
-1.050000e+03 3.608718e+02 0.0
-1.610000e+04 -2.338224e+02 0.0
-9.500000e+02 3.610618e+02 0.0
-1.600000e+04 -2.338169e+02 0.0
-8.500000e+02 3.612469e+02 0.0
-1.580000e+04 2.338080e+02 0.0
-7.500000e+02 3.614264e+02 0.0
-6.500000e+02 -3.615997e+02 0.0
-1.570000e+04 2.338046e+02 0.0
-5.500000e+02 3.617661e+02 0.0
-1.560000e+04 2.338022e+02 0.0
-1.550000e+04 2.338008e+02 0.0
-1.540000e+04 2.338006e+02 0.0
-3.000000e+02 2.315734e+02 0.0
-2.000000e+02 2.316610e+02 0.0
-6.000000e+02 -2.312769e+02 0.0
-3.499958e+02 1.169325e+02 0.0
-4.000000e+02 2.314799e+02 0.0
-1.530000e+04 2.338016e+02 0.0
-1.520000e+04 2.338040e+02 0.0
5.000000e+01 3.625822e+02 0.0
-1.510000e+04 2.338079e+02 0.0
1.500000e+02 3.626821e+02 0.0
-1.500000e+04 2.338134e+02 0.0
2.500000e+02 3.627711e+02 0.0
-1.490000e+04 2.338205e+02 0.0
3.500000e+02 3.628493e+02 0.0
-1.480000e+04 2.338295e+02 0.0
4.500000e+02 3.629171e+02 0.0
-1.460000e+04 2.338533e+02 0.0
5.500000e+02 3.629745e+02 0.0
6.500000e+02 3.630219e+02 0.0
-1.450000e+04 2.338684e+02 0.0
8.500000e+02 -3.630870e+02 0.0
1.050004e+03 1.172679e+02 0.0
1.100000e+03 2.321922e+02 0.0
1.000000e+03 2.321894e+02 0.0
6.000000e+02 -2.321182e+02 0.0
7.000000e+02 -2.321453e+02 0.0
-1.410000e+04 2.339525e+02 0.0
1.200000e+03 2.321892e+02 0.0
8.000000e+02 -2.321661e+02 0.0
-1.400000e+04 2.339801e+02 0.0
-1.390000e+04 2.340104e+02 0.0
1.450000e+03 3.630609e+02 0.0
-1.380000e+04 2.340437e+02 0.0
1.550000e+03 3.630263e+02 0.0
-1.370000e+04 2.340800e+02 0.0
1.650000e+03 3.629837e+02 0.0
-1.360000e+04 2.341195e+02 0.0
1.750000e+03 3.629332e+02 0.0
-1.350000e+04 2.341620e+02 0.0
1.850000e+03 3.628750e+02 0.0
-1.330000e+04 2.342554e+02 0.0
1.950000e+03 3.628094e+02 0.0
-1.320000e+04 2.343057e+02 0.0
2.050000e+03 3.627364e+02 0.0
-1.310000e+04 2.343580e+02 0.0
2.150000e+03 -3.626564e+02 0.0
-1.300000e+04 2.344120e+02 0.0
2.250000e+03 3.625696e+02 0.0
2.350000e+03 3.624760e+02 0.0
-1.290000e+04 2.344674e+02 0.0
2.200000e+03 -2.318716e+02 0.0
2.600000e+03 2.316162e+02 0.0
2.700000e+03 2.315425e+02 0.0
2.550004e+03 1.169952e+02 0.0
2.500000e+03 2.316861e+02 0.0
-1.250000e+04 2.346980e+02 0.0
2.950000e+03 3.617862e+02 0.0
-1.240000e+04 2.347565e+02 0.0
3.050000e+03 3.616517e+02 0.0
-1.230000e+04 2.348147e+02 0.0
3.150000e+03 3.615122e+02 0.0
-1.220000e+04 2.348724e+02 0.0
3.250000e+03 3.613678e+02 0.0
-1.210000e+04 2.349293e+02 0.0
3.350000e+03 -3.612188e+02 0.0
-1.200000e+04 2.349852e+02 0.0
3.450000e+03 3.610653e+02 0.0
-1.180000e+04 2.350925e+02 0.0
3.550000e+03 3.609076e+02 0.0
3.650000e+03 -3.607459e+02 0.0
3.300000e+03 -2.310276e+02 0.0
-1.170000e+04 2.351434e+02 0.0
3.750000e+03 3.605803e+02 0.0
3.400000e+03 -2.309308e+02 0.0
-1.160000e+04 2.351921e+02 0.0
3.850000e+03 3.604112e+02 0.0
-1.150000e+04 2.352384e+02 0.0
3.600000e+03 -2.307292e+02 0.0
-1.140000e+04 2.352819e+02 0.0
3.700000e+03 -2.306246e+02 0.0
-1.130000e+04 2.353223e+02 0.0
4.100000e+03 2.301834e+02 0.0
4.200000e+03 2.300682e+02 0.0
4.050004e+03 1.162825e+02 0.0
4.000000e+03 2.302968e+02 0.0
4.450000e+03 3.593314e+02 0.0
4.550000e+03 3.591426e+02 0.0
-1.090000e+04 2.354481e+02 0.0
4.650000e+03 3.589517e+02 0.0
-1.080000e+04 2.354692e+02 0.0
4.750000e+03 3.587590e+02 0.0
-1.070000e+04 2.354855e+02 0.0
4.850000e+03 3.585647e+02 0.0
-1.060000e+04 2.354969e+02 0.0
4.950000e+03 3.583690e+02 0.0
-1.040000e+04 2.355034e+02 0.0
5.050000e+03 -3.581721e+02 0.0
-1.030000e+04 2.354981e+02 0.0
5.150000e+03 3.579740e+02 0.0
5.250000e+03 3.577752e+02 0.0
-1.020000e+04 2.354866e+02 0.0
5.350000e+03 3.575757e+02 0.0
-1.010000e+04 2.354688e+02 0.0
5.100000e+03 -2.289681e+02 0.0
-1.000000e+04 2.354442e+02 0.0
-9.900000e+03 2.354127e+02 0.0
5.600000e+03 2.283300e+02 0.0
5.700000e+03 2.282019e+02 0.0
5.550004e+03 1.153500e+02 0.0
5.500000e+03 2.284581e+02 0.0
-9.800000e+03 2.353740e+02 0.0
-9.700000e+03 2.353277e+02 0.0
5.950000e+03 3.563754e+02 0.0
6.050000e+03 3.561766e+02 0.0
6.150000e+03 3.559786e+02 0.0
6.250000e+03 3.557817e+02 0.0
-9.300000e+03 2.350619e+02 0.0
-9.200000e+03 2.349738e+02 0.0
6.450000e+03 -3.553919e+02 0.0
-9.100000e+03 2.348765e+02 0.0
6.550000e+03 3.551994e+02 0.0
6.200000e+03 -2.275657e+02 0.0
-8.900000e+03 2.346542e+02 0.0
6.650000e+03 3.550087e+02 0.0
6.300000e+03 -2.274402e+02 0.0
6.750000e+03 3.548200e+02 0.0
6.400000e+03 -2.273156e+02 0.0
-8.800000e+03 2.345298e+02 0.0
6.500000e+03 -2.271919e+02 0.0
-8.700000e+03 2.343974e+02 0.0
-8.600000e+03 2.342573e+02 0.0
7.000000e+03 2.265926e+02 0.0
7.100000e+03 2.264774e+02 0.0
6.950004e+03 1.144696e+02 0.0
6.900000e+03 2.267096e+02 0.0
-8.500000e+03 2.341101e+02 0.0
-8.400000e+03 2.339561e+02 0.0
7.350000e+03 3.537407e+02 0.0
-8.300000e+03 2.337960e+02 0.0
7.450000e+03 3.535715e+02 0.0
-8.200000e+03 2.336301e+02 0.0
7.550000e+03 3.534058e+02 0.0
7.650000e+03 3.532438e+02 0.0
7.750000e+03 -3.530858e+02 0.0
7.850000e+03 3.529319e+02 0.0
-7.700000e+03 2.327313e+02 0.0
7.950000e+03 3.527823e+02 0.0
-7.600000e+03 2.325410e+02 0.0
8.050000e+03 3.526372e+02 0.0
-7.500000e+03 2.323483e+02 0.0
8.150000e+03 3.524968e+02 0.0
7.800000e+03 -2.257294e+02 0.0
-7.400000e+03 2.321537e+02 0.0
8.250000e+03 3.523613e+02 0.0
-7.300000e+03 2.319576e+02 0.0
-7.200000e+03 2.317606e+02 0.0
8.500000e+03 2.251135e+02 0.0
8.600000e+03 2.250388e+02 0.0
8.450004e+03 1.137127e+02 0.0
8.400000e+03 2.251918e+02 0.0
-7.100000e+03 2.315631e+02 0.0
-7.000000e+03 2.313656e+02 0.0
8.850000e+03 3.516615e+02 0.0
-6.900000e+03 2.311685e+02 0.0
8.950000e+03 3.515656e+02 0.0
-6.800000e+03 2.309724e+02 0.0
9.050000e+03 3.514760e+02 0.0
-6.700000e+03 2.307777e+02 0.0
-6.600000e+03 2.305848e+02 0.0
9.250000e+03 -3.513168e+02 0.0
9.350000e+03 3.512471e+02 0.0
9.000000e+03 -2.247777e+02 0.0
9.450000e+03 3.511839e+02 0.0
9.100000e+03 -2.247226e+02 0.0
9.550000e+03 3.511272e+02 0.0
9.200000e+03 -2.246717e+02 0.0
-6.100000e+03 2.296659e+02 0.0
9.650000e+03 3.510769e+02 0.0
9.300000e+03 -2.246250e+02 0.0
-6.000000e+03 2.294944e+02 0.0
-5.900000e+03 2.293282e+02 0.0
9.900000e+03 2.244317e+02 0.0
1.000000e+04 2.244136e+02 0.0
9.850004e+03 1.133541e+02 0.0
9.800000e+03 2.244538e+02 0.0
-5.800000e+03 2.291677e+02 0.0
-5.700000e+03 2.290134e+02 0.0
1.025000e+04 3.509064e+02 0.0
-5.600000e+03 2.288657e+02 0.0
-5.500000e+03 2.287252e+02 0.0
1.045000e+04 -3.508982e+02 0.0
-5.400000e+03 2.285923e+02 0.0
1.055000e+04 3.509029e+02 0.0
-5.300000e+03 2.284675e+02 0.0
1.065000e+04 3.509134e+02 0.0
-5.200000e+03 2.283513e+02 0.0
1.075000e+04 3.509297e+02 0.0
1.040000e+04 -2.243800e+02 0.0
-5.100000e+03 -2.282441e+02 0.0
1.085000e+04 3.509517e+02 0.0
1.050000e+04 -2.243812e+02 0.0
-5.000000e+03 -2.281464e+02 0.0
1.095000e+04 3.509793e+02 0.0
-4.800000e+03 2.279815e+02 0.0
1.105000e+04 3.510125e+02 0.0
-4.700000e+03 2.279153e+02 0.0
-4.600000e+03 2.278605e+02 0.0
1.130000e+04 2.245216e+02 0.0
1.140000e+04 2.245550e+02 0.0
1.125000e+04 1.133865e+02 0.0
1.120000e+04 2.244917e+02 0.0
-4.500000e+03 2.278175e+02 0.0
-4.400000e+03 2.277866e+02 0.0
1.165000e+04 3.513253e+02 0.0
-4.300000e+03 2.277671e+02 0.0
1.175000e+04 3.513959e+02 0.0
-4.200000e+03 2.277588e+02 0.0
1.185000e+04 3.514715e+02 0.0
-4.100000e+03 2.277612e+02 0.0
1.195000e+04 3.515522e+02 0.0
-4.000000e+03 2.277739e+02 0.0
-3.900000e+03 2.277964e+02 0.0
1.215000e+04 -3.517284e+02 0.0
-3.800000e+03 2.278283e+02 0.0
1.225000e+04 3.518238e+02 0.0
1.190000e+04 -2.247721e+02 0.0
-3.600000e+03 2.279187e+02 0.0
1.235000e+04 3.519240e+02 0.0
1.200000e+04 -2.248253e+02 0.0
-3.600000e+03 -2.279187e+02 0.0
1.245000e+04 3.520289e+02 0.0
1.210000e+04 -2.248816e+02 0.0
1.220000e+04 -2.249411e+02 0.0
-3.200000e+03 2.281939e+02 0.0
1.270000e+04 2.252839e+02 0.0
1.280000e+04 2.253614e+02 0.0
1.265000e+04 1.137602e+02 0.0
1.260000e+04 2.252094e+02 0.0
-3.100000e+03 2.282798e+02 0.0
1.305000e+04 3.527548e+02 0.0
-3.000000e+03 2.283718e+02 0.0
1.315000e+04 3.528912e+02 0.0
-2.900000e+03 2.284693e+02 0.0
1.325000e+04 3.530319e+02 0.0
-2.800000e+03 2.285721e+02 0.0
1.335000e+04 -3.531768e+02 0.0
-2.700000e+03 2.286795e+02 0.0
1.345000e+04 3.533258e+02 0.0
-2.600000e+03 2.287913e+02 0.0
1.355000e+04 3.534789e+02 0.0
-2.500000e+03 2.289069e+02 0.0
1.365000e+04 3.536360e+02 0.0
-2.400000e+03 2.290261e+02 0.0
1.375000e+04 3.537971e+02 0.0
1.340000e+04 -2.258845e+02 0.0
-2.300000e+03 2.291482e+02 0.0
1.385000e+04 3.539617e+02 0.0
-2.100000e+03 2.293999e+02 0.0
1.395000e+04 3.541295e+02 0.0
-2.000000e+03 2.295286e+02 0.0
-2.000000e+03 -2.295286e+02 0.0
-1.900000e+03 -2.296587e+02 0.0
1.420000e+04 2.267224e+02 0.0
1.430000e+04 2.268352e+02 0.0
1.415000e+04 1.144775e+02 0.0
1.410000e+04 2.266108e+02 0.0
1.455000e+04 3.551858e+02 0.0
-1.600000e+03 2.300525e+02 0.0
1.465000e+04 3.553668e+02 0.0
-1.500000e+03 2.301837e+02 0.0
1.475000e+04 3.555484e+02 0.0
-1.400000e+03 2.303140e+02 0.0
-1.300000e+03 2.304431e+02 0.0
1.495000e+04 -3.559119e+02 0.0
-1.200000e+03 2.305705e+02 0.0
1.505000e+04 3.560931e+02 0.0
1.470000e+04 -2.272956e+02 0.0
-1.100000e+03 2.306959e+02 0.0
1.515000e+04 3.562734e+02 0.0
1.480000e+04 -2.274118e+02 0.0
-1.000000e+03 2.308188e+02 0.0
1.525000e+04 3.564526e+02 0.0
1.490000e+04 -2.275281e+02 0.0
-9.000000e+02 2.309388e+02 0.0
1.535000e+04 3.566303e+02 0.0
1.500000e+04 -2.276441e+02 0.0
-8.000000e+02 2.310554e+02 0.0
-7.000000e+02 2.311683e+02 0.0
-5.000000e+02 2.313809e+02 0.0
1.560000e+04 2.283239e+02 0.0
1.570000e+04 2.284325e+02 0.0
1.555000e+04 1.152868e+02 0.0
1.550000e+04 2.282136e+02 0.0
1.595000e+04 3.576460e+02 0.0
1.605000e+04 3.578037e+02 0.0
1.615000e+04 -3.579572e+02 0.0
-1.000000e+02 2.317423e+02 0.0
1.625000e+04 3.581061e+02 0.0
-1.455192e-11 2.318168e+02 0.0
1.635000e+04 3.582502e+02 0.0
1.000000e+02 2.318842e+02 0.0
1.645000e+04 3.583890e+02 0.0
2.000000e+02 2.319446e+02 0.0
1.655000e+04 3.585223e+02 0.0
1.620000e+04 -2.289419e+02 0.0
3.000000e+02 2.319981e+02 0.0
1.665000e+04 3.586496e+02 0.0
4.000000e+02 2.320447e+02 0.0
1.675000e+04 3.587708e+02 0.0
5.000000e+02 2.320847e+02 0.0
7.000000e+02 2.321453e+02 0.0
8.000000e+02 2.321661e+02 0.0
1.700000e+04 2.295889e+02 0.0
1.710000e+04 2.296507e+02 0.0
1.695000e+04 1.159370e+02 0.0
1.690000e+04 2.295224e+02 0.0
9.000000e+02 2.321808e+02 0.0
9.000000e+02 -2.321808e+02 0.0
1.735000e+04 3.593474e+02 0.0
1.745000e+04 3.594153e+02 0.0
1.755000e+04 3.594743e+02 0.0
1.300000e+03 2.321806e+02 0.0
1.775000e+04 -3.595640e+02 0.0
1.400000e+03 2.321666e+02 0.0
1.785000e+04 3.595941e+02 0.0
1.750000e+04 -2.298459e+02 0.0
1.500000e+03 2.321471e+02 0.0
1.795000e+04 3.596139e+02 0.0
1.760000e+04 -2.298807e+02 0.0
1.600000e+03 2.321224e+02 0.0
1.805000e+04 3.596230e+02 0.0
1.770000e+04 -2.299094e+02 0.0
1.700000e+03 2.320926e+02 0.0
1.815000e+04 3.596211e+02 0.0
1.780000e+04 -2.299319e+02 0.0
1.800000e+03 2.320579e+02 0.0
1.900000e+03 2.320182e+02 0.0
2.000000e+03 2.319739e+02 0.0
1.840000e+04 2.299238e+02 0.0
1.850000e+04 2.298985e+02 0.0
1.835000e+04 1.161278e+02 0.0
1.830000e+04 2.299427e+02 0.0
2.100000e+03 2.319250e+02 0.0
2.300000e+03 2.318139e+02 0.0
1.875000e+04 3.593883e+02 0.0
1.885000e+04 3.593177e+02 0.0
2.400000e+03 2.317521e+02 0.0
1.895000e+04 3.592395e+02 0.0
1.905000e+04 -3.591543e+02 0.0
1.915000e+04 3.590627e+02 0.0
1.925000e+04 3.589652e+02 0.0
2.800000e+03 2.314651e+02 0.0
1.935000e+04 3.588626e+02 0.0
2.900000e+03 2.313842e+02 0.0
1.945000e+04 3.587553e+02 0.0
1.910000e+04 -2.296306e+02 0.0
3.000000e+03 2.312998e+02 0.0
1.955000e+04 3.586439e+02 0.0
3.100000e+03 2.312122e+02 0.0
3.200000e+03 2.311214e+02 0.0
3.400000e+03 2.309308e+02 0.0
1.980000e+04 2.291460e+02 0.0
1.990000e+04 2.290685e+02 0.0
1.975000e+04 1.157491e+02 0.0
1.970000e+04 2.292221e+02 0.0
3.500000e+03 2.308313e+02 0.0
2.015000e+04 3.579223e+02 0.0
3.700000e+03 2.306246e+02 0.0
2.025000e+04 3.577986e+02 0.0
3.800000e+03 2.305175e+02 0.0
2.035000e+04 3.576754e+02 0.0
3.900000e+03 2.304082e+02 0.0
2.055000e+04 -3.574331e+02 0.0
2.065000e+04 3.573151e+02 0.0
2.030000e+04 -2.287531e+02 0.0
2.075000e+04 3.572000e+02 0.0
2.040000e+04 -2.286747e+02 0.0
2.085000e+04 3.570883e+02 0.0
2.050000e+04 -2.285971e+02 0.0
4.300000e+03 2.299512e+02 0.0
2.060000e+04 -2.285209e+02 0.0
4.400000e+03 2.298326e+02 0.0
4.500000e+03 2.297125e+02 0.0
2.110000e+04 2.281720e+02 0.0
2.120000e+04 2.281112e+02 0.0
2.105000e+04 1.152539e+02 0.0
2.100000e+04 2.282362e+02 0.0
4.600000e+03 2.295911e+02 0.0
4.700000e+03 2.294684e+02 0.0
2.145000e+04 3.565235e+02 0.0
4.800000e+03 2.293447e+02 0.0
2.155000e+04 3.564523e+02 0.0
4.900000e+03 2.292200e+02 0.0
2.165000e+04 3.563892e+02 0.0
5.000000e+03 2.290944e+02 0.0
2.175000e+04 3.563348e+02 0.0
5.200000e+03 2.288412e+02 0.0
2.185000e+04 -3.562896e+02 0.0
2.195000e+04 3.562543e+02 0.0
5.300000e+03 2.287138e+02 0.0
2.205000e+04 3.562293e+02 0.0
5.400000e+03 2.285861e+02 0.0
2.215000e+04 3.562154e+02 0.0
2.225000e+04 3.562131e+02 0.0
2.190000e+04 -2.278155e+02 0.0
5.800000e+03 2.280739e+02 0.0
2.250000e+04 2.278098e+02 0.0
2.260000e+04 2.278371e+02 0.0
2.245000e+04 1.150497e+02 0.0
2.240000e+04 2.277912e+02 0.0
5.900000e+03 2.279462e+02 0.0
6.000000e+03 2.278188e+02 0.0
2.285000e+04 3.564743e+02 0.0
6.100000e+03 2.276920e+02 0.0
2.295000e+04 3.565674e+02 0.0
6.300000e+03 2.274402e+02 0.0
2.305000e+04 3.566740e+02 0.0
6.400000e+03 2.273156e+02 0.0
2.315000e+04 3.567935e+02 0.0
6.500000e+03 2.271919e+02 0.0
2.325000e+04 3.569252e+02 0.0
6.600000e+03 2.270694e+02 0.0
2.345000e+04 -3.572228e+02 0.0
6.700000e+03 2.269480e+02 0.0
2.355000e+04 3.573874e+02 0.0
2.320000e+04 -2.281910e+02 0.0
6.800000e+03 2.268281e+02 0.0
2.365000e+04 3.575618e+02 0.0
2.330000e+04 -2.282790e+02 0.0
2.340000e+04 -2.283742e+02 0.0
2.350000e+04 -2.284762e+02 0.0
2.390000e+04 2.289443e+02 0.0
2.400000e+04 2.290743e+02 0.0
2.385000e+04 1.155960e+02 0.0
2.380000e+04 2.288191e+02 0.0
7.200000e+03 2.263641e+02 0.0
7.300000e+03 2.262527e+02 0.0
2.425000e+04 3.587760e+02 0.0
7.400000e+03 2.261434e+02 0.0
2.435000e+04 3.590004e+02 0.0
7.500000e+03 2.260363e+02 0.0
2.445000e+04 3.592295e+02 0.0
7.600000e+03 2.259315e+02 0.0
2.455000e+04 -3.594626e+02 0.0
7.700000e+03 2.258292e+02 0.0
2.465000e+04 3.596991e+02 0.0
7.900000e+03 2.256324e+02 0.0
2.475000e+04 3.599382e+02 0.0
2.485000e+04 3.601795e+02 0.0
8.000000e+03 2.255382e+02 0.0
2.495000e+04 3.604222e+02 0.0
2.460000e+04 -2.299320e+02 0.0
8.100000e+03 2.254469e+02 0.0
8.200000e+03 2.253586e+02 0.0
8.300000e+03 2.252736e+02 0.0
2.520000e+04 2.308595e+02 0.0
2.530000e+04 2.310148e+02 0.0
2.515000e+04 1.165559e+02 0.0
2.510000e+04 2.307038e+02 0.0
2.555000e+04 3.618732e+02 0.0
2.565000e+04 3.621082e+02 0.0
8.700000e+03 2.249677e+02 0.0
2.575000e+04 3.623397e+02 0.0
8.800000e+03 2.249004e+02 0.0
2.585000e+04 3.625668e+02 0.0
8.900000e+03 2.248370e+02 0.0
2.595000e+04 3.627891e+02 0.0
9.100000e+03 2.247226e+02 0.0
2.605000e+04 3.630058e+02 0.0
9.200000e+03 2.246717e+02 0.0
2.615000e+04 3.632164e+02 0.0
9.300000e+03 2.246250e+02 0.0
9.400000e+03 2.245825e+02 0.0
2.635000e+04 -3.636165e+02 0.0
2.655000e+04 1.175489e+02 0.0
2.660000e+04 2.328031e+02 0.0
2.650000e+04 2.326912e+02 0.0
2.610000e+04 -2.321901e+02 0.0
9.500000e+03 2.245442e+02 0.0
2.620000e+04 -2.323226e+02 0.0
9.600000e+03 2.245100e+02 0.0
2.670000e+04 2.329088e+02 0.0
2.630000e+04 -2.324506e+02 0.0
9.700000e+03 2.244798e+02 0.0
2.695000e+04 3.646026e+02 0.0
2.705000e+04 3.647290e+02 0.0
2.715000e+04 3.648430e+02 0.0
1.010000e+04 2.243994e+02 0.0
2.725000e+04 3.649438e+02 0.0
1.020000e+04 2.243891e+02 0.0
2.735000e+04 -3.650309e+02 0.0
1.030000e+04 2.243827e+02 0.0
2.745000e+04 3.651044e+02 0.0
1.050000e+04 2.243812e+02 0.0
2.755000e+04 3.651650e+02 0.0
1.060000e+04 2.243860e+02 0.0
2.765000e+04 3.652130e+02 0.0
2.775000e+04 3.652490e+02 0.0
2.740000e+04 -2.334418e+02 0.0
1.070000e+04 2.243946e+02 0.0
1.080000e+04 2.244069e+02 0.0
1.090000e+04 2.244227e+02 0.0
2.800000e+04 2.335827e+02 0.0
2.810000e+04 2.335814e+02 0.0
2.795000e+04 1.179696e+02 0.0
2.790000e+04 2.335775e+02 0.0
1.100000e+04 2.244422e+02 0.0
1.110000e+04 2.244652e+02 0.0
2.835000e+04 3.652411e+02 0.0
2.845000e+04 3.652072e+02 0.0
2.855000e+04 3.651654e+02 0.0
2.865000e+04 3.651161e+02 0.0
1.150000e+04 2.245918e+02 0.0
2.875000e+04 3.650599e+02 0.0
1.160000e+04 2.246319e+02 0.0
2.885000e+04 3.649973e+02 0.0
1.170000e+04 2.246754e+02 0.0
2.895000e+04 3.649288e+02 0.0
1.180000e+04 2.247221e+02 0.0
1.200000e+04 2.248253e+02 0.0
1.210000e+04 2.248816e+02 0.0
2.915000e+04 3.647760e+02 0.0
2.890000e+04 -2.333743e+02 0.0
2.915000e+04 -3.647760e+02 0.0
1.220000e+04 2.249411e+02 0.0
2.930000e+04 2.331735e+02 0.0
2.940000e+04 2.331167e+02 0.0
2.900000e+04 -2.333287e+02 0.0
1.230000e+04 2.250036e+02 0.0
2.965000e+04 3.643263e+02 0.0
1.240000e+04 2.250692e+02 0.0
2.975000e+04 3.642287e+02 0.0
1.250000e+04 2.251379e+02 0.0
2.985000e+04 3.641299e+02 0.0
2.995000e+04 3.640302e+02 0.0
3.005000e+04 3.639301e+02 0.0
3.015000e+04 -3.638303e+02 0.0
1.290000e+04 2.254416e+02 0.0
3.025000e+04 3.637312e+02 0.0
1.300000e+04 2.255247e+02 0.0
3.035000e+04 3.636332e+02 0.0
1.310000e+04 2.256106e+02 0.0
1.320000e+04 2.256992e+02 0.0
3.020000e+04 -2.326177e+02 0.0
1.330000e+04 2.257905e+02 0.0
3.060000e+04 2.323724e+02 0.0
3.070000e+04 2.323151e+02 0.0
3.055000e+04 1.173741e+02 0.0
3.050000e+04 2.324317e+02 0.0
1.350000e+04 2.259811e+02 0.0
3.095000e+04 3.630994e+02 0.0
1.360000e+04 2.260803e+02 0.0
3.105000e+04 3.630241e+02 0.0
1.370000e+04 2.261820e+02 0.0
3.115000e+04 3.629541e+02 0.0
1.380000e+04 2.262862e+02 0.0
3.125000e+04 3.628899e+02 0.0
1.390000e+04 2.263925e+02 0.0
3.135000e+04 3.628320e+02 0.0
1.400000e+04 2.265008e+02 0.0
3.145000e+04 3.627808e+02 0.0
3.155000e+04 3.627370e+02 0.0
3.165000e+04 3.627010e+02 0.0
3.175000e+04 3.626733e+02 0.0
1.440000e+04 2.269492e+02 0.0
3.185000e+04 -3.626544e+02 0.0
1.450000e+04 2.270641e+02 0.0
1.460000e+04 2.271796e+02 0.0
3.170000e+04 -2.319178e+02 0.0
1.480000e+04 2.274118e+02 0.0
1.490000e+04 2.275281e+02 0.0
3.235000e+04 3.626911e+02 0.0
3.200000e+04 -2.318903e+02 0.0
1.500000e+04 2.276441e+02 0.0
3.245000e+04 3.627228e+02 0.0
1.510000e+04 2.277597e+02 0.0
3.255000e+04 3.627621e+02 0.0
3.265000e+04 3.628086e+02 0.0
1.520000e+04 2.278747e+02 0.0
3.275000e+04 3.628622e+02 0.0
1.530000e+04 2.279888e+02 0.0
3.285000e+04 3.629225e+02 0.0
1.540000e+04 2.281019e+02 0.0
3.295000e+04 -3.629893e+02 0.0
3.305000e+04 3.630623e+02 0.0
1.580000e+04 2.285391e+02 0.0
3.330000e+04 2.322915e+02 0.0
3.340000e+04 2.323508e+02 0.0
3.300000e+04 -2.321346e+02 0.0
3.325000e+04 1.173041e+02 0.0
3.320000e+04 2.322356e+02 0.0
1.590000e+04 2.286436e+02 0.0
1.600000e+04 2.287457e+02 0.0
3.365000e+04 3.636168e+02 0.0
1.610000e+04 2.288452e+02 0.0
3.375000e+04 3.637261e+02 0.0
1.630000e+04 2.290357e+02 0.0
3.385000e+04 3.638396e+02 0.0
3.395000e+04 3.639570e+02 0.0
1.640000e+04 2.291261e+02 0.0
3.405000e+04 3.640780e+02 0.0
1.650000e+04 2.292132e+02 0.0
3.415000e+04 3.642024e+02 0.0
1.660000e+04 2.292965e+02 0.0
3.425000e+04 3.643299e+02 0.0
1.670000e+04 2.293760e+02 0.0
3.435000e+04 3.644602e+02 0.0
1.680000e+04 2.294514e+02 0.0
3.445000e+04 3.645931e+02 0.0
3.455000e+04 -3.647283e+02 0.0
3.455000e+04 1.177892e+02 0.0
3.450000e+04 2.331803e+02 0.0
1.720000e+04 2.297075e+02 0.0
3.495000e+04 3.652873e+02 0.0
3.475000e+04 -3.650047e+02 0.0
1.730000e+04 2.297591e+02 0.0
3.505000e+04 3.654303e+02 0.0
3.470000e+04 -2.333559e+02 0.0
1.740000e+04 2.298053e+02 0.0
3.515000e+04 3.655740e+02 0.0
3.480000e+04 -2.334453e+02 0.0
1.760000e+04 2.298807e+02 0.0
3.525000e+04 3.657182e+02 0.0
1.770000e+04 2.299094e+02 0.0
3.535000e+04 3.658627e+02 0.0
1.780000e+04 2.299319e+02 0.0
3.545000e+04 3.660071e+02 0.0
1.790000e+04 2.299478e+02 0.0
3.555000e+04 3.661513e+02 0.0
3.565000e+04 3.662949e+02 0.0
1.800000e+04 2.299571e+02 0.0
3.575000e+04 3.664377e+02 0.0
1.810000e+04 2.299595e+02 0.0
1.820000e+04 2.299547e+02 0.0
3.585000e+04 3.665795e+02 0.0
3.585000e+04 -3.665795e+02 0.0
3.610000e+04 2.346300e+02 0.0
3.635000e+04 3.672633e+02 0.0
1.860000e+04 2.298670e+02 0.0
3.645000e+04 3.673933e+02 0.0
1.870000e+04 2.298298e+02 0.0
3.655000e+04 3.675206e+02 0.0
1.880000e+04 2.297871e+02 0.0
3.665000e+04 3.676452e+02 0.0
1.890000e+04 2.297395e+02 0.0
3.675000e+04 3.677670e+02 0.0
1.900000e+04 2.296872e+02 0.0
3.685000e+04 3.678862e+02 0.0
1.920000e+04 2.295701e+02 0.0
3.695000e+04 3.680026e+02 0.0
3.705000e+04 3.681162e+02 0.0
1.930000e+04 2.295061e+02 0.0
1.940000e+04 2.294389e+02 0.0
1.950000e+04 2.293690e+02 0.0
3.725000e+04 1.189540e+02 0.0
3.730000e+04 2.355638e+02 0.0
3.720000e+04 2.354957e+02 0.0
1.960000e+04 2.292966e+02 0.0
3.765000e+04 3.687381e+02 0.0
3.775000e+04 3.688317e+02 0.0
3.740000e+04 -2.356301e+02 0.0
3.785000e+04 3.689222e+02 0.0
3.750000e+04 -2.356946e+02 0.0
2.000000e+04 2.289902e+02 0.0
3.795000e+04 3.690098e+02 0.0
3.760000e+04 -2.357572e+02 0.0
2.010000e+04 2.289112e+02 0.0
3.805000e+04 3.690945e+02 0.0
2.020000e+04 2.288321e+02 0.0
3.815000e+04 3.691761e+02 0.0
2.040000e+04 2.286747e+02 0.0
3.825000e+04 3.692546e+02 0.0
2.050000e+04 2.285971e+02 0.0
3.835000e+04 3.693301e+02 0.0
2.060000e+04 2.285209e+02 0.0
2.070000e+04 2.284463e+02 0.0
3.855000e+04 -3.694719e+02 0.0
2.080000e+04 2.283738e+02 0.0
2.090000e+04 2.283036e+02 0.0
3.895000e+04 3.697178e+02 0.0
3.905000e+04 3.697713e+02 0.0
3.870000e+04 -2.363197e+02 0.0
3.915000e+04 3.698216e+02 0.0
3.925000e+04 3.698686e+02 0.0
2.130000e+04 2.280544e+02 0.0
3.935000e+04 3.699124e+02 0.0
2.140000e+04 2.280018e+02 0.0
3.945000e+04 3.699529e+02 0.0
2.150000e+04 2.279538e+02 0.0
3.955000e+04 3.699900e+02 0.0
2.160000e+04 2.279108e+02 0.0
3.965000e+04 3.700239e+02 0.0
2.170000e+04 2.278732e+02 0.0
2.180000e+04 2.278413e+02 0.0
2.200000e+04 2.277962e+02 0.0
3.990000e+04 2.366546e+02 0.0
4.000000e+04 2.366687e+02 0.0
3.985000e+04 1.195180e+02 0.0
3.980000e+04 2.366384e+02 0.0
2.210000e+04 2.277838e+02 0.0
2.220000e+04 2.277785e+02 0.0
4.035000e+04 -3.701657e+02 0.0
2.230000e+04 2.277809e+02 0.0
4.045000e+04 3.701721e+02 0.0
4.010000e+04 -2.366806e+02 0.0
4.055000e+04 3.701750e+02 0.0
4.020000e+04 -2.366903e+02 0.0
4.065000e+04 3.701743e+02 0.0
4.030000e+04 -2.366977e+02 0.0
4.075000e+04 3.701701e+02 0.0
4.040000e+04 -2.367029e+02 0.0
2.270000e+04 2.278736e+02 0.0
4.085000e+04 3.701623e+02 0.0
2.280000e+04 2.279194e+02 0.0
4.095000e+04 3.701509e+02 0.0
2.290000e+04 2.279744e+02 0.0
2.300000e+04 2.280383e+02 0.0
2.310000e+04 2.281106e+02 0.0
4.115000e+04 1.195297e+02 0.0
4.120000e+04 2.366633e+02 0.0
4.110000e+04 2.366760e+02 0.0
2.330000e+04 2.282790e+02 0.0
2.340000e+04 2.283742e+02 0.0
4.155000e+04 3.700153e+02 0.0
2.350000e+04 2.284762e+02 0.0
4.165000e+04 3.699834e+02 0.0
2.360000e+04 2.285846e+02 0.0
4.175000e+04 3.699494e+02 0.0
4.185000e+04 3.699135e+02 0.0
4.150000e+04 -2.366141e+02 0.0
2.370000e+04 2.286991e+02 0.0
4.195000e+04 3.698759e+02 0.0
4.205000e+04 3.698368e+02 0.0
4.215000e+04 3.697964e+02 0.0
4.225000e+04 3.697549e+02 0.0
2.410000e+04 2.292086e+02 0.0
2.420000e+04 2.293470e+02 0.0
2.430000e+04 2.294889e+02 0.0
4.250000e+04 2.363694e+02 0.0
4.260000e+04 2.363414e+02 0.0
4.245000e+04 1.193849e+02 0.0
4.240000e+04 2.363971e+02 0.0
2.440000e+04 2.296340e+02 0.0
2.450000e+04 2.297818e+02 0.0
4.285000e+04 3.694942e+02 0.0
2.470000e+04 2.300841e+02 0.0
4.295000e+04 3.694507e+02 0.0
2.480000e+04 2.302377e+02 0.0
4.315000e+04 -3.693656e+02 0.0
2.490000e+04 2.303925e+02 0.0
4.325000e+04 3.693243e+02 0.0
4.290000e+04 -2.362573e+02 0.0
2.500000e+04 2.305480e+02 0.0
4.335000e+04 3.692842e+02 0.0
4.300000e+04 -2.362297e+02 0.0
4.345000e+04 3.692454e+02 0.0
4.310000e+04 -2.362024e+02 0.0
4.355000e+04 3.692082e+02 0.0
4.320000e+04 -2.361757e+02 0.0
2.540000e+04 2.311691e+02 0.0
2.550000e+04 2.313221e+02 0.0
4.380000e+04 2.360340e+02 0.0
4.390000e+04 2.360147e+02 0.0
4.375000e+04 1.192137e+02 0.0
4.370000e+04 2.360548e+02 0.0
2.560000e+04 2.314734e+02 0.0
2.570000e+04 2.316226e+02 0.0
4.415000e+04 3.690287e+02 0.0
2.580000e+04 2.317693e+02 0.0
4.425000e+04 -3.690081e+02 0.0
2.590000e+04 2.319131e+02 0.0
4.435000e+04 3.689906e+02 0.0
2.600000e+04 2.320535e+02 0.0
4.445000e+04 3.689764e+02 0.0
2.620000e+04 2.323226e+02 0.0
4.455000e+04 3.689659e+02 0.0
2.630000e+04 2.324506e+02 0.0
4.465000e+04 3.689592e+02 0.0
4.430000e+04 -2.359545e+02 0.0
2.640000e+04 2.325736e+02 0.0
4.475000e+04 3.689564e+02 0.0
2.640000e+04 -2.325736e+02 0.0
4.485000e+04 3.689579e+02 0.0
4.510000e+04 2.359432e+02 0.0
4.520000e+04 2.359545e+02 0.0
4.505000e+04 1.191604e+02 0.0
4.500000e+04 2.359350e+02 0.0
2.680000e+04 2.330079e+02 0.0
2.690000e+04 2.331000e+02 0.0
4.545000e+04 3.690660e+02 0.0
2.700000e+04 2.331847e+02 0.0
4.555000e+04 3.691024e+02 0.0
2.710000e+04 2.332616e+02 0.0
4.565000e+04 3.691436e+02 0.0
2.720000e+04 2.333304e+02 0.0
4.575000e+04 3.691890e+02 0.0
2.730000e+04 2.333905e+02 0.0
4.585000e+04 3.692378e+02 0.0
2.750000e+04 2.334846e+02 0.0
4.595000e+04 3.692891e+02 0.0
2.760000e+04 2.335193e+02 0.0
4.615000e+04 -3.693963e+02 0.0
2.770000e+04 2.335461e+02 0.0
4.635000e+04 1.193317e+02 0.0
4.640000e+04 2.362949e+02 0.0
4.630000e+04 2.362608e+02 0.0
4.590000e+04 -2.361235e+02 0.0
2.780000e+04 2.335654e+02 0.0
4.600000e+04 -2.361569e+02 0.0
4.650000e+04 2.363279e+02 0.0
4.610000e+04 -2.361913e+02 0.0
4.675000e+04 3.696997e+02 0.0
2.820000e+04 2.335739e+02 0.0
4.685000e+04 -3.697394e+02 0.0
2.830000e+04 2.335604e+02 0.0
4.695000e+04 3.697740e+02 0.0
2.840000e+04 2.335414e+02 0.0
4.705000e+04 3.698027e+02 0.0
2.850000e+04 2.335172e+02 0.0
4.715000e+04 3.698247e+02 0.0
2.860000e+04 2.334880e+02 0.0
4.725000e+04 3.698393e+02 0.0
4.690000e+04 -2.364396e+02 0.0
2.870000e+04 2.334543e+02 0.0
4.735000e+04 3.698456e+02 0.0
2.880000e+04 2.334163e+02 0.0
4.745000e+04 3.698429e+02 0.0
2.900000e+04 2.333287e+02 0.0
2.910000e+04 2.332798e+02 0.0
2.910000e+04 -2.332798e+02 0.0
4.770000e+04 2.364615e+02 0.0
4.780000e+04 2.364358e+02 0.0
4.765000e+04 1.194295e+02 0.0
4.760000e+04 2.364798e+02 0.0
2.920000e+04 -2.332280e+02 0.0
4.805000e+04 3.695945e+02 0.0
4.815000e+04 3.695072e+02 0.0
2.950000e+04 2.330579e+02 0.0
4.825000e+04 3.694047e+02 0.0
2.960000e+04 2.329974e+02 0.0
4.835000e+04 3.692862e+02 0.0
2.970000e+04 2.329356e+02 0.0
4.845000e+04 3.691511e+02 0.0
2.980000e+04 2.328727e+02 0.0
4.855000e+04 3.689984e+02 0.0
2.990000e+04 2.328092e+02 0.0
4.865000e+04 3.688275e+02 0.0
3.000000e+04 2.327453e+02 0.0
4.875000e+04 3.686375e+02 0.0
3.010000e+04 2.326814e+02 0.0
4.885000e+04 -3.684277e+02 0.0
3.030000e+04 2.325547e+02 0.0
4.870000e+04 -2.357857e+02 0.0
3.040000e+04 2.324926e+02 0.0
4.935000e+04 3.670546e+02 0.0
4.900000e+04 -2.353632e+02 0.0
4.945000e+04 3.667097e+02 0.0
4.955561e+04 3.576468e+02 0.0
3.080000e+04 2.322599e+02 0.0
3.090000e+04 2.322074e+02 0.0
4.963287e+04 -2.013811e+02 0.0
3.100000e+04 2.321577e+02 0.0
3.110000e+04 2.321112e+02 0.0
3.120000e+04 2.320682e+02 0.0
3.130000e+04 2.320291e+02 0.0
3.140000e+04 2.319942e+02 0.0
3.150000e+04 2.319638e+02 0.0
3.160000e+04 2.319382e+02 0.0
3.180000e+04 2.319029e+02 0.0
3.180000e+04 -2.319029e+02 0.0
3.190000e+04 -2.318937e+02 0.0
3.210000e+04 2.318924e+02 0.0
3.220000e+04 2.319000e+02 0.0
3.230000e+04 2.319127e+02 0.0
3.240000e+04 2.319306e+02 0.0
3.250000e+04 2.319533e+02 0.0
3.260000e+04 2.319808e+02 0.0
3.270000e+04 2.320128e+02 0.0
3.280000e+04 2.320492e+02 0.0
3.290000e+04 2.320899e+02 0.0
3.310000e+04 2.321832e+02 0.0
3.350000e+04 2.324134e+02 0.0
3.360000e+04 2.324790e+02 0.0
3.370000e+04 2.325476e+02 0.0
3.380000e+04 2.326188e+02 0.0
3.390000e+04 2.326927e+02 0.0
3.400000e+04 2.327689e+02 0.0
3.410000e+04 2.328474e+02 0.0
3.420000e+04 2.329279e+02 0.0
3.430000e+04 2.330104e+02 0.0
3.440000e+04 2.330946e+02 0.0
3.460000e+04 -2.332675e+02 0.0
3.480000e+04 2.334453e+02 0.0
3.490000e+04 2.335357e+02 0.0
3.500000e+04 2.336268e+02 0.0
3.510000e+04 2.337185e+02 0.0
3.520000e+04 2.338106e+02 0.0
3.530000e+04 2.339029e+02 0.0
3.540000e+04 2.339953e+02 0.0
3.550000e+04 2.340876e+02 0.0
3.560000e+04 2.341796e+02 0.0
3.570000e+04 2.342712e+02 0.0
3.580000e+04 2.343622e+02 0.0
3.620000e+04 2.347170e+02 0.0
3.630000e+04 2.348025e+02 0.0
3.640000e+04 2.348865e+02 0.0
3.650000e+04 2.349687e+02 0.0
3.660000e+04 2.350493e+02 0.0
3.670000e+04 2.351281e+02 0.0
3.680000e+04 2.352051e+02 0.0
3.690000e+04 2.352804e+02 0.0
3.700000e+04 2.353540e+02 0.0
3.710000e+04 2.354257e+02 0.0
3.750000e+04 2.356946e+02 0.0
3.760000e+04 2.357572e+02 0.0
3.770000e+04 2.358179e+02 0.0
3.780000e+04 2.358768e+02 0.0
3.790000e+04 2.359338e+02 0.0
3.800000e+04 2.359888e+02 0.0
3.810000e+04 2.360420e+02 0.0
3.820000e+04 2.360932e+02 0.0
3.830000e+04 2.361424e+02 0.0
3.840000e+04 2.361897e+02 0.0
3.880000e+04 2.363590e+02 0.0
3.890000e+04 2.363963e+02 0.0
3.900000e+04 2.364316e+02 0.0
3.910000e+04 2.364648e+02 0.0
3.920000e+04 2.364959e+02 0.0
3.930000e+04 2.365249e+02 0.0
3.940000e+04 2.365519e+02 0.0
3.950000e+04 2.365767e+02 0.0
3.960000e+04 2.365994e+02 0.0
3.970000e+04 2.366200e+02 0.0
4.020000e+04 2.366903e+02 0.0
4.030000e+04 2.366977e+02 0.0
4.040000e+04 2.367029e+02 0.0
4.050000e+04 2.367059e+02 0.0
4.060000e+04 2.367066e+02 0.0
4.070000e+04 2.367051e+02 0.0
4.080000e+04 2.367012e+02 0.0
4.090000e+04 2.366951e+02 0.0
4.100000e+04 2.366867e+02 0.0
4.130000e+04 2.366487e+02 0.0
4.140000e+04 2.366322e+02 0.0
4.160000e+04 2.365945e+02 0.0
4.170000e+04 2.365734e+02 0.0
4.180000e+04 2.365510e+02 0.0
4.190000e+04 2.365275e+02 0.0
4.200000e+04 2.365029e+02 0.0
4.210000e+04 2.364775e+02 0.0
4.220000e+04 2.364513e+02 0.0
4.230000e+04 2.364244e+02 0.0
4.270000e+04 2.363133e+02 0.0
4.280000e+04 2.362852e+02 0.0
4.300000e+04 2.362297e+02 0.0
4.310000e+04 2.362024e+02 0.0
4.320000e+04 2.361757e+02 0.0
4.330000e+04 2.361497e+02 0.0
4.340000e+04 2.361244e+02 0.0
4.350000e+04 2.361001e+02 0.0
4.360000e+04 2.360769e+02 0.0
4.400000e+04 2.359970e+02 0.0
4.410000e+04 2.359809e+02 0.0
4.420000e+04 2.359668e+02 0.0
4.440000e+04 2.359444e+02 0.0
4.450000e+04 2.359365e+02 0.0
4.460000e+04 2.359310e+02 0.0
4.470000e+04 2.359279e+02 0.0
4.480000e+04 2.359275e+02 0.0
4.490000e+04 2.359298e+02 0.0
4.530000e+04 2.359691e+02 0.0
4.540000e+04 2.359871e+02 0.0
4.550000e+04 2.360087e+02 0.0
4.560000e+04 2.360335e+02 0.0
4.570000e+04 2.360613e+02 0.0
4.580000e+04 2.360915e+02 0.0
4.600000e+04 2.361569e+02 0.0
4.610000e+04 2.361913e+02 0.0
4.620000e+04 2.362261e+02 0.0
4.620000e+04 -2.362261e+02 0.0
4.660000e+04 2.363594e+02 0.0
4.670000e+04 2.363888e+02 0.0
4.680000e+04 2.364157e+02 0.0
4.700000e+04 2.364599e+02 0.0
4.710000e+04 2.364761e+02 0.0
4.720000e+04 2.364879e+02 0.0
4.730000e+04 2.364946e+02 0.0
4.740000e+04 2.364958e+02 0.0
4.750000e+04 2.364911e+02 0.0
4.790000e+04 2.364020e+02 0.0
4.800000e+04 2.363598e+02 0.0
4.810000e+04 2.363087e+02 0.0
4.820000e+04 2.362480e+02 0.0
4.830000e+04 2.361775e+02 0.0
4.840000e+04 2.360964e+02 0.0
4.850000e+04 2.360045e+02 0.0
4.860000e+04 2.359010e+02 0.0
4.880000e+04 2.356580e+02 0.0
4.880000e+04 -2.356580e+02 0.0
4.890000e+04 -2.355173e+02 0.0
4.910000e+04 2.351952e+02 0.0
4.920000e+04 2.350129e+02 0.0
4.930000e+04 2.348156e+02 0.0
4.955557e+04 -3.575375e+02 0.0
4.940000e+04 2.346029e+02 0.0
4.950850e+04 2.338414e+02 0.0
4.963325e+04 2.020354e+02 0.0
4.963811e+04 6.946125e-01 0.0
4.950809e+04 -2.325297e+02 0.0
4.956284e+04 -1.123427e+02 0.0
-4.964653e+04 1.853596e+00 0.0
-4.945592e+04 1.161249e+02 0.0
-4.940000e+04 2.347451e+02 0.0
4.956406e+04 1.154094e+02 0.0
4.940000e+04 -2.346029e+02 0.0
4.930000e+04 -2.348156e+02 0.0
4.920000e+04 -2.350129e+02 0.0
4.910000e+04 -2.351952e+02 0.0
4.900000e+04 2.353632e+02 0.0
4.890000e+04 2.355173e+02 0.0
4.885000e+04 1.189842e+02 0.0
4.895000e+04 1.189094e+02 0.0
4.870000e+04 2.357857e+02 0.0
4.860000e+04 -2.359010e+02 0.0
4.850000e+04 -2.360045e+02 0.0
4.840000e+04 -2.360964e+02 0.0
4.830000e+04 -2.361775e+02 0.0
4.820000e+04 -2.362480e+02 0.0
4.810000e+04 -2.363087e+02 0.0
4.800000e+04 -2.363598e+02 0.0
4.790000e+04 -2.364020e+02 0.0
4.780000e+04 -2.364358e+02 0.0
4.770000e+04 -2.364615e+02 0.0
4.760000e+04 -2.364798e+02 0.0
4.750000e+04 -2.364911e+02 0.0
4.740000e+04 -2.364958e+02 0.0
4.730000e+04 -2.364946e+02 0.0
4.720000e+04 -2.364879e+02 0.0
4.710000e+04 -2.364761e+02 0.0
4.700000e+04 -2.364599e+02 0.0
4.690000e+04 2.364396e+02 0.0
4.680000e+04 -2.364157e+02 0.0
4.670000e+04 -2.363888e+02 0.0
4.660000e+04 -2.363594e+02 0.0
4.650000e+04 -2.363279e+02 0.0
4.640000e+04 -2.362949e+02 0.0
4.630000e+04 -2.362608e+02 0.0
4.625000e+04 1.193146e+02 0.0
4.590000e+04 2.361235e+02 0.0
4.580000e+04 -2.360915e+02 0.0
4.570000e+04 -2.360613e+02 0.0
4.560000e+04 -2.360335e+02 0.0
4.550000e+04 -2.360087e+02 0.0
4.540000e+04 -2.359871e+02 0.0
4.530000e+04 -2.359691e+02 0.0
4.520000e+04 -2.359545e+02 0.0
4.510000e+04 -2.359432e+02 0.0
4.500000e+04 -2.359350e+02 0.0
4.490000e+04 -2.359298e+02 0.0
4.480000e+04 -2.359275e+02 0.0
4.470000e+04 -2.359279e+02 0.0
4.460000e+04 -2.359310e+02 0.0
4.450000e+04 -2.359365e+02 0.0
4.440000e+04 -2.359444e+02 0.0
4.430000e+04 2.359545e+02 0.0
4.420000e+04 -2.359668e+02 0.0
4.410000e+04 -2.359809e+02 0.0
4.400000e+04 -2.359970e+02 0.0
4.390000e+04 -2.360147e+02 0.0
4.380000e+04 -2.360340e+02 0.0
4.370000e+04 -2.360548e+02 0.0
4.360000e+04 -2.360769e+02 0.0
4.350000e+04 -2.361001e+02 0.0
4.340000e+04 -2.361244e+02 0.0
4.330000e+04 -2.361497e+02 0.0
4.290000e+04 2.362573e+02 0.0
4.280000e+04 -2.362852e+02 0.0
4.270000e+04 -2.363133e+02 0.0
4.260000e+04 -2.363414e+02 0.0
4.250000e+04 -2.363694e+02 0.0
4.240000e+04 -2.363971e+02 0.0
4.230000e+04 -2.364244e+02 0.0
4.220000e+04 -2.364513e+02 0.0
4.210000e+04 -2.364775e+02 0.0
4.200000e+04 -2.365029e+02 0.0
4.190000e+04 -2.365275e+02 0.0
4.180000e+04 -2.365510e+02 0.0
4.170000e+04 -2.365734e+02 0.0
4.160000e+04 -2.365945e+02 0.0
4.150000e+04 2.366141e+02 0.0
4.140000e+04 -2.366322e+02 0.0
4.130000e+04 -2.366487e+02 0.0
4.120000e+04 -2.366633e+02 0.0
4.110000e+04 -2.366760e+02 0.0
4.100000e+04 -2.366867e+02 0.0
4.105000e+04 1.195359e+02 0.0
4.110001e+04 1.461392e+01 0.0
4.090000e+04 -2.366951e+02 0.0
4.080000e+04 -2.367012e+02 0.0
4.070000e+04 -2.367051e+02 0.0
4.060000e+04 -2.367066e+02 0.0
4.050000e+04 -2.367059e+02 0.0
4.010000e+04 2.366806e+02 0.0
4.000000e+04 -2.366687e+02 0.0
3.990000e+04 -2.366546e+02 0.0
3.980000e+04 -2.366384e+02 0.0
3.970000e+04 -2.366200e+02 0.0
3.960000e+04 -2.365994e+02 0.0
3.950000e+04 -2.365767e+02 0.0
3.940000e+04 -2.365519e+02 0.0
3.930000e+04 -2.365249e+02 0.0
3.920000e+04 -2.364959e+02 0.0
3.910000e+04 -2.364648e+02 0.0
3.900000e+04 -2.364316e+02 0.0
3.890000e+04 -2.363963e+02 0.0
3.880000e+04 -2.363590e+02 0.0
3.870000e+04 2.363197e+02 0.0
3.860000e+04 -2.362784e+02 0.0
3.860000e+04 2.362784e+02 0.0
3.850000e+04 -2.362351e+02 0.0
3.850000e+04 2.362351e+02 0.0
3.840000e+04 -2.361897e+02 0.0
3.845000e+04 1.192991e+02 0.0
3.855000e+04 1.193212e+02 0.0
3.830000e+04 -2.361424e+02 0.0
3.820000e+04 -2.360932e+02 0.0
3.810000e+04 -2.360420e+02 0.0
3.800000e+04 -2.359888e+02 0.0
3.790000e+04 -2.359338e+02 0.0
3.780000e+04 -2.358768e+02 0.0
3.770000e+04 -2.358179e+02 0.0
3.740000e+04 2.356301e+02 0.0
3.730000e+04 -2.355638e+02 0.0
3.720000e+04 -2.354957e+02 0.0
3.710000e+04 -2.354257e+02 0.0
3.700000e+04 -2.353540e+02 0.0
3.690000e+04 -2.352804e+02 0.0
3.680000e+04 -2.352051e+02 0.0
3.670000e+04 -2.351281e+02 0.0
3.660000e+04 -2.350493e+02 0.0
3.650000e+04 -2.349687e+02 0.0
3.640000e+04 -2.348865e+02 0.0
3.630000e+04 -2.348025e+02 0.0
3.620000e+04 -2.347170e+02 0.0
3.610000e+04 -2.346300e+02 0.0
3.600000e+04 -2.345418e+02 0.0
3.590000e+04 -2.344525e+02 0.0
3.580000e+04 -2.343622e+02 0.0
3.585000e+04 1.183874e+02 0.0
3.590001e+04 1.447662e+01 0.0
3.570000e+04 -2.342712e+02 0.0
3.560000e+04 -2.341796e+02 0.0
3.550000e+04 -2.340876e+02 0.0
3.540000e+04 -2.339953e+02 0.0
3.530000e+04 -2.339029e+02 0.0
3.520000e+04 -2.338106e+02 0.0
3.510000e+04 -2.337185e+02 0.0
3.500000e+04 -2.336268e+02 0.0
3.490000e+04 -2.335357e+02 0.0
3.450000e+04 -2.331803e+02 0.0
3.440000e+04 -2.330946e+02 0.0
3.430000e+04 -2.330104e+02 0.0
3.420000e+04 -2.329279e+02 0.0
3.410000e+04 -2.328474e+02 0.0
3.400000e+04 -2.327689e+02 0.0
3.390000e+04 -2.326927e+02 0.0
3.380000e+04 -2.326188e+02 0.0
3.370000e+04 -2.325476e+02 0.0
3.360000e+04 -2.324790e+02 0.0
3.350000e+04 -2.324134e+02 0.0
3.340000e+04 -2.323508e+02 0.0
3.330000e+04 -2.322915e+02 0.0
3.320000e+04 -2.322356e+02 0.0
3.310000e+04 -2.321832e+02 0.0
3.300000e+04 2.321346e+02 0.0
3.290000e+04 -2.320899e+02 0.0
3.280000e+04 -2.320492e+02 0.0
3.270000e+04 -2.320128e+02 0.0
3.260000e+04 -2.319808e+02 0.0
3.250000e+04 -2.319533e+02 0.0
3.240000e+04 -2.319306e+02 0.0
3.230000e+04 -2.319127e+02 0.0
3.220000e+04 -2.319000e+02 0.0
3.210000e+04 -2.318924e+02 0.0
3.200000e+04 2.318903e+02 0.0
3.190000e+04 2.318937e+02 0.0
3.185000e+04 1.171198e+02 0.0
3.195000e+04 1.171163e+02 0.0
3.170000e+04 2.319178e+02 0.0
3.160000e+04 -2.319382e+02 0.0
3.150000e+04 -2.319638e+02 0.0
3.140000e+04 -2.319942e+02 0.0
3.130000e+04 -2.320291e+02 0.0
3.120000e+04 -2.320682e+02 0.0
3.110000e+04 -2.321112e+02 0.0
3.100000e+04 -2.321577e+02 0.0
3.090000e+04 -2.322074e+02 0.0
4.935000e+04 -1.023679e+02 0.0
3.080000e+04 -2.322599e+02 0.0
4.945622e+04 1.154953e+02 0.0
4.925000e+04 -1.024573e+02 0.0
3.070000e+04 -2.323151e+02 0.0
4.935121e+04 1.179395e+02 0.0
4.915000e+04 -1.025400e+02 0.0
3.060000e+04 -2.323724e+02 0.0
4.925013e+04 1.185680e+02 0.0
4.905000e+04 -1.026164e+02 0.0
3.050000e+04 -2.324317e+02 0.0
3.040000e+04 -2.324926e+02 0.0
4.875000e+04 -1.028094e+02 0.0
4.915001e+04 1.187300e+02 0.0
3.030000e+04 -2.325547e+02 0.0
4.865000e+04 -1.028623e+02 0.0
3.020000e+04 2.326177e+02 0.0
4.875000e+04 1.190518e+02 0.0
4.855000e+04 -1.029100e+02 0.0
3.010000e+04 -2.326814e+02 0.0
4.864999e+04 1.191131e+02 0.0
4.845000e+04 -1.029526e+02 0.0
3.000000e+04 -2.327453e+02 0.0
4.854999e+04 1.191683e+02 0.0
4.835000e+04 -1.029903e+02 0.0
2.990000e+04 -2.328092e+02 0.0
4.844999e+04 1.192176e+02 0.0
4.825000e+04 -1.030233e+02 0.0
2.980000e+04 -2.328727e+02 0.0
4.834999e+04 1.192612e+02 0.0
4.815000e+04 -1.030519e+02 0.0
2.970000e+04 -2.329356e+02 0.0
4.824999e+04 1.192995e+02 0.0
4.805000e+04 -1.030763e+02 0.0
2.960000e+04 -2.329974e+02 0.0
4.814999e+04 1.193326e+02 0.0
4.795000e+04 -1.030966e+02 0.0
2.950000e+04 -2.330579e+02 0.0
4.804999e+04 1.193608e+02 0.0
4.785000e+04 -1.031131e+02 0.0
2.940000e+04 -2.331167e+02 0.0
4.794999e+04 1.193843e+02 0.0
4.775000e+04 -1.031261e+02 0.0
2.930000e+04 -2.331735e+02 0.0
4.745000e+04 -1.031456e+02 0.0
4.775000e+04 1.194182e+02 0.0
2.920000e+04 2.332280e+02 0.0
4.755000e+04 1.194373e+02 0.0
4.735000e+04 -1.031463e+02 0.0
4.745000e+04 1.194411e+02 0.0
4.725000e+04 -1.031445e+02 0.0
2.890000e+04 2.333743e+02 0.0
4.734999e+04 1.194419e+02 0.0
4.715000e+04 -1.031405e+02 0.0
2.880000e+04 -2.334163e+02 0.0
4.724999e+04 1.194398e+02 0.0
4.705000e+04 -1.031343e+02 0.0
2.870000e+04 -2.334543e+02 0.0
4.714999e+04 1.194351e+02 0.0
4.695000e+04 -1.031263e+02 0.0
2.860000e+04 -2.334880e+02 0.0
4.704999e+04 1.194280e+02 0.0
4.685000e+04 -1.031167e+02 0.0
2.850000e+04 -2.335172e+02 0.0
4.694999e+04 1.194188e+02 0.0
4.675000e+04 -1.031056e+02 0.0
2.840000e+04 -2.335414e+02 0.0
4.665000e+04 -1.030933e+02 0.0
2.830000e+04 -2.335604e+02 0.0
4.655000e+04 -1.030800e+02 0.0
2.820000e+04 -2.335739e+02 0.0
4.664999e+04 1.193805e+02 0.0
4.645000e+04 -1.030659e+02 0.0
2.810000e+04 -2.335814e+02 0.0
2.800000e+04 -2.335827e+02 0.0
4.615000e+04 -1.030210e+02 0.0
4.645000e+04 1.193485e+02 0.0
2.790000e+04 -2.335775e+02 0.0
4.605000e+04 -1.030059e+02 0.0
4.625000e+04 -1.030362e+02 0.0
2.780000e+04 -2.335654e+02 0.0
4.595000e+04 -1.029911e+02 0.0
2.770000e+04 -2.335461e+02 0.0
4.604999e+04 1.192793e+02 0.0
4.585000e+04 -1.029768e+02 0.0
2.760000e+04 -2.335193e+02 0.0
4.594999e+04 1.192621e+02 0.0
4.575000e+04 -1.029632e+02 0.0
2.750000e+04 -2.334846e+02 0.0
4.584999e+04 1.192456e+02 0.0
4.565000e+04 -1.029505e+02 0.0
2.740000e+04 2.334418e+02 0.0
4.574999e+04 1.192298e+02 0.0
4.555000e+04 -1.029390e+02 0.0
2.730000e+04 -2.333905e+02 0.0
4.564999e+04 1.192152e+02 0.0
4.545000e+04 -1.029289e+02 0.0
2.720000e+04 -2.333304e+02 0.0
4.554999e+04 1.192018e+02 0.0
4.535000e+04 -1.029203e+02 0.0
2.710000e+04 -2.332616e+02 0.0
4.544999e+04 1.191901e+02 0.0
4.525000e+04 -1.029132e+02 0.0
2.700000e+04 -2.331847e+02 0.0
4.534999e+04 1.191801e+02 0.0
4.515000e+04 -1.029075e+02 0.0
2.690000e+04 -2.331000e+02 0.0
2.680000e+04 -2.330079e+02 0.0
4.485000e+04 -1.028987e+02 0.0
4.515000e+04 1.191651e+02 0.0
2.670000e+04 -2.329088e+02 0.0
4.495000e+04 1.191573e+02 0.0
4.475000e+04 -1.028983e+02 0.0
2.660000e+04 -2.328031e+02 0.0
4.485000e+04 1.191552e+02 0.0
4.465000e+04 -1.028991e+02 0.0
2.650000e+04 -2.326912e+02 0.0
4.474999e+04 1.191547e+02 0.0
4.455000e+04 -1.029010e+02 0.0
4.464999e+04 1.191556e+02 0.0
4.445000e+04 -1.029039e+02 0.0
2.645000e+04 1.174912e+02 0.0
4.454999e+04 1.191578e+02 0.0
4.435000e+04 -1.029078e+02 0.0
4.444999e+04 1.191612e+02 0.0
4.425000e+04 -1.029127e+02 0.0
2.610000e+04 2.321901e+02 0.0
4.434999e+04 1.191657e+02 0.0
4.415000e+04 -1.029185e+02 0.0
2.600000e+04 -2.320535e+02 0.0
4.405000e+04 -1.029251e+02 0.0
2.590000e+04 -2.319131e+02 0.0
4.395000e+04 -1.029325e+02 0.0
2.580000e+04 -2.317693e+02 0.0
4.404999e+04 1.191857e+02 0.0
4.385000e+04 -1.029405e+02 0.0
2.570000e+04 -2.316226e+02 0.0
2.560000e+04 -2.314734e+02 0.0
4.355000e+04 -1.029685e+02 0.0
4.385000e+04 1.192034e+02 0.0
2.550000e+04 -2.313221e+02 0.0
4.365000e+04 1.192248e+02 0.0
4.345000e+04 -1.029789e+02 0.0
2.540000e+04 -2.311691e+02 0.0
4.355000e+04 1.192361e+02 0.0
4.335000e+04 -1.029897e+02 0.0
2.530000e+04 -2.310148e+02 0.0
4.344999e+04 1.192480e+02 0.0
4.325000e+04 -1.030009e+02 0.0
2.520000e+04 -2.308595e+02 0.0
4.334999e+04 1.192606e+02 0.0
4.315000e+04 -1.030124e+02 0.0
2.510000e+04 -2.307038e+02 0.0
4.305000e+04 -1.030242e+02 0.0
2.500000e+04 -2.305480e+02 0.0
4.295000e+04 -1.030362e+02 0.0
2.490000e+04 -2.303925e+02 0.0
4.304999e+04 1.193005e+02 0.0
4.285000e+04 -1.030483e+02 0.0
2.480000e+04 -2.302377e+02 0.0
4.294999e+04 1.193143e+02 0.0
4.275000e+04 -1.030605e+02 0.0
2.470000e+04 -2.300841e+02 0.0
4.284999e+04 1.193284e+02 0.0
4.265000e+04 -1.030728e+02 0.0
2.460000e+04 2.299320e+02 0.0
4.274999e+04 1.193425e+02 0.0
4.255000e+04 -1.030850e+02 0.0
2.450000e+04 -2.297818e+02 0.0
2.440000e+04 -2.296340e+02 0.0
4.225000e+04 -1.031210e+02 0.0
4.255000e+04 1.193707e+02 0.0
2.430000e+04 -2.294889e+02 0.0
4.235000e+04 1.193992e+02 0.0
4.215000e+04 -1.031326e+02 0.0
2.420000e+04 -2.293470e+02 0.0
4.225000e+04 1.194126e+02 0.0
4.205000e+04 -1.031438e+02 0.0
2.410000e+04 -2.292086e+02 0.0
4.214999e+04 1.194260e+02 0.0
4.195000e+04 -1.031548e+02 0.0
2.400000e+04 -2.290743e+02 0.0
4.204999e+04 1.194390e+02 0.0
4.185000e+04 -1.031652e+02 0.0
2.390000e+04 -2.289443e+02 0.0
4.194999e+04 1.194517e+02 0.0
4.175000e+04 -1.031753e+02 0.0
2.380000e+04 -2.288191e+02 0.0
4.184999e+04 1.194638e+02 0.0
4.165000e+04 -1.031847e+02 0.0
2.370000e+04 -2.286991e+02 0.0
4.174999e+04 1.194754e+02 0.0
4.155000e+04 -1.031936e+02 0.0
2.360000e+04 -2.285846e+02 0.0
4.164999e+04 1.194864e+02 0.0
4.145000e+04 -1.032019e+02 0.0
4.154999e+04 1.194967e+02 0.0
4.135000e+04 -1.032094e+02 0.0
4.125000e+04 -1.032162e+02 0.0
2.320000e+04 2.281910e+02 0.0
4.095000e+04 -1.032314e+02 0.0
2.310000e+04 -2.281106e+02 0.0
4.085000e+04 -1.032346e+02 0.0
2.300000e+04 -2.280383e+02 0.0
4.095000e+04 1.195405e+02 0.0
4.075000e+04 -1.032368e+02 0.0
2.290000e+04 -2.279744e+02 0.0
4.084999e+04 1.195441e+02 0.0
4.065000e+04 -1.032380e+02 0.0
2.280000e+04 -2.279194e+02 0.0
4.074999e+04 1.195467e+02 0.0
4.055000e+04 -1.032382e+02 0.0
2.270000e+04 -2.278736e+02 0.0
4.064999e+04 1.195480e+02 0.0
4.045000e+04 -1.032374e+02 0.0
2.260000e+04 -2.278371e+02 0.0
4.054999e+04 1.195482e+02 0.0
4.035000e+04 -1.032356e+02 0.0
2.250000e+04 -2.278098e+02 0.0
4.025000e+04 -1.032328e+02 0.0
2.240000e+04 -2.277912e+02 0.0
4.015000e+04 -1.032291e+02 0.0
2.230000e+04 -2.277809e+02 0.0
4.024999e+04 1.195420e+02 0.0
4.005000e+04 -1.032244e+02 0.0
2.220000e+04 -2.277785e+02 0.0
4.014999e+04 1.195377e+02 0.0
3.995000e+04 -1.032187e+02 0.0
2.210000e+04 -2.277838e+02 0.0
2.200000e+04 -2.277962e+02 0.0
3.965000e+04 -1.031960e+02 0.0
3.995000e+04 1.195255e+02 0.0
2.190000e+04 2.278155e+02 0.0
3.975000e+04 1.195096e+02 0.0
3.955000e+04 -1.031866e+02 0.0
2.180000e+04 -2.278413e+02 0.0
3.965000e+04 1.194995e+02 0.0
3.945000e+04 -1.031762e+02 0.0
2.170000e+04 -2.278732e+02 0.0
3.954999e+04 1.194885e+02 0.0
3.935000e+04 -1.031649e+02 0.0
2.160000e+04 -2.279108e+02 0.0
3.944999e+04 1.194765e+02 0.0
3.925000e+04 -1.031527e+02 0.0
2.150000e+04 -2.279538e+02 0.0
3.934999e+04 1.194634e+02 0.0
3.915000e+04 -1.031396e+02 0.0
2.140000e+04 -2.280018e+02 0.0
3.924999e+04 1.194493e+02 0.0
3.905000e+04 -1.031256e+02 0.0
2.130000e+04 -2.280544e+02 0.0
3.914999e+04 1.194341e+02 0.0
3.895000e+04 -1.031107e+02 0.0
2.120000e+04 -2.281112e+02 0.0
3.904999e+04 1.194179e+02 0.0
3.885000e+04 -1.030948e+02 0.0
2.110000e+04 -2.281720e+02 0.0
3.894999e+04 1.194006e+02 0.0
3.875000e+04 -1.030781e+02 0.0
2.100000e+04 -2.282362e+02 0.0
3.884999e+04 1.193823e+02 0.0
3.865000e+04 -1.030605e+02 0.0
2.090000e+04 -2.283036e+02 0.0
2.080000e+04 -2.283738e+02 0.0
3.835000e+04 -1.030025e+02 0.0
3.865000e+04 1.193423e+02 0.0
2.070000e+04 -2.284463e+02 0.0
3.825000e+04 -1.029815e+02 0.0
3.835000e+04 1.192754e+02 0.0
3.815000e+04 -1.029596e+02 0.0
3.824999e+04 1.192510e+02 0.0
3.805000e+04 -1.029368e+02 0.0
3.814999e+04 1.192256e+02 0.0
3.795000e+04 -1.029132e+02 0.0
2.030000e+04 2.287531e+02 0.0
3.804999e+04 1.191993e+02 0.0
3.785000e+04 -1.028888e+02 0.0
2.020000e+04 -2.288321e+02 0.0
3.794999e+04 1.191720e+02 0.0
3.775000e+04 -1.028635e+02 0.0
2.010000e+04 -2.289112e+02 0.0
3.784999e+04 1.191437e+02 0.0
3.765000e+04 -1.028374e+02 0.0
2.000000e+04 -2.289902e+02 0.0
3.774999e+04 1.191144e+02 0.0
3.755000e+04 -1.028105e+02 0.0
1.990000e+04 -2.290685e+02 0.0
3.745000e+04 -1.027828e+02 0.0
1.980000e+04 -2.291460e+02 0.0
3.735000e+04 -1.027543e+02 0.0
1.970000e+04 -2.292221e+02 0.0
1.960000e+04 -2.292966e+02 0.0
3.705000e+04 -1.026640e+02 0.0
3.745000e+04 1.190209e+02 0.0
1.950000e+04 -2.293690e+02 0.0
3.715000e+04 1.189194e+02 0.0
3.695000e+04 -1.026323e+02 0.0
1.940000e+04 -2.294389e+02 0.0
3.705000e+04 1.188834e+02 0.0
3.685000e+04 -1.025998e+02 0.0
1.930000e+04 -2.295061e+02 0.0
3.694999e+04 1.188467e+02 0.0
3.675000e+04 -1.025666e+02 0.0
1.920000e+04 -2.295701e+02 0.0
3.684999e+04 1.188091e+02 0.0
3.665000e+04 -1.025326e+02 0.0
1.910000e+04 2.296306e+02 0.0
3.674999e+04 1.187706e+02 0.0
3.655000e+04 -1.024979e+02 0.0
1.900000e+04 -2.296872e+02 0.0
3.664999e+04 1.187312e+02 0.0
3.645000e+04 -1.024624e+02 0.0
1.890000e+04 -2.297395e+02 0.0
3.654999e+04 1.186910e+02 0.0
3.635000e+04 -1.024261e+02 0.0
1.880000e+04 -2.297871e+02 0.0
3.644999e+04 1.186499e+02 0.0
3.625000e+04 -1.023892e+02 0.0
1.870000e+04 -2.298298e+02 0.0
3.634999e+04 1.186079e+02 0.0
3.615000e+04 -1.023515e+02 0.0
1.860000e+04 -2.298670e+02 0.0
3.624999e+04 1.185651e+02 0.0
3.605000e+04 -1.023133e+02 0.0
1.850000e+04 -2.298985e+02 0.0
1.840000e+04 -2.299238e+02 0.0
3.575000e+04 -1.021959e+02 0.0
3.605000e+04 1.184771e+02 0.0
1.830000e+04 -2.299427e+02 0.0
3.565000e+04 -1.021560e+02 0.0
3.585000e+04 -1.022354e+02 0.0
1.820000e+04 -2.299547e+02 0.0
3.555000e+04 -1.021160e+02 0.0
1.810000e+04 -2.299595e+02 0.0
3.564999e+04 1.182952e+02 0.0
3.545000e+04 -1.020758e+02 0.0
1.800000e+04 -2.299571e+02 0.0
3.554999e+04 1.182488e+02 0.0
3.535000e+04 -1.020355e+02 0.0
1.790000e+04 -2.299478e+02 0.0
3.544999e+04 1.182022e+02 0.0
3.525000e+04 -1.019952e+02 0.0
3.534999e+04 1.181556e+02 0.0
3.515000e+04 -1.019550e+02 0.0
3.524999e+04 1.181089e+02 0.0
3.505000e+04 -1.019149e+02 0.0
3.514999e+04 1.180623e+02 0.0
3.495000e+04 -1.018750e+02 0.0
1.750000e+04 2.298459e+02 0.0
3.504999e+04 1.180159e+02 0.0
3.485000e+04 -1.018355e+02 0.0
1.740000e+04 -2.298053e+02 0.0
3.494999e+04 1.179698e+02 0.0
3.475000e+04 -1.017962e+02 0.0
1.730000e+04 -2.297591e+02 0.0
3.465000e+04 -1.017574e+02 0.0
1.720000e+04 -2.297075e+02 0.0
1.710000e+04 -2.296507e+02 0.0
3.435000e+04 -1.016444e+02 0.0
1.700000e+04 -2.295889e+02 0.0
3.445000e+04 1.177459e+02 0.0
3.425000e+04 -1.016080e+02 0.0
1.690000e+04 -2.295224e+02 0.0
3.435000e+04 1.177027e+02 0.0
3.415000e+04 -1.015725e+02 0.0
1.680000e+04 -2.294514e+02 0.0
3.424999e+04 1.176606e+02 0.0
3.405000e+04 -1.015378e+02 0.0
1.670000e+04 -2.293760e+02 0.0
3.414999e+04 1.176194e+02 0.0
3.395000e+04 -1.015040e+02 0.0
1.660000e+04 -2.292965e+02 0.0
3.404999e+04 1.175792e+02 0.0
3.385000e+04 -1.014713e+02 0.0
1.650000e+04 -2.292132e+02 0.0
3.394999e+04 1.175401e+02 0.0
3.375000e+04 -1.014396e+02 0.0
1.640000e+04 -2.291261e+02 0.0
3.384999e+04 1.175022e+02 0.0
3.365000e+04 -1.014091e+02 0.0
1.630000e+04 -2.290357e+02 0.0
3.374999e+04 1.174656e+02 0.0
3.355000e+04 -1.013799e+02 0.0
1.620000e+04 2.289419e+02 0.0
3.364999e+04 1.174303e+02 0.0
3.345000e+04 -1.013519e+02 0.0
1.610000e+04 -2.288452e+02 0.0
3.354999e+04 1.173964e+02 0.0
3.335000e+04 -1.013253e+02 0.0
1.600000e+04 -2.287457e+02 0.0
1.590000e+04 -2.286436e+02 0.0
3.305000e+04 -1.012545e+02 0.0
3.335000e+04 1.173330e+02 0.0
1.580000e+04 -2.285391e+02 0.0
3.315000e+04 1.172770e+02 0.0
3.295000e+04 -1.012341e+02 0.0
1.570000e+04 -2.284325e+02 0.0
3.305000e+04 1.172513e+02 0.0
3.285000e+04 -1.012155e+02 0.0
1.560000e+04 -2.283239e+02 0.0
3.275000e+04 -1.011987e+02 0.0
1.550000e+04 -2.282136e+02 0.0
3.265000e+04 -1.011838e+02 0.0
1.540000e+04 -2.281019e+02 0.0
3.274999e+04 1.171866e+02 0.0
3.255000e+04 -1.011708e+02 0.0
1.530000e+04 -2.279888e+02 0.0
3.264999e+04 1.171693e+02 0.0
3.245000e+04 -1.011598e+02 0.0
1.520000e+04 -2.278747e+02 0.0
3.254999e+04 1.171542e+02 0.0
3.235000e+04 -1.011510e+02 0.0
1.510000e+04 -2.277597e+02 0.0
3.244999e+04 1.171416e+02 0.0
3.225000e+04 -1.011443e+02 0.0
3.234999e+04 1.171313e+02 0.0
3.215000e+04 -1.011399e+02 0.0
3.224999e+04 1.171236e+02 0.0
3.205000e+04 -1.011377e+02 0.0
1.470000e+04 2.272956e+02 0.0
3.175000e+04 -1.011460e+02 0.0
3.215000e+04 1.171184e+02 0.0
1.460000e+04 -2.271796e+02 0.0
3.165000e+04 -1.011537e+02 0.0
1.450000e+04 -2.270641e+02 0.0
3.175000e+04 1.171256e+02 0.0
3.155000e+04 -1.011638e+02 0.0
1.440000e+04 -2.269492e+02 0.0
3.164999e+04 1.171345e+02 0.0
3.145000e+04 -1.011760e+02 0.0
1.430000e+04 -2.268352e+02 0.0
3.154999e+04 1.171461e+02 0.0
3.135000e+04 -1.011903e+02 0.0
1.420000e+04 -2.267224e+02 0.0
3.144999e+04 1.171603e+02 0.0
3.125000e+04 -1.012064e+02 0.0
1.410000e+04 -2.266108e+02 0.0
3.134999e+04 1.171768e+02 0.0
3.115000e+04 -1.012243e+02 0.0
1.400000e+04 -2.265008e+02 0.0
3.124999e+04 1.171955e+02 0.0
3.105000e+04 -1.012439e+02 0.0
1.390000e+04 -2.263925e+02 0.0
3.114999e+04 1.172163e+02 0.0
3.095000e+04 -1.012649e+02 0.0
1.380000e+04 -2.262862e+02 0.0
3.104999e+04 1.172389e+02 0.0
3.085000e+04 -1.012872e+02 0.0
1.370000e+04 -2.261820e+02 0.0
3.094999e+04 1.172632e+02 0.0
3.075000e+04 -1.013107e+02 0.0
1.360000e+04 -2.260803e+02 0.0
3.084999e+04 1.172890e+02 0.0
3.065000e+04 -1.013352e+02 0.0
1.350000e+04 -2.259811e+02 0.0
1.340000e+04 2.258845e+02 0.0
3.035000e+04 -1.014137e+02 0.0
3.065000e+04 1.173444e+02 0.0
1.330000e+04 -2.257905e+02 0.0
3.045000e+04 1.174048e+02 0.0
3.025000e+04 -1.014410e+02 0.0
1.320000e+04 -2.256992e+02 0.0
3.035000e+04 1.174356e+02 0.0
3.015000e+04 -1.014687e+02 0.0
1.310000e+04 -2.256106e+02 0.0
3.024999e+04 1.174672e+02 0.0
3.005000e+04 -1.014965e+02 0.0
1.300000e+04 -2.255247e+02 0.0
2.995000e+04 -1.015244e+02 0.0
1.290000e+04 -2.254416e+02 0.0
2.985000e+04 -1.015522e+02 0.0
1.280000e+04 -2.253614e+02 0.0
2.994999e+04 1.175638e+02 0.0
2.975000e+04 -1.015798e+02 0.0
1.270000e+04 -2.252839e+02 0.0
2.984999e+04 1.175960e+02 0.0
2.965000e+04 -1.016070e+02 0.0
1.260000e+04 -2.252094e+02 0.0
2.974999e+04 1.176279e+02 0.0
2.955000e+04 -1.016337e+02 0.0
1.250000e+04 -2.251379e+02 0.0
2.964999e+04 1.176594e+02 0.0
2.945000e+04 -1.016597e+02 0.0
1.240000e+04 -2.250692e+02 0.0
2.954999e+04 1.176903e+02 0.0
2.935000e+04 -1.016850e+02 0.0
1.230000e+04 -2.250036e+02 0.0
2.905000e+04 -1.017544e+02 0.0
2.945000e+04 1.177204e+02 0.0
2.895000e+04 -1.017751e+02 0.0
2.915000e+04 -1.017324e+02 0.0
2.905000e+04 1.178302e+02 0.0
2.885000e+04 -1.017942e+02 0.0
1.190000e+04 2.247721e+02 0.0
2.894999e+04 1.178540e+02 0.0
2.875000e+04 -1.018116e+02 0.0
1.180000e+04 -2.247221e+02 0.0
2.884999e+04 1.178761e+02 0.0
2.865000e+04 -1.018273e+02 0.0
1.170000e+04 -2.246754e+02 0.0
2.874999e+04 1.178963e+02 0.0
2.855000e+04 -1.018410e+02 0.0
1.160000e+04 -2.246319e+02 0.0
2.864999e+04 1.179145e+02 0.0
2.845000e+04 -1.018527e+02 0.0
1.150000e+04 -2.245918e+02 0.0
2.854999e+04 1.179304e+02 0.0
2.835000e+04 -1.018621e+02 0.0
1.140000e+04 -2.245550e+02 0.0
2.844999e+04 1.179439e+02 0.0
2.825000e+04 -1.018692e+02 0.0
1.130000e+04 -2.245216e+02 0.0
2.834999e+04 1.179548e+02 0.0
2.815000e+04 -1.018738e+02 0.0
1.120000e+04 -2.244917e+02 0.0
2.824999e+04 1.179630e+02 0.0
2.805000e+04 -1.018758e+02 0.0
1.110000e+04 -2.244652e+02 0.0
1.100000e+04 -2.244422e+02 0.0
2.775000e+04 -1.018643e+02 0.0
2.805000e+04 1.179704e+02 0.0
1.090000e+04 -2.244227e+02 0.0
2.785000e+04 1.179656e+02 0.0
2.765000e+04 -1.018543e+02 0.0
1.080000e+04 -2.244069e+02 0.0
2.775000e+04 1.179574e+02 0.0
2.755000e+04 -1.018409e+02 0.0
1.070000e+04 -2.243946e+02 0.0
2.764999e+04 1.179458e+02 0.0
2.745000e+04 -1.018240e+02 0.0
1.060000e+04 -2.243860e+02 0.0
2.754999e+04 1.179303e+02 0.0
2.735000e+04 -1.018035e+02 0.0
2.744999e+04 1.179107e+02 0.0
2.725000e+04 -1.017792e+02 0.0
1.040000e+04 2.243800e+02 0.0
2.715000e+04 -1.017511e+02 0.0
1.030000e+04 -2.243827e+02 0.0
2.705000e+04 -1.017193e+02 0.0
1.020000e+04 -2.243891e+02 0.0
2.714999e+04 1.178263e+02 0.0
2.695000e+04 -1.016841e+02 0.0
1.010000e+04 -2.243994e+02 0.0
2.704999e+04 1.177895e+02 0.0
2.685000e+04 -1.016455e+02 0.0
1.000000e+04 -2.244136e+02 0.0
2.694999e+04 1.177486e+02 0.0
2.675000e+04 -1.016038e+02 0.0
9.900000e+03 -2.244317e+02 0.0
2.684999e+04 1.177039e+02 0.0
2.665000e+04 -1.015591e+02 0.0
9.800000e+03 -2.244538e+02 0.0
9.700000e+03 -2.244798e+02 0.0
2.635000e+04 -1.014091e+02 0.0
2.665000e+04 1.176037e+02 0.0
9.600000e+03 -2.245100e+02 0.0
2.625000e+04 -1.013543e+02 0.0
2.645000e+04 -1.014615e+02 0.0
9.500000e+03 -2.245442e+02 0.0
2.615000e+04 -1.012975e+02 0.0
9.400000e+03 -2.245825e+02 0.0
2.624999e+04 1.173668e+02 0.0
2.605000e+04 -1.012388e+02 0.0
2.614999e+04 1.173010e+02 0.0
2.595000e+04 -1.011783e+02 0.0
2.604999e+04 1.172330e+02 0.0
2.585000e+04 -1.011163e+02 0.0
2.594999e+04 1.171630e+02 0.0
2.575000e+04 -1.010530e+02 0.0
9.000000e+03 2.247777e+02 0.0
2.584999e+04 1.170912e+02 0.0
2.565000e+04 -1.009884e+02 0.0
8.900000e+03 -2.248370e+02 0.0
2.574999e+04 1.170178e+02 0.0
2.555000e+04 -1.009229e+02 0.0
8.800000e+03 -2.249004e+02 0.0
2.564999e+04 1.169431e+02 0.0
2.545000e+04 -1.008565e+02 0.0
8.700000e+03 -2.249677e+02 0.0
2.554999e+04 1.168672e+02 0.0
2.535000e+04 -1.007894e+02 0.0
8.600000e+03 -2.250388e+02 0.0
2.544999e+04 1.167903e+02 0.0
2.525000e+04 -1.007219e+02 0.0
8.500000e+03 -2.251135e+02 0.0
8.400000e+03 -2.251918e+02 0.0
2.495000e+04 -1.005182e+02 0.0
2.525000e+04 1.166342e+02 0.0
8.300000e+03 -2.252736e+02 0.0
2.505000e+04 1.164775e+02 0.0
2.485000e+04 -1.004505e+02 0.0
8.200000e+03 -2.253586e+02 0.0
2.495000e+04 1.163986e+02 0.0
2.475000e+04 -1.003832e+02 0.0
8.100000e+03 -2.254469e+02 0.0
2.484999e+04 1.163202e+02 0.0
2.465000e+04 -1.003165e+02 0.0
8.000000e+03 -2.255382e+02 0.0
2.474999e+04 1.162423e+02 0.0
2.455000e+04 -1.002506e+02 0.0
7.900000e+03 -2.256324e+02 0.0
2.464999e+04 1.161650e+02 0.0
2.445000e+04 -1.001856e+02 0.0
7.800000e+03 2.257294e+02 0.0
2.435000e+04 -1.001217e+02 0.0
7.700000e+03 -2.258292e+02 0.0
2.425000e+04 -1.000591e+02 0.0
7.600000e+03 -2.259315e+02 0.0
2.434999e+04 1.159394e+02 0.0
2.415000e+04 -9.999795e+01 0.0
7.500000e+03 -2.260363e+02 0.0
2.424999e+04 1.158669e+02 0.0
2.405000e+04 -9.993846e+01 0.0
7.400000e+03 -2.261434e+02 0.0
2.414999e+04 1.157961e+02 0.0
2.395000e+04 -9.988078e+01 0.0
7.300000e+03 -2.262527e+02 0.0
7.200000e+03 -2.263641e+02 0.0
2.365000e+04 -9.972046e+01 0.0
2.395000e+04 1.156602e+02 0.0
7.100000e+03 -2.264774e+02 0.0
2.375000e+04 1.155343e+02 0.0
2.355000e+04 -9.967184e+01 0.0
7.000000e+03 -2.265926e+02 0.0
2.365000e+04 1.154748e+02 0.0
2.345000e+04 -9.962593e+01 0.0
6.900000e+03 -2.267096e+02 0.0
2.335000e+04 -9.958289e+01 0.0
6.800000e+03 -2.268281e+02 0.0
2.325000e+04 -9.954292e+01 0.0
6.700000e+03 -2.269480e+02 0.0
2.334999e+04 1.153155e+02 0.0
2.315000e+04 -9.950619e+01 0.0
6.600000e+03 -2.270694e+02 0.0
2.324999e+04 1.152692e+02 0.0
2.305000e+04 -9.947287e+01 0.0
2.314999e+04 1.152267e+02 0.0
2.295000e+04 -9.944314e+01 0.0
2.304999e+04 1.151881e+02 0.0
2.285000e+04 -9.941718e+01 0.0
2.294999e+04 1.151537e+02 0.0
2.275000e+04 -9.939517e+01 0.0
6.200000e+03 2.275657e+02 0.0
2.284999e+04 1.151236e+02 0.0
2.265000e+04 -9.937725e+01 0.0
6.100000e+03 -2.276920e+02 0.0
2.274999e+04 1.150981e+02 0.0
2.255000e+04 -9.936337e+01 0.0
6.000000e+03 -2.278188e+02 0.0
5.900000e+03 -2.279462e+02 0.0
2.225000e+04 -9.934433e+01 0.0
2.255000e+04 1.150611e+02 0.0
5.800000e+03 -2.280739e+02 0.0
2.235000e+04 1.150427e+02 0.0
2.215000e+04 -9.934498e+01 0.0
5.700000e+03 -2.282019e+02 0.0
2.225000e+04 1.150393e+02 0.0
2.205000e+04 -9.934886e+01 0.0
5.600000e+03 -2.283300e+02 0.0
2.214999e+04 1.150400e+02 0.0
2.195000e+04 -9.935581e+01 0.0
5.500000e+03 -2.284581e+02 0.0
2.204999e+04 1.150445e+02 0.0
2.185000e+04 -9.936566e+01 0.0
5.400000e+03 -2.285861e+02 0.0
2.194999e+04 1.150525e+02 0.0
2.175000e+04 -9.937826e+01 0.0
5.300000e+03 -2.287138e+02 0.0
2.165000e+04 -9.939344e+01 0.0
5.200000e+03 -2.288412e+02 0.0
2.155000e+04 -9.941104e+01 0.0
5.100000e+03 2.289681e+02 0.0
2.164999e+04 1.150961e+02 0.0
2.145000e+04 -9.943090e+01 0.0
5.000000e+03 -2.290944e+02 0.0
2.154999e+04 1.151165e+02 0.0
2.135000e+04 -9.945285e+01 0.0
4.900000e+03 -2.292200e+02 0.0
2.144999e+04 1.151395e+02 0.0
2.125000e+04 -9.947674e+01 0.0
4.800000e+03 -2.293447e+02 0.0
2.134999e+04 1.151649e+02 0.0
2.115000e+04 -9.950241e+01 0.0
4.700000e+03 -2.294684e+02 0.0
4.600000e+03 -2.295911e+02 0.0
2.085000e+04 -9.958842e+01 0.0
2.115000e+04 1.152221e+02 0.0
4.500000e+03 -2.297125e+02 0.0
2.095000e+04 1.152874e+02 0.0
2.075000e+04 -9.961956e+01 0.0
4.400000e+03 -2.298326e+02 0.0
2.085000e+04 1.153219e+02 0.0
2.065000e+04 -9.965166e+01 0.0
4.300000e+03 -2.299512e+02 0.0
2.074999e+04 1.153580e+02 0.0
2.055000e+04 -9.968457e+01 0.0
4.200000e+03 -2.300682e+02 0.0
2.045000e+04 -9.971812e+01 0.0
4.100000e+03 -2.301834e+02 0.0
2.035000e+04 -9.975215e+01 0.0
4.000000e+03 -2.302968e+02 0.0
2.044999e+04 1.154721e+02 0.0
2.025000e+04 -9.978650e+01 0.0
3.900000e+03 -2.304082e+02 0.0
2.034999e+04 1.155115e+02 0.0
2.015000e+04 -9.982100e+01 0.0
3.800000e+03 -2.305175e+02 0.0
2.024999e+04 1.155513e+02 0.0
2.005000e+04 -9.985550e+01 0.0
2.014999e+04 1.155912e+02 0.0
1.995000e+04 -9.988983e+01 0.0
3.600000e+03 2.307292e+02 0.0
2.004999e+04 1.156312e+02 0.0
1.985000e+04 -9.992383e+01 0.0
3.500000e+03 -2.308313e+02 0.0
1.955000e+04 -1.000222e+02 0.0
1.985000e+04 1.157101e+02 0.0
3.300000e+03 2.310276e+02 0.0
1.965000e+04 1.157874e+02 0.0
1.945000e+04 -1.000533e+02 0.0
3.200000e+03 -2.311214e+02 0.0
1.955000e+04 1.158243e+02 0.0
1.935000e+04 -1.000832e+02 0.0
3.100000e+03 -2.312122e+02 0.0
1.944999e+04 1.158602e+02 0.0
1.925000e+04 -1.001119e+02 0.0
3.000000e+03 -2.312998e+02 0.0
1.934999e+04 1.158949e+02 0.0
1.915000e+04 -1.001390e+02 0.0
2.900000e+03 -2.313842e+02 0.0
1.924999e+04 1.159280e+02 0.0
1.905000e+04 -1.001646e+02 0.0
2.800000e+03 -2.314651e+02 0.0
1.914999e+04 1.159595e+02 0.0
1.895000e+04 -1.001883e+02 0.0
2.700000e+03 -2.315425e+02 0.0
1.885000e+04 -1.002102e+02 0.0
2.600000e+03 -2.316162e+02 0.0
1.875000e+04 -1.002299e+02 0.0
2.500000e+03 -2.316861e+02 0.0
1.884999e+04 1.160419e+02 0.0
1.865000e+04 -1.002473e+02 0.0
2.400000e+03 -2.317521e+02 0.0
1.874999e+04 1.160647e+02 0.0
1.855000e+04 -1.002623e+02 0.0
2.300000e+03 -2.318139e+02 0.0
1.864999e+04 1.160849e+02 0.0
1.845000e+04 -1.002747e+02 0.0
2.200000e+03 2.318716e+02 0.0
2.100000e+03 -2.319250e+02 0.0
1.815000e+04 -1.002948e+02 0.0
1.845000e+04 1.161164e+02 0.0
2.000000e+03 -2.319739e+02 0.0
1.825000e+04 1.161359e+02 0.0
1.805000e+04 -1.002953e+02 0.0
1.900000e+03 -2.320182e+02 0.0
1.815000e+04 1.161399e+02 0.0
1.795000e+04 -1.002928e+02 0.0
1.800000e+03 -2.320579e+02 0.0
1.804999e+04 1.161405e+02 0.0
1.785000e+04 -1.002873e+02 0.0
1.700000e+03 -2.320926e+02 0.0
1.794999e+04 1.161375e+02 0.0
1.775000e+04 -1.002789e+02 0.0
1.600000e+03 -2.321224e+02 0.0
1.765000e+04 -1.002677e+02 0.0
1.500000e+03 -2.321471e+02 0.0
1.755000e+04 -1.002538e+02 0.0
1.400000e+03 -2.321666e+02 0.0
1.764999e+04 1.161085e+02 0.0
1.745000e+04 -1.002374e+02 0.0
1.300000e+03 -2.321806e+02 0.0
1.754999e+04 1.160924e+02 0.0
1.735000e+04 -1.002184e+02 0.0
1.200000e+03 -2.321892e+02 0.0
1.744999e+04 1.160734e+02 0.0
1.725000e+04 -1.001971e+02 0.0
1.100000e+03 -2.321922e+02 0.0
1.734999e+04 1.160515e+02 0.0
1.715000e+04 -1.001734e+02 0.0
1.000000e+03 -2.321894e+02 0.0
1.724999e+04 1.160267e+02 0.0
1.705000e+04 -1.001476e+02 0.0
9.500005e+02 1.172653e+02 0.0
1.675000e+04 -1.000576e+02 0.0
1.705000e+04 1.159692e+02 0.0
1.685000e+04 1.159025e+02 0.0
1.665000e+04 -1.000239e+02 0.0
6.000000e+02 2.321182e+02 0.0
1.675000e+04 1.158653e+02 0.0
1.655000e+04 -9.998833e+01 0.0
5.000000e+02 -2.320847e+02 0.0
1.664999e+04 1.158261e+02 0.0
1.645000e+04 -9.995117e+01 0.0
4.000000e+02 -2.320447e+02 0.0
1.654999e+04 1.157850e+02 0.0
1.635000e+04 -9.991245e+01 0.0
3.000000e+02 -2.319981e+02 0.0
1.644999e+04 1.157420e+02 0.0
1.625000e+04 -9.987227e+01 0.0
2.000000e+02 -2.319446e+02 0.0
1.634999e+04 1.156971e+02 0.0
1.615000e+04 -9.983073e+01 0.0
1.000000e+02 -2.318842e+02 0.0
1.624999e+04 1.156506e+02 0.0
1.605000e+04 -9.978792e+01 0.0
-1.455192e-11 -2.318168e+02 0.0
1.595000e+04 -9.974394e+01 0.0
-1.000000e+02 -2.317423e+02 0.0
1.585000e+04 -9.969888e+01 0.0
-2.000000e+02 -2.316610e+02 0.0
1.594999e+04 1.155020e+02 0.0
1.575000e+04 -9.965283e+01 0.0
-3.000000e+02 -2.315734e+02 0.0
1.584999e+04 1.154498e+02 0.0
1.565000e+04 -9.960589e+01 0.0
-4.000000e+02 -2.314799e+02 0.0
-5.000000e+02 -2.313809e+02 0.0
1.535000e+04 -9.946068e+01 0.0
1.565000e+04 1.153419e+02 0.0
-6.000000e+02 2.312769e+02 0.0
1.545000e+04 1.152310e+02 0.0
1.525000e+04 -9.941112e+01 0.0
-7.000000e+02 -2.311683e+02 0.0
1.535000e+04 1.151740e+02 0.0
1.515000e+04 -9.936115e+01 0.0
-8.000000e+02 -2.310554e+02 0.0
1.524999e+04 1.151166e+02 0.0
1.505000e+04 -9.931085e+01 0.0
-9.000000e+02 -2.309388e+02 0.0
1.514999e+04 1.150587e+02 0.0
1.495000e+04 -9.926033e+01 0.0
-1.000000e+03 -2.308188e+02 0.0
1.485000e+04 -9.920966e+01 0.0
-1.100000e+03 -2.306959e+02 0.0
1.475000e+04 -9.915896e+01 0.0
-1.200000e+03 -2.305705e+02 0.0
1.484999e+04 1.148833e+02 0.0
1.465000e+04 -9.910832e+01 0.0
-1.300000e+03 -2.304431e+02 0.0
1.474999e+04 1.148246e+02 0.0
1.455000e+04 -9.905782e+01 0.0
-1.400000e+03 -2.303140e+02 0.0
1.464999e+04 1.147659e+02 0.0
1.445000e+04 -9.900756e+01 0.0
-1.500000e+03 -2.301837e+02 0.0
1.454999e+04 1.147075e+02 0.0
1.435000e+04 -9.895764e+01 0.0
-1.600000e+03 -2.300525e+02 0.0
1.444999e+04 1.146493e+02 0.0
1.425000e+04 -9.890816e+01 0.0
-1.700000e+03 -2.299210e+02 0.0
-1.800000e+03 -2.297896e+02 0.0
1.395000e+04 -9.876324e+01 0.0
1.425000e+04 1.145339e+02 0.0
1.405000e+04 1.144218e+02 0.0
1.385000e+04 -9.871643e+01 0.0
-1.900000e+03 2.296587e+02 0.0
1.395000e+04 1.143664e+02 0.0
1.375000e+04 -9.867052e+01 0.0
1.384999e+04 1.143121e+02 0.0
1.365000e+04 -9.862561e+01 0.0
-2.200000e+03 2.292730e+02 0.0
1.374999e+04 1.142590e+02 0.0
1.355000e+04 -9.858179e+01 0.0
-2.300000e+03 -2.291482e+02 0.0
1.364999e+04 1.142070e+02 0.0
1.345000e+04 -9.853909e+01 0.0
-2.400000e+03 -2.290261e+02 0.0
1.354999e+04 1.141562e+02 0.0
1.335000e+04 -9.849753e+01 0.0
-2.500000e+03 -2.289069e+02 0.0
1.344999e+04 1.141068e+02 0.0
1.325000e+04 -9.845712e+01 0.0
-2.600000e+03 -2.287913e+02 0.0
1.315000e+04 -9.841788e+01 0.0
-2.700000e+03 -2.286795e+02 0.0
1.305000e+04 -9.837983e+01 0.0
-2.800000e+03 -2.285721e+02 0.0
1.314999e+04 1.139664e+02 0.0
1.295000e+04 -9.834299e+01 0.0
-2.900000e+03 -2.284693e+02 0.0
1.304999e+04 1.139224e+02 0.0
1.285000e+04 -9.830736e+01 0.0
-3.000000e+03 -2.283718e+02 0.0
1.294999e+04 1.138797e+02 0.0
1.275000e+04 -9.827298e+01 0.0
-3.100000e+03 -2.282798e+02 0.0
-3.200000e+03 -2.281939e+02 0.0
1.245000e+04 -9.817741e+01 0.0
1.275000e+04 1.137984e+02 0.0
1.255000e+04 1.137236e+02 0.0
1.235000e+04 -9.814814e+01 0.0
1.245000e+04 1.136880e+02 0.0
1.225000e+04 -9.812019e+01 0.0
-3.500000e+03 -2.279764e+02 0.0
1.234999e+04 1.136541e+02 0.0
1.215000e+04 -9.809358e+01 0.0
1.205000e+04 -9.806833e+01 0.0
-3.549999e+03 1.151243e+02 0.0
-3.499994e+03 1.407674e+01 0.0
-3.700000e+03 2.278692e+02 0.0
1.195000e+04 -9.804444e+01 0.0
-3.800000e+03 -2.278283e+02 0.0
1.204999e+04 1.135617e+02 0.0
1.185000e+04 -9.802195e+01 0.0
-3.900000e+03 -2.277964e+02 0.0
1.194999e+04 1.135340e+02 0.0
1.175000e+04 -9.800085e+01 0.0
-4.000000e+03 -2.277739e+02 0.0
1.184999e+04 1.135079e+02 0.0
1.165000e+04 -9.798118e+01 0.0
-4.100000e+03 -2.277612e+02 0.0
1.174999e+04 1.134835e+02 0.0
1.155000e+04 -9.796295e+01 0.0
-4.200000e+03 -2.277588e+02 0.0
1.164999e+04 1.134607e+02 0.0
1.145000e+04 -9.794617e+01 0.0
-4.300000e+03 -2.277671e+02 0.0
1.154999e+04 1.134396e+02 0.0
1.135000e+04 -9.793086e+01 0.0
-4.400000e+03 -2.277866e+02 0.0
-4.500000e+03 -2.278175e+02 0.0
1.105000e+04 -9.789394e+01 0.0
1.135000e+04 1.134023e+02 0.0
-4.600000e+03 -2.278605e+02 0.0
1.115000e+04 1.133725e+02 0.0
1.095000e+04 -9.788468e+01 0.0
-4.700000e+03 -2.279153e+02 0.0
1.105000e+04 1.133598e+02 0.0
1.085000e+04 -9.787698e+01 0.0
1.094999e+04 1.133490e+02 0.0
1.075000e+04 -9.787085e+01 0.0
1.084999e+04 1.133401e+02 0.0
1.065000e+04 -9.786631e+01 0.0
1.074999e+04 1.133330e+02 0.0
1.055000e+04 -9.786337e+01 0.0
-5.100000e+03 2.282441e+02 0.0
1.045000e+04 -9.786206e+01 0.0
-5.049999e+03 1.152493e+02 0.0
-5.200000e+03 -2.283513e+02 0.0
1.035000e+04 -9.786238e+01 0.0
-5.300000e+03 -2.284675e+02 0.0
1.044999e+04 1.133228e+02 0.0
1.025000e+04 -9.786435e+01 0.0
-5.400000e+03 -2.285923e+02 0.0
1.034999e+04 1.133232e+02 0.0
1.015000e+04 -9.786800e+01 0.0
-5.500000e+03 -2.287252e+02 0.0
1.005000e+04 -9.787334e+01 0.0
-5.600000e+03 -2.288657e+02 0.0
1.014999e+04 1.133297e+02 0.0
9.950000e+03 -9.788038e+01 0.0
-5.700000e+03 -2.290134e+02 0.0
-5.800000e+03 -2.291677e+02 0.0
9.650000e+03 -9.791190e+01 0.0
9.950001e+03 1.133438e+02 0.0
-5.900000e+03 -2.293282e+02 0.0
9.750001e+03 1.133666e+02 0.0
9.550000e+03 -9.792592e+01 0.0
-6.000000e+03 -2.294944e+02 0.0
9.649996e+03 1.133806e+02 0.0
9.450000e+03 -9.794174e+01 0.0
-6.100000e+03 -2.296659e+02 0.0
9.549995e+03 1.133967e+02 0.0
9.350000e+03 -9.795935e+01 0.0
-6.200000e+03 2.298420e+02 0.0
9.449995e+03 1.134151e+02 0.0
9.250000e+03 -9.797879e+01 0.0
-6.300000e+03 -2.300225e+02 0.0
9.150000e+03 -9.800007e+01 0.0
-6.400000e+03 -2.302068e+02 0.0
9.050000e+03 -9.802321e+01 0.0
-6.500000e+03 -2.303944e+02 0.0
9.149995e+03 1.134826e+02 0.0
8.950000e+03 -9.804818e+01 0.0
-6.600000e+03 -2.305848e+02 0.0
9.049995e+03 1.135094e+02 0.0
8.850000e+03 -9.807494e+01 0.0
-6.700000e+03 -2.307777e+02 0.0
8.949995e+03 1.135383e+02 0.0
8.750000e+03 -9.810344e+01 0.0
-6.800000e+03 -2.309724e+02 0.0
8.849995e+03 1.135693e+02 0.0
8.650000e+03 -9.813362e+01 0.0
-6.900000e+03 -2.311685e+02 0.0
8.749995e+03 1.136023e+02 0.0
8.550000e+03 -9.816543e+01 0.0
-7.000000e+03 -2.313656e+02 0.0
-7.100000e+03 -2.315631e+02 0.0
8.250000e+03 -9.827010e+01 0.0
8.550001e+03 1.136739e+02 0.0
-7.200000e+03 -2.317606e+02 0.0
8.350001e+03 1.137534e+02 0.0
8.150000e+03 -9.830789e+01 0.0
-7.300000e+03 -2.319576e+02 0.0
8.249996e+03 1.137954e+02 0.0
8.050000e+03 -9.834705e+01 0.0
-7.400000e+03 -2.321537e+02 0.0
8.149995e+03 1.138391e+02 0.0
7.950000e+03 -9.838752e+01 0.0
8.049995e+03 1.138844e+02 0.0
7.850000e+03 -9.842924e+01 0.0
7.949995e+03 1.139313e+02 0.0
7.750000e+03 -9.847216e+01 0.0
7.849995e+03 1.139796e+02 0.0
7.650000e+03 -9.851623e+01 0.0
-7.800000e+03 2.329187e+02 0.0
7.550000e+03 -9.856140e+01 0.0
-7.900000e+03 -2.331027e+02 0.0
7.450000e+03 -9.860761e+01 0.0
-8.000000e+03 -2.332830e+02 0.0
7.549995e+03 1.141326e+02 0.0
7.350000e+03 -9.865481e+01 0.0
-8.100000e+03 -2.334589e+02 0.0
7.449995e+03 1.141861e+02 0.0
7.250000e+03 -9.870295e+01 0.0
-8.200000e+03 -2.336301e+02 0.0
7.349995e+03 1.142408e+02 0.0
7.150000e+03 -9.875197e+01 0.0
-8.300000e+03 -2.337960e+02 0.0
7.249995e+03 1.142965e+02 0.0
7.050000e+03 -9.880181e+01 0.0
-8.400000e+03 -2.339561e+02 0.0
-8.500000e+03 -2.341101e+02 0.0
6.750000e+03 -9.895579e+01 0.0
7.050001e+03 1.144108e+02 0.0
-8.600000e+03 -2.342573e+02 0.0
6.850001e+03 1.145294e+02 0.0
6.650000e+03 -9.900842e+01 0.0
-8.700000e+03 -2.343974e+02 0.0
6.749996e+03 1.145894e+02 0.0
6.550000e+03 -9.906162e+01 0.0
-8.800000e+03 -2.345298e+02 0.0
6.649995e+03 1.146503e+02 0.0
6.450000e+03 -9.911532e+01 0.0
-8.900000e+03 -2.346542e+02 0.0
6.350000e+03 -9.916947e+01 0.0
-9.000000e+03 2.347699e+02 0.0
6.250000e+03 -9.922403e+01 0.0
-9.100000e+03 -2.348765e+02 0.0
6.349995e+03 1.148368e+02 0.0
6.150000e+03 -9.927893e+01 0.0
-9.200000e+03 -2.349738e+02 0.0
6.249995e+03 1.148999e+02 0.0
6.050000e+03 -9.933414e+01 0.0
-9.300000e+03 -2.350619e+02 0.0
6.149995e+03 1.149635e+02 0.0
5.950000e+03 -9.938958e+01 0.0
-9.400000e+03 -2.351410e+02 0.0
6.049995e+03 1.150274e+02 0.0
5.850000e+03 -9.944521e+01 0.0
-9.500000e+03 -2.352115e+02 0.0
5.949995e+03 1.150916e+02 0.0
5.750000e+03 -9.950098e+01 0.0
-9.600000e+03 -2.352737e+02 0.0
5.849995e+03 1.151561e+02 0.0
5.650000e+03 -9.955683e+01 0.0
-9.700000e+03 -2.353277e+02 0.0
-9.800000e+03 -2.353740e+02 0.0
5.350000e+03 -9.972434e+01 0.0
5.650001e+03 1.152851e+02 0.0
-9.900000e+03 -2.354127e+02 0.0
5.450001e+03 1.154150e+02 0.0
5.250000e+03 -9.977998e+01 0.0
-1.000000e+04 -2.354442e+02 0.0
5.349996e+03 1.154793e+02 0.0
5.150000e+03 -9.983544e+01 0.0
-1.010000e+04 -2.354688e+02 0.0
5.249995e+03 1.155437e+02 0.0
5.050000e+03 -9.989066e+01 0.0
-1.020000e+04 -2.354866e+02 0.0
5.149995e+03 1.156079e+02 0.0
4.950000e+03 -9.994559e+01 0.0
-1.030000e+04 -2.354981e+02 0.0
4.850000e+03 -1.000002e+02 0.0
4.750000e+03 -1.000544e+02 0.0
-1.050000e+04 2.355029e+02 0.0
4.849995e+03 1.157987e+02 0.0
4.650000e+03 -1.001081e+02 0.0
-1.060000e+04 -2.354969e+02 0.0
4.749995e+03 1.158615e+02 0.0
4.550000e+03 -1.001613e+02 0.0
-1.070000e+04 -2.354855e+02 0.0
4.649995e+03 1.159237e+02 0.0
4.450000e+03 -1.002140e+02 0.0
-1.080000e+04 -2.354692e+02 0.0
4.549995e+03 1.159853e+02 0.0
4.350000e+03 -1.002661e+02 0.0
-1.090000e+04 -2.354481e+02 0.0
4.449995e+03 1.160463e+02 0.0
4.250000e+03 -1.003174e+02 0.0
-1.100000e+04 -2.354226e+02 0.0
4.349995e+03 1.161066e+02 0.0
4.150000e+03 -1.003681e+02 0.0
-1.110000e+04 -2.353930e+02 0.0
-1.120000e+04 -2.353595e+02 0.0
3.850000e+03 -1.005151e+02 0.0
4.150001e+03 1.162245e+02 0.0
-1.130000e+04 -2.353223e+02 0.0
3.950001e+03 1.163396e+02 0.0
3.750000e+03 -1.005623e+02 0.0
-1.140000e+04 -2.352819e+02 0.0
3.849996e+03 1.163951e+02 0.0
3.650000e+03 -1.006085e+02 0.0
-1.150000e+04 -2.352384e+02 0.0
3.550000e+03 -1.006536e+02 0.0
-1.160000e+04 -2.351921e+02 0.0
3.649995e+03 1.165031e+02 0.0
3.450000e+03 -1.006976e+02 0.0
-1.170000e+04 -2.351434e+02 0.0
3.350000e+03 -1.007404e+02 0.0
-1.180000e+04 -2.350925e+02 0.0
3.449995e+03 1.166063e+02 0.0
3.250000e+03 -1.007819e+02 0.0
-1.190000e+04 2.350397e+02 0.0
3.349995e+03 1.166558e+02 0.0
3.150000e+03 -1.008222e+02 0.0
-1.200000e+04 -2.349852e+02 0.0
3.249995e+03 1.167040e+02 0.0
3.050000e+03 -1.008611e+02 0.0
-1.210000e+04 -2.349293e+02 0.0
3.149995e+03 1.167506e+02 0.0
2.950000e+03 -1.008986e+02 0.0
-1.220000e+04 -2.348724e+02 0.0
3.049995e+03 1.167957e+02 0.0
2.850000e+03 -1.009347e+02 0.0
-1.230000e+04 -2.348147e+02 0.0
2.949995e+03 1.168391e+02 0.0
2.750000e+03 -1.009692e+02 0.0
-1.240000e+04 -2.347565e+02 0.0
2.849995e+03 1.168808e+02 0.0
2.650000e+03 -1.010022e+02 0.0
-1.250000e+04 -2.346980e+02 0.0
-1.260000e+04 -2.346396e+02 0.0
2.350000e+03 -1.010910e+02 0.0
2.650001e+03 1.169588e+02 0.0
-1.270000e+04 -2.345815e+02 0.0
2.450001e+03 1.170298e+02 0.0
2.250000e+03 -1.011171e+02 0.0
-1.280000e+04 -2.345240e+02 0.0
2.349996e+03 1.170619e+02 0.0
2.150000e+03 -1.011413e+02 0.0
-1.290000e+04 -2.344674e+02 0.0
2.249995e+03 1.170921e+02 0.0
2.050000e+03 -1.011636e+02 0.0
-1.300000e+04 -2.344120e+02 0.0
1.950000e+03 -1.011840e+02 0.0
1.850000e+03 -1.012023e+02 0.0
1.949995e+03 1.171695e+02 0.0
1.750000e+03 -1.012185e+02 0.0
1.849995e+03 1.171907e+02 0.0
1.650000e+03 -1.012326e+02 0.0
-1.340000e+04 2.342075e+02 0.0
1.749995e+03 1.172095e+02 0.0
1.550000e+03 -1.012445e+02 0.0
-1.350000e+04 -2.341620e+02 0.0
1.649995e+03 1.172258e+02 0.0
1.450000e+03 -1.012541e+02 0.0
-1.360000e+04 -2.341195e+02 0.0
1.549995e+03 1.172396e+02 0.0
1.350000e+03 -1.012614e+02 0.0
-1.370000e+04 -2.340800e+02 0.0
1.449995e+03 1.172507e+02 0.0
1.250000e+03 -1.012664e+02 0.0
-1.380000e+04 -2.340437e+02 0.0
1.349995e+03 1.172592e+02 0.0
1.150000e+03 -1.012689e+02 0.0
-1.390000e+04 -2.340104e+02 0.0
-1.400000e+04 -2.339801e+02 0.0
8.500000e+02 -1.012614e+02 0.0
1.150001e+03 1.172677e+02 0.0
-1.410000e+04 -2.339525e+02 0.0
7.500000e+02 -1.012537e+02 0.0
9.500000e+02 -1.012665e+02 0.0
-1.420000e+04 -2.339277e+02 0.0
6.500000e+02 -1.012432e+02 0.0
-1.430000e+04 -2.339055e+02 0.0
7.499948e+02 1.172502e+02 0.0
5.500000e+02 -1.012300e+02 0.0
-1.440000e+04 -2.338858e+02 0.0
6.499947e+02 1.172381e+02 0.0
4.500000e+02 -1.012140e+02 0.0
-1.450000e+04 -2.338684e+02 0.0
5.499947e+02 1.172229e+02 0.0
3.500000e+02 -1.011951e+02 0.0
-1.460000e+04 -2.338533e+02 0.0
4.499947e+02 1.172043e+02 0.0
2.500000e+02 -1.011733e+02 0.0
-1.470000e+04 2.338404e+02 0.0
3.499947e+02 1.171824e+02 0.0
1.500000e+02 -1.011485e+02 0.0
-1.480000e+04 -2.338295e+02 0.0
2.499947e+02 1.171571e+02 0.0
5.000000e+01 -1.011206e+02 0.0
-1.490000e+04 -2.338205e+02 0.0
1.499947e+02 1.171284e+02 0.0
-5.000000e+01 -1.010896e+02 0.0
-1.500000e+04 -2.338134e+02 0.0
4.999475e+01 1.170961e+02 0.0
-1.500000e+02 -1.010556e+02 0.0
-1.510000e+04 -2.338079e+02 0.0
-5.000505e+01 1.170603e+02 0.0
-2.500000e+02 -1.010188e+02 0.0
-1.520000e+04 -2.338040e+02 0.0
-1.530000e+04 -2.338016e+02 0.0
-5.500000e+02 -1.008930e+02 0.0
-2.499994e+02 1.169780e+02 0.0
-1.540000e+04 -2.338006e+02 0.0
-4.499995e+02 1.168841e+02 0.0
-6.500000e+02 -1.008466e+02 0.0
-1.550000e+04 -2.338008e+02 0.0
-5.500041e+02 1.168326e+02 0.0
-7.500000e+02 -1.007983e+02 0.0
-1.560000e+04 -2.338022e+02 0.0
-8.500000e+02 -1.007482e+02 0.0
-1.570000e+04 -2.338046e+02 0.0
-9.500000e+02 -1.006966e+02 0.0
-1.580000e+04 -2.338080e+02 0.0
-8.500053e+02 1.166649e+02 0.0
-1.050000e+03 -1.006436e+02 0.0
-9.500053e+02 1.166051e+02 0.0
-1.150000e+03 -1.005894e+02 0.0
-1.590000e+04 2.338121e+02 0.0
-1.050005e+03 1.165438e+02 0.0
-1.250000e+03 -1.005343e+02 0.0
-1.600000e+04 2.338169e+02 0.0
-1.150005e+03 1.164811e+02 0.0
-1.350000e+03 -1.004783e+02 0.0
-1.605000e+04 1.180905e+02 0.0
-1.595000e+04 1.180876e+02 0.0
-1.620000e+04 2.338283e+02 0.0
-1.250005e+03 1.164172e+02 0.0
-1.450000e+03 -1.004217e+02 0.0
-1.630000e+04 -2.338345e+02 0.0
-1.350005e+03 1.163524e+02 0.0
-1.550000e+03 -1.003647e+02 0.0
-1.640000e+04 -2.338410e+02 0.0
-1.450005e+03 1.162868e+02 0.0
-1.650000e+03 -1.003074e+02 0.0
-1.650000e+04 -2.338477e+02 0.0
-1.550005e+03 1.162208e+02 0.0
-1.750000e+03 -1.002500e+02 0.0
-1.660000e+04 -2.338543e+02 0.0
-1.670000e+04 -2.338609e+02 0.0
-2.050000e+03 -1.000794e+02 0.0
-1.650004e+03 1.161544e+02 0.0
-1.680000e+04 -2.338673e+02 0.0
-2.150000e+03 -1.000236e+02 0.0
-1.950000e+03 -1.001358e+02 0.0
-1.690000e+04 -2.338734e+02 0.0
-2.050004e+03 1.158905e+02 0.0
-2.250000e+03 -9.996870e+01 0.0
-1.700000e+04 -2.338791e+02 0.0
-2.150005e+03 1.158258e+02 0.0
-2.350000e+03 -9.991483e+01 0.0
-1.710000e+04 -2.338842e+02 0.0
-2.250005e+03 1.157623e+02 0.0
-2.450000e+03 -9.986220e+01 0.0
-1.720000e+04 -2.338887e+02 0.0
-2.350005e+03 1.156999e+02 0.0
-2.550000e+03 -9.981098e+01 0.0
-1.730000e+04 -2.338924e+02 0.0
-2.450005e+03 1.156389e+02 0.0
-2.650000e+03 -9.976136e+01 0.0
-1.740000e+04 -2.338953e+02 0.0
-2.550005e+03 1.155796e+02 0.0
-2.750000e+03 -9.971353e+01 0.0
-1.750000e+04 -2.338972e+02 0.0
-2.650005e+03 1.155222e+02 0.0
-2.850000e+03 -9.966767e+01 0.0
-1.760000e+04 -2.338979e+02 0.0
-2.750005e+03 1.154668e+02 0.0
-2.950000e+03 -9.962397e+01 0.0
-1.760000e+04 2.338979e+02 0.0
-1.770000e+04 -2.338975e+02 0.0
-2.850005e+03 1.154137e+02 0.0
-3.050000e+03 -9.958262e+01 0.0
-1.780000e+04 -2.338958e+02 0.0
-2.950005e+03 1.153631e+02 0.0
-3.150000e+03 -9.954380e+01 0.0
-1.790000e+04 -2.338927e+02 0.0
-3.050005e+03 1.153152e+02 0.0
-3.250000e+03 -9.950770e+01 0.0
-1.800000e+04 -2.338880e+02 0.0
-3.150005e+03 1.152702e+02 0.0
-3.350000e+03 -9.947449e+01 0.0
-1.810000e+04 -2.338816e+02 0.0
-1.820000e+04 -2.338735e+02 0.0
-3.650000e+03 -9.939415e+01 0.0
-3.349999e+03 1.151897e+02 0.0
-1.830000e+04 -2.338636e+02 0.0
-3.750000e+03 -9.937441e+01 0.0
-3.550000e+03 -9.941753e+01 0.0
-1.840000e+04 -2.338518e+02 0.0
-3.650004e+03 1.150970e+02 0.0
-3.850000e+03 -9.935850e+01 0.0
-1.850000e+04 -2.338383e+02 0.0
-3.950000e+03 -9.934661e+01 0.0
-1.860000e+04 -2.338230e+02 0.0
-3.850005e+03 1.150557e+02 0.0
-4.050000e+03 -9.933891e+01 0.0
-1.870000e+04 -2.338061e+02 0.0
-3.950005e+03 1.150419e+02 0.0
-4.150000e+03 -9.933561e+01 0.0
-4.050005e+03 1.150330e+02 0.0
-4.250000e+03 -9.933687e+01 0.0
-4.150005e+03 1.150291e+02 0.0
-4.350000e+03 -9.934290e+01 0.0
-4.250005e+03 1.150306e+02 0.0
-4.450000e+03 -9.935386e+01 0.0
-4.350005e+03 1.150376e+02 0.0
-4.550000e+03 -9.936996e+01 0.0
-1.920000e+04 -2.336966e+02 0.0
-4.450005e+03 1.150503e+02 0.0
-4.650000e+03 -9.939130e+01 0.0
-1.930000e+04 -2.336700e+02 0.0
-4.550005e+03 1.150689e+02 0.0
-4.750000e+03 -9.941772e+01 0.0
-1.940000e+04 -2.336419e+02 0.0
-4.650005e+03 1.150936e+02 0.0
-4.850000e+03 -9.944903e+01 0.0
-1.950000e+04 -2.336124e+02 0.0
-1.960000e+04 -2.335815e+02 0.0
-5.150000e+03 -9.957016e+01 0.0
-1.970000e+04 -2.335492e+02 0.0
-5.250000e+03 -9.961891e+01 0.0
-1.980000e+04 -2.335156e+02 0.0
-5.150004e+03 1.153008e+02 0.0
-5.350000e+03 -9.967150e+01 0.0
-1.990000e+04 -2.334806e+02 0.0
-5.250005e+03 1.153572e+02 0.0
-5.450000e+03 -9.972773e+01 0.0
-2.000000e+04 -2.334444e+02 0.0
-5.350005e+03 1.154181e+02 0.0
-5.550000e+03 -9.978738e+01 0.0
-2.010000e+04 2.334069e+02 0.0
-5.450005e+03 1.154832e+02 0.0
-5.650000e+03 -9.985025e+01 0.0
-2.020000e+04 -2.333682e+02 0.0
-5.550005e+03 1.155523e+02 0.0
-5.750000e+03 -9.991612e+01 0.0
-2.030000e+04 2.333283e+02 0.0
-5.650005e+03 1.156251e+02 0.0
-5.850000e+03 -9.998480e+01 0.0
-2.040000e+04 -2.332873e+02 0.0
-5.750005e+03 1.157014e+02 0.0
-5.950000e+03 -1.000561e+02 0.0
-2.050000e+04 -2.332451e+02 0.0
-5.850005e+03 1.157809e+02 0.0
-6.050000e+03 -1.001297e+02 0.0
-5.950005e+03 1.158634e+02 0.0
-6.150000e+03 -1.002056e+02 0.0
-6.050005e+03 1.159487e+02 0.0
-6.250000e+03 -1.002834e+02 0.0
-6.150005e+03 1.160365e+02 0.0
-6.350000e+03 -1.003629e+02 0.0
-2.080000e+04 2.331123e+02 0.0
-2.090000e+04 -2.330661e+02 0.0
-2.090000e+04 2.330661e+02 0.0
-2.100000e+04 -2.330188e+02 0.0
-6.650000e+03 -1.006101e+02 0.0
-2.095000e+04 1.176980e+02 0.0
-2.085000e+04 1.177213e+02 0.0
-2.110000e+04 -2.329707e+02 0.0
-6.549999e+03 1.164085e+02 0.0
-6.750000e+03 -1.006947e+02 0.0
-2.120000e+04 -2.329217e+02 0.0
-6.650004e+03 1.165051e+02 0.0
-6.850000e+03 -1.007799e+02 0.0
-2.130000e+04 -2.328718e+02 0.0
-6.750005e+03 1.166029e+02 0.0
-6.950000e+03 -1.008657e+02 0.0
-2.140000e+04 -2.328211e+02 0.0
-6.850005e+03 1.167016e+02 0.0
-7.050000e+03 -1.009518e+02 0.0
-2.150000e+04 -2.327697e+02 0.0
-6.950005e+03 1.168010e+02 0.0
-7.150000e+03 -1.010379e+02 0.0
-2.160000e+04 -2.327174e+02 0.0
-7.050005e+03 1.169006e+02 0.0
-7.250000e+03 -1.011240e+02 0.0
-2.170000e+04 2.326645e+02 0.0
-7.150005e+03 1.170004e+02 0.0
-7.350000e+03 -1.012098e+02 0.0
-2.180000e+04 -2.326109e+02 0.0
-7.250005e+03 1.171001e+02 0.0
-7.450000e+03 -1.012950e+02 0.0
-2.190000e+04 -2.325566e+02 0.0
-7.350005e+03 1.171994e+02 0.0
-7.550000e+03 -1.013795e+02 0.0
-7.650000e+03 -1.014630e+02 0.0
-7.750000e+03 -1.015454e+02 0.0
-2.220000e+04 2.323903e+02 0.0
-7.650005e+03 1.174926e+02 0.0
-7.850000e+03 -1.016264e+02 0.0
-2.230000e+04 -2.323338e+02 0.0
-7.750005e+03 1.175880e+02 0.0
-7.950000e+03 -1.017059e+02 0.0
-2.240000e+04 -2.322768e+02 0.0
-2.250000e+04 -2.322193e+02 0.0
-8.250000e+03 -1.019328e+02 0.0
-7.949999e+03 1.177737e+02 0.0
-2.260000e+04 -2.321614e+02 0.0
-8.149999e+03 1.179518e+02 0.0
-8.350000e+03 -1.020040e+02 0.0
-2.270000e+04 -2.321032e+02 0.0
-8.250004e+03 1.180367e+02 0.0
-8.450000e+03 -1.020725e+02 0.0
-2.280000e+04 -2.320446e+02 0.0
-8.350005e+03 1.181191e+02 0.0
-8.550000e+03 -1.021382e+02 0.0
-2.290000e+04 -2.319856e+02 0.0
-8.450005e+03 1.181984e+02 0.0
-8.650000e+03 -1.022009e+02 0.0
-2.300000e+04 -2.319263e+02 0.0
-8.550005e+03 1.182745e+02 0.0
-8.750000e+03 -1.022603e+02 0.0
-2.310000e+04 -2.318666e+02 0.0
-8.650005e+03 1.183471e+02 0.0
-8.850000e+03 -1.023164e+02 0.0
-8.750005e+03 1.184159e+02 0.0
-8.950000e+03 -1.023687e+02 0.0
-8.850005e+03 1.184808e+02 0.0
-9.050000e+03 -1.024173e+02 0.0
-8.950005e+03 1.185415e+02 0.0
-9.150000e+03 -1.024617e+02 0.0
-2.350000e+04 2.316240e+02 0.0
-9.250000e+03 -1.025021e+02 0.0
-2.360000e+04 -2.315623e+02 0.0
-9.350000e+03 -1.025386e+02 0.0
-2.370000e+04 -2.315003e+02 0.0
-9.250005e+03 1.186959e+02 0.0
-9.450000e+03 -1.025712e+02 0.0
-2.380000e+04 -2.314377e+02 0.0
-2.390000e+04 -2.313748e+02 0.0
-9.750000e+03 -1.026473e+02 0.0
-9.449999e+03 1.187757e+02 0.0
-2.400000e+04 -2.313113e+02 0.0
-9.649999e+03 1.188390e+02 0.0
-9.850000e+03 -1.026658e+02 0.0
-2.410000e+04 -2.312474e+02 0.0
-9.750004e+03 1.188641e+02 0.0
-9.950000e+03 -1.026811e+02 0.0
-2.420000e+04 -2.311831e+02 0.0
-9.850005e+03 1.188855e+02 0.0
-1.005000e+04 -1.026933e+02 0.0
-2.430000e+04 -2.311182e+02 0.0
-9.950005e+03 1.189032e+02 0.0
-1.015000e+04 -1.027025e+02 0.0
-2.440000e+04 -2.310529e+02 0.0
-1.005001e+04 1.189173e+02 0.0
-1.025000e+04 -1.027089e+02 0.0
-2.450000e+04 -2.309870e+02 0.0
-1.015001e+04 1.189280e+02 0.0
-1.035000e+04 -1.027126e+02 0.0
-1.045000e+04 -1.027136e+02 0.0
-1.035001e+04 1.189396e+02 0.0
-1.055000e+04 -1.027122e+02 0.0
-1.045001e+04 1.189408e+02 0.0
-1.065000e+04 -1.027084e+02 0.0
-2.490000e+04 2.307184e+02 0.0
-1.075000e+04 -1.027023e+02 0.0
-2.500000e+04 -2.306499e+02 0.0
-1.085000e+04 -1.026941e+02 0.0
-2.510000e+04 -2.305808e+02 0.0
-1.075001e+04 1.189277e+02 0.0
-1.095000e+04 -1.026840e+02 0.0
-2.520000e+04 -2.305111e+02 0.0
-1.085001e+04 1.189183e+02 0.0
-1.105000e+04 -1.026719e+02 0.0
-2.530000e+04 -2.304409e+02 0.0
-2.540000e+04 -2.303701e+02 0.0
-1.135000e+04 -1.026258e+02 0.0
-1.105000e+04 1.188923e+02 0.0
-2.550000e+04 -2.302986e+02 0.0
-1.125000e+04 1.188590e+02 0.0
-1.145000e+04 -1.026075e+02 0.0
-2.560000e+04 -2.302266e+02 0.0
-1.135000e+04 1.188392e+02 0.0
-1.155000e+04 -1.025879e+02 0.0
-2.570000e+04 -2.301539e+02 0.0
-1.145001e+04 1.188179e+02 0.0
-1.165000e+04 -1.025672e+02 0.0
-2.580000e+04 -2.300806e+02 0.0
-1.155001e+04 1.187952e+02 0.0
-1.175000e+04 -1.025454e+02 0.0
-2.590000e+04 -2.300067e+02 0.0
-1.165001e+04 1.187712e+02 0.0
-1.185000e+04 -1.025228e+02 0.0
-1.175001e+04 1.187460e+02 0.0
-1.195000e+04 -1.024993e+02 0.0
-2.600000e+04 2.299321e+02 0.0
-2.610000e+04 -2.298568e+02 0.0
-1.185001e+04 1.187198e+02 0.0
-1.205000e+04 -1.024753e+02 0.0
-2.605000e+04 1.161081e+02 0.0
-2.595000e+04 1.161457e+02 0.0
-1.215000e+04 -1.024507e+02 0.0
-1.225000e+04 -1.024257e+02 0.0
-2.640000e+04 2.296270e+02 0.0
-1.215001e+04 1.186363e+02 0.0
-1.235000e+04 -1.024004e+02 0.0
-2.650000e+04 -2.295490e+02 0.0
-1.225001e+04 1.186074e+02 0.0
-1.245000e+04 -1.023749e+02 0.0
-2.660000e+04 -2.294703e+02 0.0
-1.235001e+04 1.185781e+02 0.0
-1.255000e+04 -1.023494e+02 0.0
-2.670000e+04 -2.293909e+02 0.0
-1.245001e+04 1.185486e+02 0.0
-1.265000e+04 -1.023240e+02 0.0
-2.680000e+04 -2.293108e+02 0.0
-2.690000e+04 -2.292299e+02 0.0
-1.295000e+04 -1.022494e+02 0.0
-1.265000e+04 1.184894e+02 0.0
-2.700000e+04 -2.291482e+02 0.0
-1.285000e+04 1.184319e+02 0.0
-1.305000e+04 -1.022255e+02 0.0
-2.710000e+04 -2.290658e+02 0.0
-1.295000e+04 1.184033e+02 0.0
-1.315000e+04 -1.022023e+02 0.0
-2.720000e+04 -2.289827e+02 0.0
-1.325000e+04 -1.021800e+02 0.0
-2.730000e+04 -2.288987e+02 0.0
-1.335000e+04 -1.021585e+02 0.0
-2.740000e+04 2.288140e+02 0.0
-1.325001e+04 1.183229e+02 0.0
-1.345000e+04 -1.021381e+02 0.0
-2.750000e+04 -2.287288e+02 0.0
-1.335001e+04 1.182980e+02 0.0
-1.355000e+04 -1.021189e+02 0.0
-1.345001e+04 1.182744e+02 0.0
-1.365000e+04 -1.021010e+02 0.0
-1.355001e+04 1.182522e+02 0.0
-1.375000e+04 -1.020845e+02 0.0
-1.365001e+04 1.182315e+02 0.0
-1.385000e+04 -1.020693e+02 0.0
-2.780000e+04 2.284710e+02 0.0
-2.790000e+04 -2.283849e+02 0.0
-1.375001e+04 1.182123e+02 0.0
-1.395000e+04 -1.020555e+02 0.0
-2.800000e+04 -2.282989e+02 0.0
-1.385001e+04 1.181948e+02 0.0
-1.405000e+04 -1.020429e+02 0.0
-2.810000e+04 -2.282134e+02 0.0
-1.395001e+04 1.181787e+02 0.0
-1.415000e+04 -1.020315e+02 0.0
-2.820000e+04 -2.281283e+02 0.0
-1.405001e+04 1.181641e+02 0.0
-1.425000e+04 -1.020212e+02 0.0
-2.830000e+04 -2.280438e+02 0.0
-2.840000e+04 -2.279602e+02 0.0
-1.455000e+04 -1.019969e+02 0.0
-1.425000e+04 1.181388e+02 0.0
-2.850000e+04 -2.278774e+02 0.0
-1.445000e+04 1.181194e+02 0.0
-1.465000e+04 -1.019908e+02 0.0
-2.860000e+04 -2.277958e+02 0.0
-1.455000e+04 1.181109e+02 0.0
-1.475000e+04 -1.019856e+02 0.0
-2.870000e+04 -2.277155e+02 0.0
-1.465001e+04 1.181038e+02 0.0
-1.485000e+04 -1.019813e+02 0.0
-2.880000e+04 2.276365e+02 0.0
-1.495000e+04 -1.019778e+02 0.0
-2.890000e+04 -2.275591e+02 0.0
-1.505000e+04 -1.019750e+02 0.0
-1.495001e+04 1.180887e+02 0.0
-1.515000e+04 -1.019730e+02 0.0
-1.505001e+04 1.180855e+02 0.0
-1.525000e+04 -1.019716e+02 0.0
-2.920000e+04 2.273379e+02 0.0
-1.515001e+04 1.180832e+02 0.0
-1.535000e+04 -1.019709e+02 0.0
-2.930000e+04 -2.272683e+02 0.0
-1.525001e+04 1.180816e+02 0.0
-1.545000e+04 -1.019707e+02 0.0
-2.940000e+04 -2.272010e+02 0.0
-1.535001e+04 1.180808e+02 0.0
-1.555000e+04 -1.019711e+02 0.0
-2.950000e+04 -2.271362e+02 0.0
-1.545001e+04 1.180806e+02 0.0
-1.565000e+04 -1.019719e+02 0.0
-2.960000e+04 -2.270741e+02 0.0
-1.555001e+04 1.180810e+02 0.0
-1.575000e+04 -1.019732e+02 0.0
-2.970000e+04 -2.270147e+02 0.0
-1.565001e+04 1.180819e+02 0.0
-1.585000e+04 -1.019748e+02 0.0
-2.980000e+04 -2.269583e+02 0.0
-2.990000e+04 -2.269050e+02 0.0
-1.615000e+04 -1.019815e+02 0.0
-1.575000e+04 1.180833e+02 0.0
-3.000000e+04 -2.268550e+02 0.0
-1.625000e+04 -1.019841e+02 0.0
-3.010000e+04 -2.268083e+02 0.0
-1.615000e+04 1.180931e+02 0.0
-1.635000e+04 -1.019869e+02 0.0
-3.020000e+04 2.267652e+02 0.0
-1.625001e+04 1.180961e+02 0.0
-1.645000e+04 -1.019898e+02 0.0
-3.030000e+04 -2.267259e+02 0.0
-1.635001e+04 1.180993e+02 0.0
-1.655000e+04 -1.019927e+02 0.0
-1.645001e+04 1.181027e+02 0.0
-1.665000e+04 -1.019956e+02 0.0
-1.655001e+04 1.181060e+02 0.0
-1.675000e+04 -1.019985e+02 0.0
-3.060000e+04 2.266316e+02 0.0
-1.665001e+04 1.181094e+02 0.0
-1.685000e+04 -1.020012e+02 0.0
-3.070000e+04 -2.266086e+02 0.0
-1.675001e+04 1.181127e+02 0.0
-1.695000e+04 -1.020038e+02 0.0
-3.080000e+04 -2.265901e+02 0.0
-1.685001e+04 1.181158e+02 0.0
-1.705000e+04 -1.020061e+02 0.0
-3.090000e+04 -2.265763e+02 0.0
-1.695001e+04 1.181188e+02 0.0
-1.715000e+04 -1.020082e+02 0.0
-3.100000e+04 -2.265672e+02 0.0
-1.705001e+04 1.181215e+02 0.0
-1.725000e+04 -1.020100e+02 0.0
-3.110000e+04 -2.265631e+02 0.0
-1.715001e+04 1.181240e+02 0.0
-1.735000e+04 -1.020115e+02 0.0
-3.120000e+04 -2.265641e+02 0.0
-1.725001e+04 1.181261e+02 0.0
-1.745000e+04 -1.020125e+02 0.0
-3.130000e+04 -2.265703e+02 0.0
-3.140000e+04 -2.265819e+02 0.0
-1.775000e+04 -1.020127e+02 0.0
-1.735000e+04 1.181277e+02 0.0
-3.150000e+04 -2.265991e+02 0.0
-1.785000e+04 -1.020117e+02 0.0
-1.765000e+04 -1.020132e+02 0.0
-3.160000e+04 2.266220e+02 0.0
-1.775000e+04 1.181292e+02 0.0
-1.795000e+04 -1.020100e+02 0.0
-3.170000e+04 -2.266508e+02 0.0
-1.785001e+04 1.181280e+02 0.0
-1.805000e+04 -1.020076e+02 0.0
-1.795001e+04 1.181260e+02 0.0
-1.815000e+04 -1.020044e+02 0.0
-1.805001e+04 1.181232e+02 0.0
-1.825000e+04 -1.020005e+02 0.0
-3.200000e+04 2.267735e+02 0.0
-1.815001e+04 1.181196e+02 0.0
-1.835000e+04 -1.019957e+02 0.0
-3.210000e+04 -2.268264e+02 0.0
-1.825001e+04 1.181150e+02 0.0
-1.845000e+04 -1.019902e+02 0.0
-3.220000e+04 -2.268849e+02 0.0
-1.835001e+04 1.181095e+02 0.0
-1.855000e+04 -1.019840e+02 0.0
-3.230000e+04 -2.269489e+02 0.0
-1.845001e+04 1.181032e+02 0.0
-1.865000e+04 -1.019769e+02 0.0
-3.240000e+04 -2.270182e+02 0.0
-1.855001e+04 1.180959e+02 0.0
-1.875000e+04 -1.019691e+02 0.0
-3.250000e+04 -2.270926e+02 0.0
-1.865001e+04 1.180877e+02 0.0
-1.885000e+04 -1.019606e+02 0.0
-3.260000e+04 -2.271720e+02 0.0
-1.895000e+04 -1.019514e+02 0.0
-3.270000e+04 -2.272560e+02 0.0
-1.905000e+04 -1.019415e+02 0.0
-3.280000e+04 -2.273446e+02 0.0
-1.895001e+04 1.180582e+02 0.0
-1.915000e+04 -1.019309e+02 0.0
-3.290000e+04 -2.274376e+02 0.0
-1.945000e+04 -1.018952e+02 0.0
-1.915000e+04 1.180342e+02 0.0
-3.310000e+04 -2.276359e+02 0.0
-1.935000e+04 1.180079e+02 0.0
-1.955000e+04 -1.018820e+02 0.0
-1.945000e+04 1.179931e+02 0.0
-1.965000e+04 -1.018682e+02 0.0
-1.955001e+04 1.179778e+02 0.0
-1.975000e+04 -1.018538e+02 0.0
-3.325000e+04 1.150476e+02 0.0
-3.340000e+04 2.279614e+02 0.0
-1.965001e+04 1.179619e+02 0.0
-1.985000e+04 -1.018389e+02 0.0
-3.350000e+04 -2.280766e+02 0.0
-1.975001e+04 1.179452e+02 0.0
-1.995000e+04 -1.018233e+02 0.0
-3.360000e+04 -2.281948e+02 0.0
-1.985001e+04 1.179279e+02 0.0
-2.005000e+04 -1.018073e+02 0.0
-3.370000e+04 -2.283159e+02 0.0
-1.995001e+04 1.179099e+02 0.0
-2.015000e+04 -1.017907e+02 0.0
-3.380000e+04 -2.284397e+02 0.0
-2.025000e+04 -1.017735e+02 0.0
-3.390000e+04 -2.285659e+02 0.0
-2.015001e+04 1.178720e+02 0.0
-2.035000e+04 -1.017559e+02 0.0
-3.400000e+04 -2.286945e+02 0.0
-2.045000e+04 -1.017377e+02 0.0
-3.410000e+04 -2.288252e+02 0.0
-2.055000e+04 -1.017191e+02 0.0
-3.420000e+04 -2.289577e+02 0.0
-2.065000e+04 -1.017000e+02 0.0
-3.430000e+04 -2.290920e+02 0.0
-2.055001e+04 1.177892e+02 0.0
-2.075000e+04 -1.016805e+02 0.0
-3.440000e+04 2.292279e+02 0.0
-3.450000e+04 -2.293651e+02 0.0
-2.105000e+04 -1.016193e+02 0.0
-2.065000e+04 1.177670e+02 0.0
-2.115000e+04 -1.015981e+02 0.0
-2.105000e+04 1.176737e+02 0.0
-2.125000e+04 -1.015766e+02 0.0
-3.480000e+04 2.297830e+02 0.0
-2.115001e+04 1.176491e+02 0.0
-2.135000e+04 -1.015546e+02 0.0
-3.490000e+04 -2.299238e+02 0.0
-2.125001e+04 1.176241e+02 0.0
-2.145000e+04 -1.015324e+02 0.0
-3.500000e+04 -2.300650e+02 0.0
-2.135001e+04 1.175988e+02 0.0
-2.155000e+04 -1.015098e+02 0.0
-3.510000e+04 -2.302064e+02 0.0
-2.145001e+04 1.175730e+02 0.0
-2.165000e+04 -1.014868e+02 0.0
-3.520000e+04 -2.303479e+02 0.0
-2.175000e+04 -1.014636e+02 0.0
-3.530000e+04 -2.304892e+02 0.0
-2.185000e+04 -1.014401e+02 0.0
-3.540000e+04 -2.306302e+02 0.0
-2.195000e+04 -1.014163e+02 0.0
-3.550000e+04 -2.307706e+02 0.0
-2.205000e+04 -1.013922e+02 0.0
-3.560000e+04 -2.309104e+02 0.0
-2.195001e+04 1.174385e+02 0.0
-2.215000e+04 -1.013679e+02 0.0
-3.570000e+04 -2.310492e+02 0.0
-2.205001e+04 1.174106e+02 0.0
-2.225000e+04 -1.013433e+02 0.0
-3.580000e+04 -2.311870e+02 0.0
-2.235000e+04 -1.013186e+02 0.0
-2.245000e+04 -1.012936e+02 0.0
-2.275000e+04 -1.012177e+02 0.0
-2.245000e+04 1.172963e+02 0.0
-3.620000e+04 2.317236e+02 0.0
-2.265000e+04 1.172383e+02 0.0
-2.285000e+04 -1.011920e+02 0.0
-3.630000e+04 -2.318531e+02 0.0
-2.275000e+04 1.172086e+02 0.0
-2.295000e+04 -1.011662e+02 0.0
-3.640000e+04 -2.319805e+02 0.0
-2.285001e+04 1.171788e+02 0.0
-2.305000e+04 -1.011403e+02 0.0
-3.650000e+04 -2.321055e+02 0.0
-2.295001e+04 1.171490e+02 0.0
-2.315000e+04 -1.011142e+02 0.0
-3.660000e+04 -2.322282e+02 0.0
-2.325000e+04 -1.010879e+02 0.0
-3.670000e+04 -2.323487e+02 0.0
-2.315001e+04 1.170887e+02 0.0
-2.335000e+04 -1.010614e+02 0.0
-3.680000e+04 -2.324669e+02 0.0
-2.345000e+04 -1.010348e+02 0.0
-3.690000e+04 -2.325828e+02 0.0
-2.335001e+04 1.170276e+02 0.0
-2.355000e+04 -1.010080e+02 0.0
-3.700000e+04 -2.326965e+02 0.0
-2.365000e+04 -1.009810e+02 0.0
-3.695000e+04 1.174947e+02 0.0
-3.710000e+04 -2.328080e+02 0.0
-2.375000e+04 -1.009538e+02 0.0
-3.720000e+04 -2.329173e+02 0.0
-2.365001e+04 1.169345e+02 0.0
-2.385000e+04 -1.009265e+02 0.0
-2.375001e+04 1.169030e+02 0.0
-2.395000e+04 -1.008989e+02 0.0
-2.385001e+04 1.168713e+02 0.0
-2.405000e+04 -1.008712e+02 0.0
-2.395001e+04 1.168394e+02 0.0
-2.415000e+04 -1.008432e+02 0.0
-3.760000e+04 2.333328e+02 0.0
-3.770000e+04 -2.334314e+02 0.0
-2.445000e+04 -1.007580e+02 0.0
-2.415000e+04 1.167747e+02 0.0
-3.770000e+04 2.334314e+02 0.0
-3.780000e+04 -2.335279e+02 0.0
-2.435000e+04 1.167097e+02 0.0
-2.455000e+04 -1.007292e+02 0.0
-3.780000e+04 2.335279e+02 0.0
-3.790000e+04 -2.336223e+02 0.0
-2.465000e+04 -1.007001e+02 0.0
-3.790000e+04 2.336223e+02 0.0
-3.800000e+04 -2.337147e+02 0.0
-2.455001e+04 1.166429e+02 0.0
-2.475000e+04 -1.006708e+02 0.0
-3.800000e+04 2.337147e+02 0.0
-3.810000e+04 -2.338051e+02 0.0
-2.485000e+04 -1.006413e+02 0.0
-3.810000e+04 2.338051e+02 0.0
-3.820000e+04 -2.338934e+02 0.0
-2.475001e+04 1.165753e+02 0.0
-2.495000e+04 -1.006115e+02 0.0
-3.820000e+04 2.338934e+02 0.0
-3.830000e+04 -2.339797e+02 0.0
-2.505000e+04 -1.005815e+02 0.0
-3.830000e+04 2.339797e+02 0.0
-3.840000e+04 -2.340641e+02 0.0
-2.515000e+04 -1.005513e+02 0.0
-3.840000e+04 2.340641e+02 0.0
-3.850000e+04 -2.341465e+02 0.0
-2.505001e+04 1.164719e+02 0.0
-2.525000e+04 -1.005208e+02 0.0
-3.850000e+04 2.341465e+02 0.0
-3.860000e+04 -2.342269e+02 0.0
-2.515001e+04 1.164369e+02 0.0
-2.535000e+04 -1.004900e+02 0.0
-3.860000e+04 2.342269e+02 0.0
-3.870000e+04 -2.343055e+02 0.0
-2.525001e+04 1.164015e+02 0.0
-2.545000e+04 -1.004590e+02 0.0
-3.870000e+04 2.343055e+02 0.0
-2.535001e+04 1.163659e+02 0.0
-2.555000e+04 -1.004277e+02 0.0
-3.880000e+04 2.343821e+02 0.0
-2.545001e+04 1.163300e+02 0.0
-2.565000e+04 -1.003961e+02 0.0
-3.890000e+04 2.344568e+02 0.0
-2.555001e+04 1.162938e+02 0.0
-2.575000e+04 -1.003643e+02 0.0
-3.900000e+04 2.345297e+02 0.0
-3.910000e+04 -2.346007e+02 0.0
-2.565001e+04 1.162572e+02 0.0
-2.585000e+04 -1.003322e+02 0.0
-3.910000e+04 2.346007e+02 0.0
-3.920000e+04 -2.346699e+02 0.0
-3.920000e+04 2.346699e+02 0.0
-3.930000e+04 -2.347373e+02 0.0
-2.615000e+04 -1.002342e+02 0.0
-2.585000e+04 1.161830e+02 0.0
-3.930000e+04 2.347373e+02 0.0
-3.940000e+04 -2.348028e+02 0.0
-2.625000e+04 -1.002009e+02 0.0
-3.940000e+04 2.348028e+02 0.0
-3.950000e+04 -2.348666e+02 0.0
-2.615000e+04 1.160697e+02 0.0
-2.635000e+04 -1.001674e+02 0.0
-3.950000e+04 2.348666e+02 0.0
-3.960000e+04 -2.349287e+02 0.0
-2.625001e+04 1.160312e+02 0.0
-2.645000e+04 -1.001335e+02 0.0
-3.960000e+04 2.349287e+02 0.0
-3.970000e+04 -2.349889e+02 0.0
-2.655000e+04 -1.000993e+02 0.0
-3.970000e+04 2.349889e+02 0.0
-3.980000e+04 -2.350475e+02 0.0
-2.665000e+04 -1.000648e+02 0.0
-3.980000e+04 2.350475e+02 0.0
-3.990000e+04 -2.351043e+02 0.0
-2.655001e+04 1.159135e+02 0.0
-2.675000e+04 -1.000300e+02 0.0
-3.990000e+04 2.351043e+02 0.0
-4.000000e+04 -2.351595e+02 0.0
-2.665001e+04 1.158736e+02 0.0
-2.685000e+04 -9.999492e+01 0.0
-4.000000e+04 2.351595e+02 0.0
-4.010000e+04 -2.352130e+02 0.0
-2.675001e+04 1.158333e+02 0.0
-2.695000e+04 -9.995948e+01 0.0
-4.010000e+04 2.352130e+02 0.0
-2.685001e+04 1.157926e+02 0.0
-2.705000e+04 -9.992371e+01 0.0
-4.020000e+04 2.352648e+02 0.0
-2.695001e+04 1.157516e+02 0.0
-2.715000e+04 -9.988760e+01 0.0
-4.030000e+04 2.353150e+02 0.0
-2.705001e+04 1.157102e+02 0.0
-2.725000e+04 -9.985116e+01 0.0
-4.040000e+04 2.353636e+02 0.0
-4.050000e+04 -2.354106e+02 0.0
-2.715001e+04 1.156683e+02 0.0
-2.735000e+04 -9.981438e+01 0.0
-4.050000e+04 2.354106e+02 0.0
-4.060000e+04 -2.354560e+02 0.0
-2.745000e+04 -9.977731e+01 0.0
-4.060000e+04 2.354560e+02 0.0
-4.070000e+04 -2.354998e+02 0.0
-2.755000e+04 -9.974002e+01 0.0
-4.070000e+04 2.354998e+02 0.0
-4.080000e+04 -2.355421e+02 0.0
-2.745001e+04 1.155406e+02 0.0
-2.765000e+04 -9.970257e+01 0.0
-4.080000e+04 2.355421e+02 0.0
-4.090000e+04 -2.355829e+02 0.0
-4.090000e+04 2.355829e+02 0.0
-4.100000e+04 -2.356221e+02 0.0
-2.795000e+04 -9.958995e+01 0.0
-2.755000e+04 1.154974e+02 0.0
-4.100000e+04 2.356221e+02 0.0
-4.110000e+04 -2.356599e+02 0.0
-2.805000e+04 -9.955254e+01 0.0
-2.785000e+04 -9.962747e+01 0.0
-4.110000e+04 2.356599e+02 0.0
-4.120000e+04 -2.356961e+02 0.0
-2.795000e+04 1.153237e+02 0.0
-2.815000e+04 -9.951531e+01 0.0
-4.120000e+04 2.356961e+02 0.0
-4.130000e+04 -2.357308e+02 0.0
-2.805001e+04 1.152803e+02 0.0
-2.825000e+04 -9.947833e+01 0.0
-4.130000e+04 2.357308e+02 0.0
-4.140000e+04 -2.357640e+02 0.0
-2.815001e+04 1.152372e+02 0.0
-2.835000e+04 -9.944166e+01 0.0
-4.140000e+04 2.357640e+02 0.0
-4.150000e+04 -2.357956e+02 0.0
-2.825001e+04 1.151944e+02 0.0
-2.845000e+04 -9.940537e+01 0.0
-4.150000e+04 2.357956e+02 0.0
-2.835001e+04 1.151520e+02 0.0
-2.855000e+04 -9.936953e+01 0.0
-4.160000e+04 2.358257e+02 0.0
-2.845001e+04 1.151099e+02 0.0
-2.865000e+04 -9.933420e+01 0.0
-4.170000e+04 2.358542e+02 0.0
-2.855001e+04 1.150684e+02 0.0
-2.875000e+04 -9.929945e+01 0.0
-4.180000e+04 2.358811e+02 0.0
-4.190000e+04 -2.359065e+02 0.0
-2.885000e+04 -9.926535e+01 0.0
-4.190000e+04 2.359065e+02 0.0
-4.200000e+04 -2.359304e+02 0.0
-2.895000e+04 -9.923196e+01 0.0
-4.200000e+04 2.359304e+02 0.0
-4.210000e+04 -2.359526e+02 0.0
-2.885001e+04 1.149478e+02 0.0
-2.905000e+04 -9.919936e+01 0.0
-4.210000e+04 2.359526e+02 0.0
-4.220000e+04 -2.359733e+02 0.0
-2.895001e+04 1.149091e+02 0.0
-2.915000e+04 -9.916761e+01 0.0
-4.220000e+04 2.359733e+02 0.0
-4.230000e+04 -2.359923e+02 0.0
-2.905001e+04 1.148714e+02 0.0
-2.925000e+04 -9.913677e+01 0.0
-4.230000e+04 2.359923e+02 0.0
-4.240000e+04 -2.360098e+02 0.0
-2.935000e+04 -9.910691e+01 0.0
-4.240000e+04 2.360098e+02 0.0
-4.250000e+04 -2.360257e+02 0.0
-4.250000e+04 2.360257e+02 0.0
-4.260000e+04 -2.360399e+02 0.0
-2.965000e+04 -9.902392e+01 0.0
-2.935000e+04 1.147641e+02 0.0
-4.260000e+04 2.360399e+02 0.0
-4.270000e+04 -2.360525e+02 0.0
-2.955000e+04 1.146992e+02 0.0
-2.975000e+04 -9.899866e+01 0.0
-4.270000e+04 2.360525e+02 0.0
-4.280000e+04 -2.360635e+02 0.0
-2.965000e+04 1.146683e+02 0.0
-2.985000e+04 -9.897473e+01 0.0
-4.280000e+04 2.360635e+02 0.0
-4.290000e+04 -2.360729e+02 0.0
-2.975001e+04 1.146390e+02 0.0
-2.995000e+04 -9.895218e+01 0.0
-4.290000e+04 2.360729e+02 0.0
-2.985001e+04 1.146113e+02 0.0
-3.005000e+04 -9.893108e+01 0.0
-4.300000e+04 2.360806e+02 0.0
-2.995001e+04 1.145851e+02 0.0
-3.015000e+04 -9.891151e+01 0.0
-4.310000e+04 2.360867e+02 0.0
-3.025000e+04 -9.889352e+01 0.0
-4.320000e+04 2.360912e+02 0.0
-4.330000e+04 -2.360939e+02 0.0
-3.035000e+04 -9.887718e+01 0.0
-4.330000e+04 2.360939e+02 0.0
-4.340000e+04 -2.360950e+02 0.0
-3.025001e+04 1.145172e+02 0.0
-3.045000e+04 -9.886256e+01 0.0
-4.340000e+04 2.360950e+02 0.0
-4.350000e+04 -2.360945e+02 0.0
-3.035001e+04 1.144983e+02 0.0
-3.055000e+04 -9.884974e+01 0.0
-4.350000e+04 2.360945e+02 0.0
-4.360000e+04 -2.360922e+02 0.0
-3.045001e+04 1.144814e+02 0.0
-3.065000e+04 -9.883876e+01 0.0
-4.360000e+04 2.360922e+02 0.0
-4.370000e+04 -2.360883e+02 0.0
-3.075000e+04 -9.882971e+01 0.0
-4.370000e+04 2.360883e+02 0.0
-4.380000e+04 -2.360827e+02 0.0
-3.085000e+04 -9.882265e+01 0.0
-4.380000e+04 2.360827e+02 0.0
-4.390000e+04 -2.360754e+02 0.0
-3.075001e+04 1.144433e+02 0.0
-3.095000e+04 -9.881764e+01 0.0
-4.390000e+04 2.360754e+02 0.0
-4.400000e+04 -2.360663e+02 0.0
-3.085001e+04 1.144351e+02 0.0
-3.105000e+04 -9.881476e+01 0.0
-4.400000e+04 2.360663e+02 0.0
-4.410000e+04 -2.360556e+02 0.0
-3.095001e+04 1.144293e+02 0.0
-3.115000e+04 -9.881407e+01 0.0
-4.410000e+04 2.360556e+02 0.0
-4.420000e+04 -2.360432e+02 0.0
-4.420000e+04 2.360432e+02 0.0
-4.430000e+04 -2.360290e+02 0.0
-3.145000e+04 -9.882580e+01 0.0
-3.115000e+04 1.144250e+02 0.0
-4.430000e+04 2.360290e+02 0.0
-3.135000e+04 1.144318e+02 0.0
-3.155000e+04 -9.883453e+01 0.0
-4.440000e+04 2.360131e+02 0.0
-3.165000e+04 -9.884579e+01 0.0
-4.450000e+04 2.359954e+02 0.0
-3.175000e+04 -9.885965e+01 0.0
-4.460000e+04 2.359760e+02 0.0
-4.470000e+04 -2.359549e+02 0.0
-3.165001e+04 1.144619e+02 0.0
-3.185000e+04 -9.887616e+01 0.0
-4.470000e+04 2.359549e+02 0.0
-4.480000e+04 -2.359320e+02 0.0
-3.175001e+04 1.144780e+02 0.0
-3.195000e+04 -9.889535e+01 0.0
-4.480000e+04 2.359320e+02 0.0
-4.490000e+04 -2.359073e+02 0.0
-3.185001e+04 1.144971e+02 0.0
-3.205000e+04 -9.891713e+01 0.0
-4.490000e+04 2.359073e+02 0.0
-4.500000e+04 -2.358809e+02 0.0
-3.215000e+04 -9.894142e+01 0.0
-4.500000e+04 2.358809e+02 0.0
-4.510000e+04 -2.358527e+02 0.0
-3.225000e+04 -9.896816e+01 0.0
-4.510000e+04 2.358527e+02 0.0
-4.520000e+04 -2.358227e+02 0.0
-3.215001e+04 1.145727e+02 0.0
-3.235000e+04 -9.899724e+01 0.0
-4.520000e+04 2.358227e+02 0.0
-4.530000e+04 -2.357909e+02 0.0
-3.225001e+04 1.146036e+02 0.0
-3.245000e+04 -9.902859e+01 0.0
-4.530000e+04 2.357909e+02 0.0
-4.540000e+04 -2.357573e+02 0.0
-3.235001e+04 1.146373e+02 0.0
-3.255000e+04 -9.906213e+01 0.0
-4.540000e+04 2.357573e+02 0.0
-4.550000e+04 -2.357219e+02 0.0
-3.245001e+04 1.146736e+02 0.0
-3.265000e+04 -9.909777e+01 0.0
-4.550000e+04 2.357219e+02 0.0
-3.255001e+04 1.147125e+02 0.0
-3.275000e+04 -9.913544e+01 0.0
-4.560000e+04 2.356848e+02 0.0
-4.570000e+04 -2.356461e+02 0.0
-3.265001e+04 1.147537e+02 0.0
-3.285000e+04 -9.917506e+01 0.0
-4.570000e+04 2.356461e+02 0.0
-4.580000e+04 -2.356061e+02 0.0
-3.275001e+04 1.147974e+02 0.0
-3.295000e+04 -9.921653e+01 0.0
-4.580000e+04 2.356061e+02 0.0
-4.590000e+04 -2.355649e+02 0.0
-3.305000e+04 -9.925978e+01 0.0
-4.590000e+04 2.355649e+02 0.0
-4.600000e+04 2.355226e+02 0.0
-3.335000e+04 -9.939939e+01 0.0
-4.610000e+04 2.354795e+02 0.0
-3.345000e+04 -9.944894e+01 0.0
-4.620000e+04 2.354358e+02 0.0
-4.630000e+04 -2.353915e+02 0.0
-3.355000e+04 -9.949986e+01 0.0
-4.630000e+04 2.353915e+02 0.0
-4.640000e+04 -2.353470e+02 0.0
-3.365000e+04 -9.955206e+01 0.0
-4.640000e+04 2.353470e+02 0.0
-4.650000e+04 -2.353023e+02 0.0
-3.355001e+04 1.152193e+02 0.0
-3.375000e+04 -9.960547e+01 0.0
-4.650000e+04 2.353023e+02 0.0
-4.660000e+04 -2.352577e+02 0.0
-3.365001e+04 1.152798e+02 0.0
-3.385000e+04 -9.966001e+01 0.0
-4.660000e+04 2.352577e+02 0.0
-4.670000e+04 -2.352132e+02 0.0
-3.375001e+04 1.153416e+02 0.0
-3.395000e+04 -9.971559e+01 0.0
-4.670000e+04 2.352132e+02 0.0
-4.680000e+04 -2.351692e+02 0.0
-3.385001e+04 1.154048e+02 0.0
-3.405000e+04 -9.977212e+01 0.0
-4.680000e+04 2.351692e+02 0.0
-3.395001e+04 1.154692e+02 0.0
-3.415000e+04 -9.982954e+01 0.0
-4.690000e+04 2.351258e+02 0.0
-4.700000e+04 -2.350831e+02 0.0
-3.405001e+04 1.155346e+02 0.0
-3.425000e+04 -9.988775e+01 0.0
-4.700000e+04 2.350831e+02 0.0
-4.710000e+04 -2.350413e+02 0.0
-3.415001e+04 1.156011e+02 0.0
-3.435000e+04 -9.994668e+01 0.0
-4.710000e+04 2.350413e+02 0.0
-4.720000e+04 -2.350007e+02 0.0
-3.445000e+04 -1.000062e+02 0.0
-4.720000e+04 2.350007e+02 0.0
-4.730000e+04 -2.349613e+02 0.0
-3.455000e+04 -1.000663e+02 0.0
-4.730000e+04 2.349613e+02 0.0
-3.445001e+04 1.158057e+02 0.0
-3.465000e+04 -1.001269e+02 0.0
-4.740000e+04 2.349234e+02 0.0
-3.455001e+04 1.158753e+02 0.0
-3.475000e+04 -1.001879e+02 0.0
-4.750000e+04 2.348871e+02 0.0
-3.465001e+04 1.159455e+02 0.0
-3.485000e+04 -1.002492e+02 0.0
-4.760000e+04 2.348527e+02 0.0
-4.770000e+04 -2.348202e+02 0.0
-4.770000e+04 2.348202e+02 0.0
-4.780000e+04 -2.347899e+02 0.0
-3.515000e+04 -1.004340e+02 0.0
-4.780000e+04 2.347899e+02 0.0
-4.790000e+04 -2.347620e+02 0.0
-3.505000e+04 1.162299e+02 0.0
-3.525000e+04 -1.004957e+02 0.0
-4.790000e+04 2.347620e+02 0.0
-4.800000e+04 -2.347366e+02 0.0
-3.515000e+04 1.163011e+02 0.0
-3.535000e+04 -1.005572e+02 0.0
-4.800000e+04 2.347366e+02 0.0
-4.810000e+04 -2.347139e+02 0.0
-3.525001e+04 1.163725e+02 0.0
-3.545000e+04 -1.006186e+02 0.0
-4.810000e+04 2.347139e+02 0.0
-4.820000e+04 -2.346940e+02 0.0
-3.535001e+04 1.164438e+02 0.0
-3.555000e+04 -1.006798e+02 0.0
-4.820000e+04 2.346940e+02 0.0
-3.545001e+04 1.165149e+02 0.0
-3.565000e+04 -1.007405e+02 0.0
-4.830000e+04 2.346773e+02 0.0
-4.840000e+04 -2.346637e+02 0.0
-3.555001e+04 1.165856e+02 0.0
-3.575000e+04 -1.008009e+02 0.0
-4.840000e+04 2.346637e+02 0.0
-4.850000e+04 -2.346536e+02 0.0
-3.565001e+04 1.166560e+02 0.0
-3.585000e+04 -1.008607e+02 0.0
-4.850000e+04 2.346536e+02 0.0
-4.860000e+04 -2.346470e+02 0.0
-3.595000e+04 -1.009199e+02 0.0
-4.860000e+04 2.346470e+02 0.0
-4.870000e+04 -2.346443e+02 0.0
-3.585001e+04 1.167952e+02 0.0
-3.605000e+04 -1.009785e+02 0.0
-4.870000e+04 2.346443e+02 0.0
-3.615000e+04 -1.010363e+02 0.0
-4.880000e+04 2.346454e+02 0.0
-3.605001e+04 1.169316e+02 0.0
-3.625000e+04 -1.010932e+02 0.0
-4.890000e+04 2.346507e+02 0.0
-3.635000e+04 -1.011493e+02 0.0
-4.900000e+04 2.346603e+02 0.0
-4.910000e+04 -2.346743e+02 0.0
-3.645000e+04 -1.012043e+02 0.0
-4.910000e+04 2.346743e+02 0.0
-4.920000e+04 -2.346930e+02 0.0
-3.635001e+04 1.171293e+02 0.0
-3.655000e+04 -1.012583e+02 0.0
-4.920000e+04 2.346930e+02 0.0
-4.930000e+04 -2.347166e+02 0.0
-3.645001e+04 1.171931e+02 0.0
-3.665000e+04 -1.013113e+02 0.0
-4.930000e+04 2.347166e+02 0.0
-4.956697e+04 -1.008507e+02 0.0
-3.655001e+04 1.172556e+02 0.0
-3.675000e+04 -1.013634e+02 0.0
-4.956413e+04 1.156925e+02 0.0
-3.705000e+04 -1.015136e+02 0.0
-3.675000e+04 1.173771e+02 0.0
-3.715000e+04 -1.015618e+02 0.0
-3.705000e+04 1.175513e+02 0.0
-3.725000e+04 -1.016089e+02 0.0
-3.735000e+04 -1.016552e+02 0.0
-3.725001e+04 1.176616e+02 0.0
-3.745000e+04 -1.017005e+02 0.0
-3.755000e+04 -1.017449e+02 0.0
-4.935000e+04 -1.023762e+02 0.0
-4.925000e+04 -1.023648e+02 0.0
-4.945442e+04 -1.037158e+02 0.0
-4.915000e+04 -1.023556e+02 0.0
-4.925010e+04 1.184967e+02 0.0
-4.915000e+04 1.185241e+02 0.0
-4.905000e+04 -1.023485e+02 0.0
-4.904999e+04 1.185180e+02 0.0
-4.895000e+04 -1.023434e+02 0.0
-4.894999e+04 1.185121e+02 0.0
-4.885000e+04 -1.023401e+02 0.0
-4.884999e+04 1.185083e+02 0.0
-4.875000e+04 -1.023387e+02 0.0
-4.865000e+04 -1.023391e+02 0.0
-4.855000e+04 -1.023411e+02 0.0
-4.845000e+04 -1.023448e+02 0.0
-4.854999e+04 1.185095e+02 0.0
-4.844999e+04 1.185137e+02 0.0
-4.835000e+04 -1.023500e+02 0.0
-4.834999e+04 1.185197e+02 0.0
-4.825000e+04 -1.023566e+02 0.0
-4.815000e+04 -1.023646e+02 0.0
-4.824999e+04 1.185274e+02 0.0
-4.814999e+04 1.185366e+02 0.0
-4.805000e+04 -1.023739e+02 0.0
-4.804999e+04 1.185474e+02 0.0
-4.795000e+04 -1.023844e+02 0.0
-4.785000e+04 -1.023960e+02 0.0
-4.775000e+04 -1.024087e+02 0.0
-4.784999e+04 1.185730e+02 0.0
-4.774999e+04 1.185878e+02 0.0
-4.765000e+04 -1.024224e+02 0.0
-4.764999e+04 1.186036e+02 0.0
-4.755000e+04 -1.024370e+02 0.0
-4.754999e+04 1.186205e+02 0.0
-4.745000e+04 -1.024524e+02 0.0
-4.744999e+04 1.186384e+02 0.0
-4.735000e+04 -1.024686e+02 0.0
-4.725000e+04 -1.024855e+02 0.0
-4.715000e+04 -1.025029e+02 0.0
-4.705000e+04 -1.025209e+02 0.0
-4.714999e+04 1.186969e+02 0.0
-4.704999e+04 1.187177e+02 0.0
-4.695000e+04 -1.025394e+02 0.0
-4.694999e+04 1.187390e+02 0.0
-4.685000e+04 -1.025581e+02 0.0
-4.675000e+04 -1.025772e+02 0.0
-4.684999e+04 1.187608e+02 0.0
-4.674999e+04 1.187829e+02 0.0
-4.665000e+04 -1.025965e+02 0.0
-4.664999e+04 1.188052e+02 0.0
-4.655000e+04 -1.026160e+02 0.0
-4.645000e+04 -1.026354e+02 0.0
-4.635000e+04 -1.026549e+02 0.0
-4.644999e+04 1.188503e+02 0.0
-4.634999e+04 1.188729e+02 0.0
-4.625000e+04 -1.026743e+02 0.0
-4.624999e+04 1.188953e+02 0.0
-4.615000e+04 -1.026935e+02 0.0
-4.614999e+04 1.189175e+02 0.0
-4.605000e+04 -1.027124e+02 0.0
-4.604999e+04 1.189395e+02 0.0
-4.595000e+04 -1.027311e+02 0.0
-4.585000e+04 -1.027493e+02 0.0
-4.575000e+04 -1.027670e+02 0.0
-4.565000e+04 -1.027842e+02 0.0
-4.574999e+04 1.190026e+02 0.0
-4.564999e+04 1.190225e+02 0.0
-4.555000e+04 -1.028007e+02 0.0
-4.545000e+04 -1.028165e+02 0.0
-4.554999e+04 1.190417e+02 0.0
-4.544999e+04 1.190600e+02 0.0
-4.535000e+04 -1.028316e+02 0.0
-4.534999e+04 1.190774e+02 0.0
-4.525000e+04 -1.028458e+02 0.0
-4.515000e+04 -1.028593e+02 0.0
-4.505000e+04 -1.028720e+02 0.0
-4.514999e+04 1.191095e+02 0.0
-4.504999e+04 1.191242e+02 0.0
-4.495000e+04 -1.028839e+02 0.0
-4.494999e+04 1.191380e+02 0.0
-4.485000e+04 -1.028951e+02 0.0
-4.484999e+04 1.191509e+02 0.0
-4.475000e+04 -1.029054e+02 0.0
-4.474999e+04 1.191629e+02 0.0
-4.465000e+04 -1.029150e+02 0.0
-4.464999e+04 1.191741e+02 0.0
-4.455000e+04 -1.029239e+02 0.0
-4.454999e+04 1.191843e+02 0.0
-4.445000e+04 -1.029319e+02 0.0
-4.444999e+04 1.191937e+02 0.0
-4.435000e+04 -1.029393e+02 0.0
-4.425000e+04 -1.029458e+02 0.0
-4.434999e+04 1.192021e+02 0.0
-4.424999e+04 1.192097e+02 0.0
-4.415000e+04 -1.029516e+02 0.0
-4.405000e+04 -1.029567e+02 0.0
-4.414999e+04 1.192164e+02 0.0
-4.404999e+04 1.192223e+02 0.0
-4.395000e+04 -1.029610e+02 0.0
-4.385000e+04 -1.029646e+02 0.0
-4.375000e+04 -1.029674e+02 0.0
-4.384999e+04 1.192314e+02 0.0
-4.374999e+04 1.192347e+02 0.0
-4.365000e+04 -1.029695e+02 0.0
-4.364999e+04 1.192371e+02 0.0
-4.355000e+04 -1.029708e+02 0.0
-4.354999e+04 1.192386e+02 0.0
-4.345000e+04 -1.029714e+02 0.0
-4.344999e+04 1.192394e+02 0.0
-4.335000e+04 -1.029713e+02 0.0
-4.334999e+04 1.192392e+02 0.0
-4.325000e+04 -1.029704e+02 0.0
-4.324999e+04 1.192382e+02 0.0
-4.315000e+04 -1.029689e+02 0.0
-4.314999e+04 1.192364e+02 0.0
-4.305000e+04 -1.029666e+02 0.0
-4.304999e+04 1.192338e+02 0.0
-4.295000e+04 -1.029636e+02 0.0
-4.285000e+04 -1.029598e+02 0.0
-4.294999e+04 1.192303e+02 0.0
-4.284999e+04 1.192259e+02 0.0
-4.275000e+04 -1.029554e+02 0.0
-4.265000e+04 -1.029502e+02 0.0
-4.274999e+04 1.192208e+02 0.0
-4.264999e+04 1.192148e+02 0.0
-4.255000e+04 -1.029444e+02 0.0
-4.245000e+04 -1.029378e+02 0.0
-4.235000e+04 -1.029305e+02 0.0
-4.244999e+04 1.192004e+02 0.0
-4.234999e+04 1.191920e+02 0.0
-4.225000e+04 -1.029226e+02 0.0
-4.224999e+04 1.191828e+02 0.0
-4.215000e+04 -1.029139e+02 0.0
-4.214999e+04 1.191728e+02 0.0
-4.205000e+04 -1.029046e+02 0.0
-4.204999e+04 1.191619e+02 0.0
-4.195000e+04 -1.028945e+02 0.0
-4.194999e+04 1.191503e+02 0.0
-4.185000e+04 -1.028838e+02 0.0
-4.184999e+04 1.191379e+02 0.0
-4.175000e+04 -1.028724e+02 0.0
-4.174999e+04 1.191247e+02 0.0
-4.165000e+04 -1.028603e+02 0.0
-4.164999e+04 1.191106e+02 0.0
-4.155000e+04 -1.028475e+02 0.0
-4.145000e+04 -1.028340e+02 0.0
-4.154999e+04 1.190958e+02 0.0
-4.144999e+04 1.190803e+02 0.0
-4.135000e+04 -1.028199e+02 0.0
-4.125000e+04 -1.028051e+02 0.0
-4.134999e+04 1.190639e+02 0.0
-4.124999e+04 1.190468e+02 0.0
-4.115000e+04 -1.027896e+02 0.0
-4.105000e+04 -1.027735e+02 0.0
-4.095000e+04 -1.027567e+02 0.0
-4.104999e+04 1.190102e+02 0.0
-4.094999e+04 1.189907e+02 0.0
-4.085000e+04 -1.027393e+02 0.0
-4.084999e+04 1.189705e+02 0.0
-4.075000e+04 -1.027212e+02 0.0
-4.074999e+04 1.189496e+02 0.0
-4.065000e+04 -1.027024e+02 0.0
-4.064999e+04 1.189278e+02 0.0
-4.055000e+04 -1.026829e+02 0.0
-4.054999e+04 1.189053e+02 0.0
-4.045000e+04 -1.026628e+02 0.0
-4.044999e+04 1.188819e+02 0.0
-4.035000e+04 -1.026419e+02 0.0
-4.034999e+04 1.188578e+02 0.0
-4.025000e+04 -1.026204e+02 0.0
-4.024999e+04 1.188329e+02 0.0
-4.015000e+04 -1.025981e+02 0.0
-4.005000e+04 -1.025752e+02 0.0
-4.014999e+04 1.188071e+02 0.0
-4.004999e+04 1.187805e+02 0.0
-3.995000e+04 -1.025515e+02 0.0
-3.985000e+04 -1.025271e+02 0.0
-3.994999e+04 1.187531e+02 0.0
-3.984999e+04 1.187248e+02 0.0
-3.975000e+04 -1.025019e+02 0.0
-3.965000e+04 -1.024760e+02 0.0
-3.955000e+04 -1.024493e+02 0.0
-3.964999e+04 1.186656e+02 0.0
-3.954999e+04 1.186348e+02 0.0
-3.945000e+04 -1.024219e+02 0.0
-3.944999e+04 1.186030e+02 0.0
-3.935000e+04 -1.023937e+02 0.0
-3.934999e+04 1.185703e+02 0.0
-3.925000e+04 -1.023647e+02 0.0
-3.924999e+04 1.185368e+02 0.0
-3.915000e+04 -1.023349e+02 0.0
-3.914999e+04 1.185023e+02 0.0
-3.905000e+04 -1.023043e+02 0.0
-3.904999e+04 1.184669e+02 0.0
-3.895000e+04 -1.022729e+02 0.0
-3.894999e+04 1.184305e+02 0.0
-3.885000e+04 -1.022408e+02 0.0
-3.884999e+04 1.183933e+02 0.0
-3.875000e+04 -1.022078e+02 0.0
-3.865000e+04 -1.021739e+02 0.0
-3.874999e+04 1.183550e+02 0.0
-3.864999e+04 1.183159e+02 0.0
-3.855000e+04 -1.021392e+02 0.0
-3.845000e+04 -1.021037e+02 0.0
-3.854999e+04 1.182757e+02 0.0
-3.844999e+04 1.182346e+02 0.0
-3.835000e+04 -1.020674e+02 0.0
-3.825000e+04 -1.020301e+02 0.0
-3.815000e+04 -1.019921e+02 0.0
-3.824999e+04 1.181494e+02 0.0
-3.814999e+04 1.181053e+02 0.0
-3.805000e+04 -1.019531e+02 0.0
-3.804999e+04 1.180602e+02 0.0
-3.795000e+04 -1.019132e+02 0.0
-3.794999e+04 1.180140e+02 0.0
-3.785000e+04 -1.018725e+02 0.0
-3.784999e+04 1.179668e+02 0.0
-3.775000e+04 -1.018309e+02 0.0
-3.774999e+04 1.179186e+02 0.0
-3.765000e+04 -1.017883e+02 0.0
-3.764999e+04 1.178693e+02 0.0
-3.745000e+04 1.177676e+02 0.0
-3.755000e+04 1.178188e+02 0.0
-3.665000e+04 1.173169e+02 0.0
-3.685000e+04 -1.014144e+02 0.0
-3.485000e+04 1.160868e+02 0.0
-3.495000e+04 -1.003107e+02 0.0
-3.305000e+04 1.149411e+02 0.0
-3.315000e+04 -9.930473e+01 0.0
-3.105000e+04 1.144259e+02 0.0
-3.125000e+04 -9.881563e+01 0.0
-2.945000e+04 -9.907811e+01 0.0
-2.775000e+04 1.154106e+02 0.0
-2.765000e+04 1.154539e+02 0.0
-2.575000e+04 1.162203e+02 0.0
-2.405000e+04 1.168072e+02 0.0
-2.425000e+04 -1.008150e+02 0.0
-2.235000e+04 1.173253e+02 0.0
-2.255000e+04 -1.012685e+02 0.0
-2.075000e+04 1.177442e+02 0.0
-1.905000e+04 1.180467e+02 0.0
-1.925000e+04 -1.019197e+02 0.0
-1.755000e+04 1.181296e+02 0.0
-1.745000e+04 1.181287e+02 0.0
-1.585000e+04 1.180851e+02 0.0
-1.415000e+04 1.181508e+02 0.0
-1.435000e+04 -1.020121e+02 0.0
-1.255000e+04 1.185190e+02 0.0
-1.275000e+04 -1.022988e+02 0.0
-1.095000e+04 1.189064e+02 0.0
-1.115000e+04 -1.026581e+02 0.0
-9.350004e+03 1.187381e+02 0.0
-9.550000e+03 -1.026001e+02 0.0
-7.850004e+03 1.176818e+02 0.0
-8.050000e+03 -1.017836e+02 0.0
-6.349999e+03 1.162186e+02 0.0
-6.450000e+03 -1.004441e+02 0.0
-4.849999e+03 1.151603e+02 0.0
-4.950000e+03 -9.948501e+01 0.0
-3.250004e+03 1.152283e+02 0.0
-3.450000e+03 -9.944438e+01 0.0
-1.849996e+03 1.160217e+02 0.0
-1.749999e+03 1.160878e+02 0.0
-1.500039e+02 1.170208e+02 0.0
-3.500000e+02 -1.009793e+02 0.0
1.249996e+03 1.172649e+02 0.0
1.050000e+03 -1.012690e+02 0.0
2.749996e+03 1.169207e+02 0.0
2.550000e+03 -1.010335e+02 0.0
4.249996e+03 1.161660e+02 0.0
4.050000e+03 -1.004180e+02 0.0
5.749996e+03 1.152206e+02 0.0
5.550000e+03 -9.961271e+01 0.0
7.149996e+03 1.143532e+02 0.0
6.950000e+03 -9.885244e+01 0.0
8.649996e+03 1.136372e+02 0.0
8.450000e+03 -9.819881e+01 0.0
1.005000e+04 1.133358e+02 0.0
9.850000e+03 -9.788914e+01 0.0
1.145000e+04 1.134201e+02 0.0
1.125000e+04 -9.791704e+01 0.0
1.285000e+04 1.138384e+02 0.0
1.265000e+04 -9.823984e+01 0.0
1.435000e+04 1.145914e+02 0.0
1.415000e+04 -9.885920e+01 0.0
1.575000e+04 1.153964e+02 0.0
1.555000e+04 -9.955816e+01 0.0
1.715000e+04 1.159993e+02 0.0
1.695000e+04 -1.001196e+02 0.0
1.855000e+04 1.161022e+02 0.0
1.835000e+04 -1.002844e+02 0.0
1.995000e+04 1.156708e+02 0.0
1.975000e+04 -9.995734e+01 0.0
2.125000e+04 1.151925e+02 0.0
2.105000e+04 -9.952968e+01 0.0
2.265000e+04 1.150773e+02 0.0
2.245000e+04 -9.935336e+01 0.0
2.405000e+04 1.157272e+02 0.0
2.385000e+04 -9.982511e+01 0.0
2.535000e+04 1.167126e+02 0.0
2.515000e+04 -1.006541e+02 0.0
2.675000e+04 1.176556e+02 0.0
2.655000e+04 -1.015116e+02 0.0
2.815000e+04 1.179683e+02 0.0
2.795000e+04 -1.018749e+02 0.0
2.925000e+04 1.177778e+02 0.0
2.935000e+04 1.177494e+02 0.0
3.075000e+04 1.173162e+02 0.0
3.055000e+04 -1.013607e+02 0.0
3.205000e+04 1.171158e+02 0.0
3.345000e+04 1.173639e+02 0.0
3.325000e+04 -1.013002e+02 0.0
3.465000e+04 1.178334e+02 0.0
3.455000e+04 -1.017191e+02 0.0
3.615000e+04 1.185215e+02 0.0
3.595000e+04 -1.022746e+02 0.0
3.735000e+04 1.189877e+02 0.0
3.725000e+04 -1.027250e+02 0.0
3.875000e+04 1.193628e+02 0.0
4.005000e+04 1.195322e+02 0.0
3.985000e+04 -1.032121e+02 0.0
4.115000e+04 -1.032222e+02 0.0
4.125000e+04 1.195226e+02 0.0
4.265000e+04 1.193566e+02 0.0
4.245000e+04 -1.030972e+02 0.0
4.395000e+04 1.191942e+02 0.0
4.375000e+04 -1.029493e+02 0.0
4.525000e+04 1.191718e+02 0.0
4.505000e+04 -1.029033e+02 0.0
4.655000e+04 1.193650e+02 0.0
4.635000e+04 -1.030512e+02 0.0
4.785000e+04 1.194034e+02 0.0
4.765000e+04 -1.031357e+02 0.0
4.905000e+04 1.188269e+02 0.0
4.895000e+04 -1.026866e+02 0.0
4.135000e+04 1.195149e+02 0.0
3.855000e+04 -1.030421e+02 0.0
3.475000e+04 1.178784e+02 0.0
3.195000e+04 -1.011380e+02 0.0
2.925000e+04 -1.017092e+02 0.0
-1.850000e+03 -1.001928e+02 0.0
-4.750004e+03 1.151242e+02 0.0
-6.250004e+03 1.161266e+02 0.0
-1.595000e+04 -1.019768e+02 0.0
-1.755000e+04 -1.020131e+02 0.0
-2.085000e+04 -1.016605e+02 0.0
-2.595000e+04 -1.002998e+02 0.0
-2.775000e+04 -9.966503e+01 0.0
-2.925000e+04 1.147988e+02 0.0
-3.295000e+04 1.148912e+02 0.0
-3.475000e+04 1.160160e+02 0.0
-3.759999e+04 1.440530e+01 0.0
-3.769999e+04 1.441235e+01 0.0
-3.779999e+04 1.441848e+01 0.0
-3.789999e+04 1.442434e+01 0.0
-3.799999e+04 1.443005e+01 0.0
-3.809999e+04 1.443562e+01 0.0
-3.819999e+04 1.444108e+01 0.0
-3.834999e+04 1.181925e+02 0.0
-3.829999e+04 1.444641e+01 0.0
-3.839999e+04 1.445162e+01 0.0
-3.849999e+04 1.445670e+01 0.0
-3.859999e+04 1.446167e+01 0.0
-3.869999e+04 1.446652e+01 0.0
-3.879999e+04 1.447125e+01 0.0
-3.889999e+04 1.447587e+01 0.0
-3.899999e+04 1.448037e+01 0.0
-3.909999e+04 1.448475e+01 0.0
-3.919999e+04 1.448902e+01 0.0
-3.929999e+04 1.449318e+01 0.0
-3.939999e+04 1.449723e+01 0.0
-3.949999e+04 1.450117e+01 0.0
-3.959999e+04 1.450500e+01 0.0
-3.974999e+04 1.186956e+02 0.0
-3.969999e+04 1.450872e+01 0.0
-3.979999e+04 1.451233e+01 0.0
-3.989999e+04 1.451584e+01 0.0
-3.999999e+04 1.451925e+01 0.0
-4.009999e+04 1.452255e+01 0.0
-4.019999e+04 1.452575e+01 0.0
-4.029999e+04 1.452885e+01 0.0
-4.039999e+04 1.453185e+01 0.0
-4.049999e+04 1.453475e+01 0.0
-4.059999e+04 1.453756e+01 0.0
-4.069999e+04 1.454026e+01 0.0
-4.079999e+04 1.454287e+01 0.0
-4.089999e+04 1.454539e+01 0.0
-4.099999e+04 1.454782e+01 0.0
-4.114999e+04 1.190289e+02 0.0
-4.109999e+04 1.455015e+01 0.0
-4.119999e+04 1.455238e+01 0.0
-4.129999e+04 1.455452e+01 0.0
-4.139999e+04 1.455657e+01 0.0
-4.149999e+04 1.455852e+01 0.0
-4.159999e+04 1.456038e+01 0.0
-4.169999e+04 1.456214e+01 0.0
-4.179999e+04 1.456381e+01 0.0
-4.189999e+04 1.456537e+01 0.0
-4.199999e+04 1.456685e+01 0.0
-4.209999e+04 1.456822e+01 0.0
-4.219999e+04 1.456949e+01 0.0
-4.229999e+04 1.457067e+01 0.0
-4.239999e+04 1.457175e+01 0.0
-4.254999e+04 1.192080e+02 0.0
-4.249999e+04 1.457273e+01 0.0
-4.259999e+04 1.457361e+01 0.0
-4.269999e+04 1.457439e+01 0.0
-4.279999e+04 1.457507e+01 0.0
-4.289999e+04 1.457565e+01 0.0
-4.299999e+04 1.457612e+01 0.0
-4.309999e+04 1.457650e+01 0.0
-4.319999e+04 1.457677e+01 0.0
-4.329999e+04 1.457694e+01 0.0
-4.339999e+04 1.457701e+01 0.0
-4.349999e+04 1.457698e+01 0.0
-4.359999e+04 1.457684e+01 0.0
-4.369999e+04 1.457660e+01 0.0
-4.379999e+04 1.457625e+01 0.0
-4.394999e+04 1.192273e+02 0.0
-4.389999e+04 1.457580e+01 0.0
-4.399999e+04 1.457524e+01 0.0
-4.409999e+04 1.457458e+01 0.0
-4.419999e+04 1.457381e+01 0.0
-4.429999e+04 1.457293e+01 0.0
-4.439999e+04 1.457195e+01 0.0
-4.449999e+04 1.457086e+01 0.0
-4.459999e+04 1.456967e+01 0.0
-4.469999e+04 1.456836e+01 0.0
-4.479999e+04 1.456695e+01 0.0
-4.489999e+04 1.456542e+01 0.0
-4.499999e+04 1.456379e+01 0.0
-4.509999e+04 1.456205e+01 0.0
-4.524999e+04 1.190939e+02 0.0
-4.519999e+04 1.456020e+01 0.0
-4.529999e+04 1.455823e+01 0.0
-4.539999e+04 1.455616e+01 0.0
-4.549999e+04 1.455398e+01 0.0
-4.559999e+04 1.455168e+01 0.0
-4.569999e+04 1.454930e+01 0.0
-4.584999e+04 1.189821e+02 0.0
-4.579999e+04 1.454683e+01 0.0
-4.594999e+04 1.189610e+02 0.0
-4.589999e+04 1.454428e+01 0.0
-4.599999e+04 1.454167e+01 0.0
-4.609999e+04 1.453901e+01 0.0
-4.619999e+04 1.453631e+01 0.0
-4.629999e+04 1.453358e+01 0.0
-4.639999e+04 1.453083e+01 0.0
-4.654999e+04 1.188277e+02 0.0
-4.649999e+04 1.452807e+01 0.0
-4.659999e+04 1.452531e+01 0.0
-4.669999e+04 1.452257e+01 0.0
-4.679999e+04 1.451985e+01 0.0
-4.689999e+04 1.451717e+01 0.0
-4.699999e+04 1.451453e+01 0.0
-4.709999e+04 1.451195e+01 0.0
-4.724999e+04 1.186767e+02 0.0
-4.719999e+04 1.450944e+01 0.0
-4.734999e+04 1.186571e+02 0.0
-4.729999e+04 1.450701e+01 0.0
-4.739999e+04 1.450467e+01 0.0
-4.749999e+04 1.450243e+01 0.0
-4.759999e+04 1.450031e+01 0.0
-4.769999e+04 1.449830e+01 0.0
-4.779999e+04 1.449643e+01 0.0
-4.794999e+04 1.185596e+02 0.0
-4.789999e+04 1.449471e+01 0.0
-4.799999e+04 1.449314e+01 0.0
-4.809999e+04 1.449174e+01 0.0
-4.819999e+04 1.449051e+01 0.0
-4.829999e+04 1.448948e+01 0.0
-4.839999e+04 1.448864e+01 0.0
-4.849999e+04 1.448801e+01 0.0
-4.864999e+04 1.185071e+02 0.0
-4.859999e+04 1.448761e+01 0.0
-4.874999e+04 1.185067e+02 0.0
-4.869999e+04 1.448744e+01 0.0
-4.879999e+04 1.448751e+01 0.0
-4.889999e+04 1.448784e+01 0.0
-4.899999e+04 1.448844e+01 0.0
-4.910000e+04 1.448970e+01 0.0
-4.920005e+04 1.449832e+01 0.0
-4.935109e+04 1.180079e+02 0.0
-4.930059e+04 1.457598e+01 0.0
-4.951708e+04 1.098370e+01 0.0
-4.940429e+04 1.401963e+01 0.0
-3.749999e+04 1.439909e+01 0.0
-3.735001e+04 1.177152e+02 0.0
-3.740000e+04 1.439370e+01 0.0
-3.730000e+04 1.438740e+01 0.0
-3.715001e+04 1.176070e+02 0.0
-3.720000e+04 1.438082e+01 0.0
-3.710000e+04 1.437422e+01 0.0
-3.695000e+04 -1.014645e+02 0.0
-3.689999e+04 1.436117e+01 0.0
-3.699999e+04 1.436837e+01 0.0
-3.679999e+04 1.435200e+01 0.0
-3.669999e+04 1.434456e+01 0.0
-3.660000e+04 1.433807e+01 0.0
-3.650000e+04 1.433066e+01 0.0
-3.640000e+04 1.432297e+01 0.0
-3.625001e+04 1.170644e+02 0.0
-3.630000e+04 1.431511e+01 0.0
-3.615001e+04 1.169985e+02 0.0
-3.620000e+04 1.430711e+01 0.0
-3.610000e+04 1.429899e+01 0.0
-3.595001e+04 1.168638e+02 0.0
-3.600000e+04 1.429075e+01 0.0
-3.590000e+04 1.428241e+01 0.0
-3.575001e+04 1.167259e+02 0.0
-3.580000e+04 1.427398e+01 0.0
-3.570000e+04 1.426548e+01 0.0
-3.560000e+04 1.425690e+01 0.0
-3.550000e+04 1.424827e+01 0.0
-3.540000e+04 1.423960e+01 0.0
-3.530000e+04 1.423091e+01 0.0
-3.520000e+04 1.422233e+01 0.0
-3.505000e+04 -1.003723e+02 0.0
-3.489999e+04 1.419500e+01 0.0
-3.509999e+04 1.421462e+01 0.0
-3.499999e+04 1.420571e+01 0.0
-3.479999e+04 1.418617e+01 0.0
-3.470000e+04 1.417845e+01 0.0
-3.460000e+04 1.417001e+01 0.0
-3.450000e+04 1.416149e+01 0.0
-3.435001e+04 1.157368e+02 0.0
-3.440000e+04 1.415302e+01 0.0
-3.425001e+04 1.156685e+02 0.0
-3.430000e+04 1.414463e+01 0.0
-3.420000e+04 1.413634e+01 0.0
-3.410000e+04 1.412816e+01 0.0
-3.400000e+04 1.412009e+01 0.0
-3.390000e+04 1.411215e+01 0.0
-3.380000e+04 1.410436e+01 0.0
-3.370000e+04 1.409671e+01 0.0
-3.360000e+04 1.408924e+01 0.0
-3.345001e+04 1.151604e+02 0.0
-3.350000e+04 1.408195e+01 0.0
-3.335000e+04 1.151031e+02 0.0
-3.340000e+04 1.407498e+01 0.0
-3.325000e+04 -9.935129e+01 0.0
-3.319999e+04 1.406220e+01 0.0
-3.329999e+04 1.406908e+01 0.0
-3.309999e+04 1.405375e+01 0.0
-3.299999e+04 1.404737e+01 0.0
-3.285001e+04 1.148432e+02 0.0
-3.290000e+04 1.404229e+01 0.0
-3.280000e+04 1.403672e+01 0.0
-3.270000e+04 1.403127e+01 0.0
-3.260000e+04 1.402608e+01 0.0
-3.250000e+04 1.402119e+01 0.0
-3.240000e+04 1.401659e+01 0.0
-3.230000e+04 1.401231e+01 0.0
-3.220000e+04 1.400836e+01 0.0
-3.205001e+04 1.145446e+02 0.0
-3.210000e+04 1.400475e+01 0.0
-3.195001e+04 1.145193e+02 0.0
-3.200000e+04 1.400148e+01 0.0
-3.190000e+04 1.399858e+01 0.0
-3.180000e+04 1.399605e+01 0.0
-3.170000e+04 1.399391e+01 0.0
-3.155001e+04 1.144489e+02 0.0
-3.160000e+04 1.399214e+01 0.0
-3.145000e+04 1.144388e+02 0.0
-3.150000e+04 1.399087e+01 0.0
-3.135000e+04 -9.881952e+01 0.0
-3.119999e+04 1.398757e+01 0.0
-3.139999e+04 1.399081e+01 0.0
-3.129999e+04 1.398992e+01 0.0
-3.109999e+04 1.398738e+01 0.0
-3.100000e+04 1.398855e+01 0.0
-3.090000e+04 1.398928e+01 0.0
-3.080000e+04 1.399016e+01 0.0
-3.065001e+04 1.144538e+02 0.0
-3.070000e+04 1.399130e+01 0.0
-3.055001e+04 1.144665e+02 0.0
-3.060000e+04 1.399272e+01 0.0
-3.050000e+04 1.399441e+01 0.0
-3.040000e+04 1.399635e+01 0.0
-3.030000e+04 1.399854e+01 0.0
-3.015001e+04 1.145380e+02 0.0
-3.020000e+04 1.400097e+01 0.0
-3.005001e+04 1.145607e+02 0.0
-3.010000e+04 1.400363e+01 0.0
-3.000000e+04 1.400651e+01 0.0
-2.990000e+04 1.400960e+01 0.0
-2.980000e+04 1.401291e+01 0.0
-2.970000e+04 1.401653e+01 0.0
-2.955000e+04 -9.905042e+01 0.0
-2.939999e+04 1.402690e+01 0.0
-2.959999e+04 1.402121e+01 0.0
-2.949999e+04 1.402487e+01 0.0
-2.929999e+04 1.403092e+01 0.0
-2.915001e+04 1.148346e+02 0.0
-2.920000e+04 1.403613e+01 0.0
-2.910000e+04 1.404073e+01 0.0
-2.900000e+04 1.404531e+01 0.0
-2.890000e+04 1.404999e+01 0.0
-2.875001e+04 1.149873e+02 0.0
-2.880000e+04 1.405477e+01 0.0
-2.865001e+04 1.150275e+02 0.0
-2.870000e+04 1.405964e+01 0.0
-2.860000e+04 1.406460e+01 0.0
-2.850000e+04 1.406964e+01 0.0
-2.840000e+04 1.407475e+01 0.0
-2.830000e+04 1.407992e+01 0.0
-2.820000e+04 1.408513e+01 0.0
-2.810000e+04 1.409040e+01 0.0
-2.800000e+04 1.409582e+01 0.0
-2.785000e+04 1.153674e+02 0.0
-2.769999e+04 1.411062e+01 0.0
-2.789999e+04 1.410214e+01 0.0
-2.779999e+04 1.410728e+01 0.0
-2.759999e+04 1.411579e+01 0.0
-2.750000e+04 1.412201e+01 0.0
-2.735001e+04 1.155836e+02 0.0
-2.740000e+04 1.412744e+01 0.0
-2.725001e+04 1.156261e+02 0.0
-2.730000e+04 1.413269e+01 0.0
-2.720000e+04 1.413788e+01 0.0
-2.710000e+04 1.414302e+01 0.0
-2.700000e+04 1.414810e+01 0.0
-2.690000e+04 1.415314e+01 0.0
-2.680000e+04 1.415814e+01 0.0
-2.670000e+04 1.416309e+01 0.0
-2.660000e+04 1.416799e+01 0.0
-2.645001e+04 1.159531e+02 0.0
-2.650000e+04 1.417285e+01 0.0
-2.635001e+04 1.159923e+02 0.0
-2.640000e+04 1.417767e+01 0.0
-2.630000e+04 1.418245e+01 0.0
-2.620000e+04 1.418732e+01 0.0
-2.605000e+04 -1.002671e+02 0.0
-2.599999e+04 1.419750e+01 0.0
-2.609999e+04 1.419303e+01 0.0
-2.589999e+04 1.420011e+01 0.0
-2.579999e+04 1.420454e+01 0.0
-2.570000e+04 1.421000e+01 0.0
-2.560000e+04 1.421465e+01 0.0
-2.550000e+04 1.421913e+01 0.0
-2.540000e+04 1.422354e+01 0.0
-2.530000e+04 1.422792e+01 0.0
-2.520000e+04 1.423225e+01 0.0
-2.510000e+04 1.423655e+01 0.0
-2.495001e+04 1.165067e+02 0.0
-2.500000e+04 1.424082e+01 0.0
-2.485001e+04 1.165411e+02 0.0
-2.490000e+04 1.424505e+01 0.0
-2.480000e+04 1.424924e+01 0.0
-2.465001e+04 1.166092e+02 0.0
-2.470000e+04 1.425341e+01 0.0
-2.460000e+04 1.425755e+01 0.0
-2.445000e+04 1.166763e+02 0.0
-2.450000e+04 1.426179e+01 0.0
-2.435000e+04 -1.007866e+02 0.0
-2.419999e+04 1.427274e+01 0.0
-2.439999e+04 1.426688e+01 0.0
-2.429999e+04 1.427074e+01 0.0
-2.409999e+04 1.427658e+01 0.0
-2.400000e+04 1.428146e+01 0.0
-2.390000e+04 1.428555e+01 0.0
-2.380000e+04 1.428946e+01 0.0
-2.370000e+04 1.429332e+01 0.0
-2.355001e+04 1.169658e+02 0.0
-2.360000e+04 1.429716e+01 0.0
-2.345001e+04 1.169968e+02 0.0
-2.350000e+04 1.430096e+01 0.0
-2.340000e+04 1.430475e+01 0.0
-2.325001e+04 1.170583e+02 0.0
-2.330000e+04 1.430850e+01 0.0
-2.320000e+04 1.431223e+01 0.0
-2.305001e+04 1.171189e+02 0.0
-2.310000e+04 1.431594e+01 0.0
-2.300000e+04 1.431963e+01 0.0
-2.290000e+04 1.432330e+01 0.0
-2.280000e+04 1.432709e+01 0.0
-2.265000e+04 -1.012431e+02 0.0
-2.249999e+04 1.433672e+01 0.0
-2.269999e+04 1.433174e+01 0.0
-2.259999e+04 1.433515e+01 0.0
-2.239999e+04 1.434012e+01 0.0
-2.225001e+04 1.173541e+02 0.0
-2.230000e+04 1.434458e+01 0.0
-2.215001e+04 1.173825e+02 0.0
-2.220000e+04 1.434825e+01 0.0
-2.210000e+04 1.435173e+01 0.0
-2.200000e+04 1.435516e+01 0.0
-2.185001e+04 1.174661e+02 0.0
-2.190000e+04 1.435855e+01 0.0
-2.175001e+04 1.174933e+02 0.0
-2.180000e+04 1.436190e+01 0.0
-2.165001e+04 1.175202e+02 0.0
-2.170000e+04 1.436521e+01 0.0
-2.155001e+04 1.175468e+02 0.0
-2.160000e+04 1.436847e+01 0.0
-2.150000e+04 1.437170e+01 0.0
-2.140000e+04 1.437488e+01 0.0
-2.130000e+04 1.437801e+01 0.0
-2.120000e+04 1.438110e+01 0.0
-2.110000e+04 1.438427e+01 0.0
-2.095000e+04 -1.016401e+02 0.0
-2.089999e+04 1.439101e+01 0.0
-2.099999e+04 1.438828e+01 0.0
-2.079999e+04 1.439185e+01 0.0
-2.069999e+04 1.439451e+01 0.0
-2.060000e+04 1.439818e+01 0.0
-2.045001e+04 1.178108e+02 0.0
-2.050000e+04 1.440103e+01 0.0
-2.035001e+04 1.178318e+02 0.0
-2.040000e+04 1.440365e+01 0.0
-2.025001e+04 1.178522e+02 0.0
-2.030000e+04 1.440619e+01 0.0
-2.020000e+04 1.440865e+01 0.0
-2.005001e+04 1.178913e+02 0.0
-2.010000e+04 1.441104e+01 0.0
-2.000000e+04 1.441336e+01 0.0
-1.990000e+04 1.441559e+01 0.0
-1.980000e+04 1.441775e+01 0.0
-1.970000e+04 1.441983e+01 0.0
-1.960000e+04 1.442184e+01 0.0
-1.950000e+04 1.442389e+01 0.0
-1.935000e+04 -1.019077e+02 0.0
-1.919999e+04 1.442792e+01 0.0
-1.939999e+04 1.442675e+01 0.0
-1.929999e+04 1.442830e+01 0.0
-1.909999e+04 1.442933e+01 0.0
-1.900000e+04 1.443172e+01 0.0
-1.885001e+04 1.180689e+02 0.0
-1.890000e+04 1.443325e+01 0.0
-1.875001e+04 1.180787e+02 0.0
-1.880000e+04 1.443453e+01 0.0
-1.870000e+04 1.443569e+01 0.0
-1.860000e+04 1.443674e+01 0.0
-1.850000e+04 1.443768e+01 0.0
-1.840000e+04 1.443851e+01 0.0
-1.830000e+04 1.443924e+01 0.0
-1.820000e+04 1.443985e+01 0.0
-1.810000e+04 1.444035e+01 0.0
-1.800000e+04 1.444075e+01 0.0
-1.790000e+04 1.444105e+01 0.0
-1.780000e+04 1.444139e+01 0.0
-1.765000e+04 1.181300e+02 0.0
-1.749999e+04 1.444030e+01 0.0
-1.769999e+04 1.444253e+01 0.0
-1.759999e+04 1.444238e+01 0.0
-1.739999e+04 1.444005e+01 0.0
-1.730000e+04 1.444082e+01 0.0
-1.720000e+04 1.444076e+01 0.0
-1.710000e+04 1.444051e+01 0.0
-1.700000e+04 1.444019e+01 0.0
-1.690000e+04 1.443985e+01 0.0
-1.680000e+04 1.443947e+01 0.0
-1.670000e+04 1.443908e+01 0.0
-1.660000e+04 1.443867e+01 0.0
-1.650000e+04 1.443826e+01 0.0
-1.640000e+04 1.443785e+01 0.0
-1.630000e+04 1.443746e+01 0.0
-1.620000e+04 1.443722e+01 0.0
-1.605000e+04 -1.019790e+02 0.0
-1.599999e+04 1.443738e+01 0.0
-1.609999e+04 1.443789e+01 0.0
-1.589999e+04 1.443505e+01 0.0
-1.579999e+04 1.443466e+01 0.0
-1.570000e+04 1.443540e+01 0.0
-1.560000e+04 1.443542e+01 0.0
-1.550000e+04 1.443536e+01 0.0
-1.540000e+04 1.443535e+01 0.0
-1.530000e+04 1.443541e+01 0.0
-1.520000e+04 1.443556e+01 0.0
-1.510000e+04 1.443580e+01 0.0
-1.500000e+04 1.443614e+01 0.0
-1.485001e+04 1.180928e+02 0.0
-1.490000e+04 1.443658e+01 0.0
-1.475001e+04 1.180978e+02 0.0
-1.480000e+04 1.443714e+01 0.0
-1.470000e+04 1.443782e+01 0.0
-1.460000e+04 1.443876e+01 0.0
-1.445000e+04 -1.020040e+02 0.0
-1.429999e+04 1.444082e+01 0.0
-1.449999e+04 1.444074e+01 0.0
-1.439999e+04 1.444163e+01 0.0
-1.419999e+04 1.444205e+01 0.0
-1.410000e+04 1.444453e+01 0.0
-1.400000e+04 1.444640e+01 0.0
-1.390000e+04 1.444830e+01 0.0
-1.380000e+04 1.445036e+01 0.0
-1.370000e+04 1.445260e+01 0.0
-1.360000e+04 1.445504e+01 0.0
-1.350000e+04 1.445767e+01 0.0
-1.340000e+04 1.446047e+01 0.0
-1.330000e+04 1.446343e+01 0.0
-1.315001e+04 1.183488e+02 0.0
-1.320000e+04 1.446654e+01 0.0
-1.305001e+04 1.183756e+02 0.0
-1.310000e+04 1.446978e+01 0.0
-1.300000e+04 1.447326e+01 0.0
-1.285000e+04 -1.022739e+02 0.0
-1.269999e+04 1.448255e+01 0.0
-1.289999e+04 1.447772e+01 0.0
-1.279999e+04 1.448104e+01 0.0
-1.259999e+04 1.448600e+01 0.0
-1.250000e+04 1.449056e+01 0.0
-1.240000e+04 1.449434e+01 0.0
-1.230000e+04 1.449796e+01 0.0
-1.220000e+04 1.450153e+01 0.0
-1.205001e+04 1.186648e+02 0.0
-1.210000e+04 1.450504e+01 0.0
-1.195001e+04 1.186927e+02 0.0
-1.200000e+04 1.450849e+01 0.0
-1.190000e+04 1.451185e+01 0.0
-1.180000e+04 1.451511e+01 0.0
-1.170000e+04 1.451826e+01 0.0
-1.160000e+04 1.452127e+01 0.0
-1.150000e+04 1.452413e+01 0.0
-1.140000e+04 1.452697e+01 0.0
-1.125000e+04 -1.026427e+02 0.0
-1.109999e+04 1.453265e+01 0.0
-1.129999e+04 1.453051e+01 0.0
-1.119999e+04 1.453262e+01 0.0
-1.099999e+04 1.453434e+01 0.0
-1.090000e+04 1.453687e+01 0.0
-1.080000e+04 1.453834e+01 0.0
-1.065001e+04 1.189347e+02 0.0
-1.070000e+04 1.453938e+01 0.0
-1.055001e+04 1.189392e+02 0.0
-1.060000e+04 1.454008e+01 0.0
-1.050000e+04 1.454046e+01 0.0
-1.040000e+04 1.454049e+01 0.0
-1.025001e+04 1.189354e+02 0.0
-1.030000e+04 1.454016e+01 0.0
-1.020000e+04 1.453945e+01 0.0
-1.010000e+04 1.453835e+01 0.0
-9.999995e+03 1.453683e+01 0.0
-9.899995e+03 1.453490e+01 0.0
-9.799995e+03 1.453265e+01 0.0
-9.650000e+03 -1.026254e+02 0.0
-9.499994e+03 1.452145e+01 0.0
-9.699995e+03 1.453084e+01 0.0
-9.599994e+03 1.452732e+01 0.0
-9.399995e+03 1.451695e+01 0.0
-9.299995e+03 1.451302e+01 0.0
-9.150005e+03 1.186491e+02 0.0
-9.199995e+03 1.450776e+01 0.0
-9.050005e+03 1.185976e+02 0.0
-9.099995e+03 1.450178e+01 0.0
-8.999995e+03 1.449520e+01 0.0
-8.899995e+03 1.448805e+01 0.0
-8.799995e+03 1.448037e+01 0.0
-8.699995e+03 1.447220e+01 0.0
-8.599995e+03 1.446355e+01 0.0
-8.499995e+03 1.445446e+01 0.0
-8.399995e+03 1.444496e+01 0.0
-8.299995e+03 1.443522e+01 0.0
-8.150000e+03 -1.018593e+02 0.0
-7.999994e+03 1.440238e+01 0.0
-8.199995e+03 1.442602e+01 0.0
-8.099994e+03 1.441527e+01 0.0
-7.899995e+03 1.439112e+01 0.0
-7.799995e+03 1.438070e+01 0.0
-7.699995e+03 1.436930e+01 0.0
-7.550005e+03 1.173959e+02 0.0
-7.599995e+03 1.435757e+01 0.0
-7.450005e+03 1.172981e+02 0.0
-7.499995e+03 1.434568e+01 0.0
-7.399995e+03 1.433367e+01 0.0
-7.299995e+03 1.432156e+01 0.0
-7.199995e+03 1.430940e+01 0.0
-7.099995e+03 1.429720e+01 0.0
-6.999995e+03 1.428501e+01 0.0
-6.899995e+03 1.427284e+01 0.0
-6.799995e+03 1.426074e+01 0.0
-6.699995e+03 1.424886e+01 0.0
-6.550000e+03 -1.005265e+02 0.0
-6.399994e+03 1.421247e+01 0.0
-6.599995e+03 1.423798e+01 0.0
-6.499994e+03 1.422605e+01 0.0
-6.299995e+03 1.420095e+01 0.0
-6.199995e+03 1.419074e+01 0.0
-6.099995e+03 1.418003e+01 0.0
-5.999995e+03 1.416947e+01 0.0
-5.899995e+03 1.415921e+01 0.0
-5.799995e+03 1.414931e+01 0.0
-5.699995e+03 1.413978e+01 0.0
-5.599995e+03 1.413066e+01 0.0
-5.499995e+03 1.412198e+01 0.0
-5.399995e+03 1.411378e+01 0.0
-5.299995e+03 1.410609e+01 0.0
-5.199995e+03 1.409905e+01 0.0
-5.050000e+03 -9.952545e+01 0.0
-4.899994e+03 1.407985e+01 0.0
-5.099995e+03 1.409345e+01 0.0
-4.999994e+03 1.408724e+01 0.0
-4.799995e+03 1.407495e+01 0.0
-4.699995e+03 1.407178e+01 0.0
-4.599995e+03 1.406856e+01 0.0
-4.499995e+03 1.406594e+01 0.0
-4.399995e+03 1.406403e+01 0.0
-4.299995e+03 1.406283e+01 0.0
-4.199995e+03 1.406232e+01 0.0
-4.099995e+03 1.406247e+01 0.0
-3.999995e+03 1.406325e+01 0.0
-3.899995e+03 1.406464e+01 0.0
-3.750005e+03 1.150741e+02 0.0
-3.799995e+03 1.406662e+01 0.0
-3.699995e+03 1.406929e+01 0.0
-3.399994e+03 1.407880e+01 0.0
-3.599995e+03 1.407336e+01 0.0
-3.299995e+03 1.408315e+01 0.0
-3.199995e+03 1.408898e+01 0.0
-3.099995e+03 1.409446e+01 0.0
-2.999995e+03 1.410016e+01 0.0
-2.899995e+03 1.410619e+01 0.0
-2.799995e+03 1.411253e+01 0.0
-2.699995e+03 1.411916e+01 0.0
-2.599995e+03 1.412607e+01 0.0
-2.499995e+03 1.413321e+01 0.0
-2.399995e+03 1.414056e+01 0.0
-2.299995e+03 1.414810e+01 0.0
-2.199995e+03 1.415582e+01 0.0
-2.099995e+03 1.416380e+01 0.0
-1.949999e+03 1.159561e+02 0.0
-1.799994e+03 1.418671e+01 0.0
-1.999995e+03 1.417277e+01 0.0
-1.899994e+03 1.418062e+01 0.0
-1.699995e+03 1.419469e+01 0.0
-1.599995e+03 1.420374e+01 0.0
-1.499995e+03 1.421200e+01 0.0
-1.399995e+03 1.422008e+01 0.0
-1.299995e+03 1.422805e+01 0.0
-1.199995e+03 1.423592e+01 0.0
-1.099995e+03 1.424366e+01 0.0
-9.999954e+02 1.425125e+01 0.0
-8.999954e+02 1.425866e+01 0.0
-7.500053e+02 1.167229e+02 0.0
-7.999954e+02 1.426586e+01 0.0
-6.500052e+02 1.167788e+02 0.0
-6.999954e+02 1.427284e+01 0.0
-5.999953e+02 1.427969e+01 0.0
-4.500000e+02 -1.009373e+02 0.0
-2.999943e+02 1.429684e+01 0.0
-4.999948e+02 1.428714e+01 0.0
-3.999943e+02 1.429307e+01 0.0
-1.999949e+02 1.430211e+01 0.0
-9.999529e+01 1.430806e+01 0.0
4.593088e-03 1.431284e+01 0.0
1.000046e+02 1.431702e+01 0.0
2.000046e+02 1.432076e+01 0.0
3.000046e+02 1.432406e+01 0.0
4.000046e+02 1.432694e+01 0.0
5.000046e+02 1.432941e+01 0.0
6.000046e+02 1.433148e+01 0.0
7.000046e+02 1.433316e+01 0.0
8.499959e+02 1.172592e+02 0.0
8.000047e+02 1.433459e+01 0.0
1.000006e+03 1.433688e+01 0.0
9.000052e+02 1.433653e+01 0.0
1.100006e+03 1.433504e+01 0.0
1.200005e+03 1.433472e+01 0.0
1.300005e+03 1.433513e+01 0.0
1.400005e+03 1.433443e+01 0.0
1.500005e+03 1.433326e+01 0.0
1.600005e+03 1.433174e+01 0.0
1.700005e+03 1.432990e+01 0.0
1.800005e+03 1.432775e+01 0.0
1.900005e+03 1.432530e+01 0.0
2.049995e+03 1.171460e+02 0.0
2.000005e+03 1.432257e+01 0.0
2.149995e+03 1.171201e+02 0.0
2.100005e+03 1.431955e+01 0.0
2.200005e+03 1.431626e+01 0.0
2.300005e+03 1.431285e+01 0.0
2.450000e+03 -1.010631e+02 0.0
2.600006e+03 1.429948e+01 0.0
2.400005e+03 1.431006e+01 0.0
2.500006e+03 1.430580e+01 0.0
2.700005e+03 1.429479e+01 0.0
2.800005e+03 1.429095e+01 0.0
2.900005e+03 1.428613e+01 0.0
3.000005e+03 1.428094e+01 0.0
3.100005e+03 1.427554e+01 0.0
3.200005e+03 1.426993e+01 0.0
3.300005e+03 1.426414e+01 0.0
3.400005e+03 1.425817e+01 0.0
3.549995e+03 1.165553e+02 0.0
3.500005e+03 1.425202e+01 0.0
3.600005e+03 1.424572e+01 0.0
3.749995e+03 1.164496e+02 0.0
3.700005e+03 1.423927e+01 0.0
3.800005e+03 1.423280e+01 0.0
3.950000e+03 -1.004670e+02 0.0
4.100006e+03 1.421102e+01 0.0
3.900005e+03 1.422708e+01 0.0
4.000006e+03 1.422002e+01 0.0
4.200005e+03 1.420377e+01 0.0
4.300005e+03 1.419748e+01 0.0
4.400005e+03 1.419033e+01 0.0
4.500005e+03 1.418294e+01 0.0
4.600005e+03 1.417544e+01 0.0
4.700005e+03 1.416787e+01 0.0
4.800005e+03 1.416023e+01 0.0
4.949995e+03 1.157355e+02 0.0
4.900005e+03 1.415253e+01 0.0
5.049995e+03 1.156719e+02 0.0
5.000005e+03 1.414478e+01 0.0
5.100005e+03 1.413698e+01 0.0
5.200005e+03 1.412916e+01 0.0
5.300005e+03 1.412144e+01 0.0
5.450000e+03 -9.966856e+01 0.0
5.600006e+03 1.409660e+01 0.0
5.400005e+03 1.411457e+01 0.0
5.500006e+03 1.410649e+01 0.0
5.700005e+03 1.408855e+01 0.0
5.800005e+03 1.408158e+01 0.0
5.900005e+03 1.407386e+01 0.0
6.000005e+03 1.406602e+01 0.0
6.100005e+03 1.405819e+01 0.0
6.200005e+03 1.405040e+01 0.0
6.300005e+03 1.404265e+01 0.0
6.449995e+03 1.147741e+02 0.0
6.400005e+03 1.403495e+01 0.0
6.549995e+03 1.147119e+02 0.0
6.500005e+03 1.402732e+01 0.0
6.600005e+03 1.401976e+01 0.0
6.700005e+03 1.401241e+01 0.0
6.850000e+03 -9.890378e+01 0.0
7.000006e+03 1.398934e+01 0.0
6.800005e+03 1.400601e+01 0.0
6.900006e+03 1.399852e+01 0.0
7.100005e+03 1.398209e+01 0.0
7.200005e+03 1.397601e+01 0.0
7.300005e+03 1.396930e+01 0.0
7.400005e+03 1.396257e+01 0.0
7.500005e+03 1.395596e+01 0.0
7.649995e+03 1.140803e+02 0.0
7.600005e+03 1.394950e+01 0.0
7.749995e+03 1.140293e+02 0.0
7.700005e+03 1.394318e+01 0.0
7.800005e+03 1.393702e+01 0.0
7.900005e+03 1.393103e+01 0.0
8.000005e+03 1.392521e+01 0.0
8.100005e+03 1.391958e+01 0.0
8.200005e+03 1.391428e+01 0.0
8.350000e+03 -9.823372e+01 0.0
8.500006e+03 1.389802e+01 0.0
8.300005e+03 1.391003e+01 0.0
8.400006e+03 1.390481e+01 0.0
8.600005e+03 1.389327e+01 0.0
8.700005e+03 1.388979e+01 0.0
8.800005e+03 1.388581e+01 0.0
8.900005e+03 1.388192e+01 0.0
9.000005e+03 1.387826e+01 0.0
9.100005e+03 1.387485e+01 0.0
9.249995e+03 1.134580e+02 0.0
9.200005e+03 1.387171e+01 0.0
9.349995e+03 1.134355e+02 0.0
9.300005e+03 1.386883e+01 0.0
9.400005e+03 1.386621e+01 0.0
9.500005e+03 1.386385e+01 0.0
9.600005e+03 1.386188e+01 0.0
9.750000e+03 -9.789964e+01 0.0
9.900006e+03 1.385593e+01 0.0
9.700005e+03 1.386102e+01 0.0
9.800006e+03 1.385923e+01 0.0
1.000001e+04 1.385467e+01 0.0
1.010000e+04 1.385471e+01 0.0
1.024999e+04 1.133255e+02 0.0
1.020000e+04 1.385424e+01 0.0
1.030000e+04 1.385386e+01 0.0
1.040000e+04 1.385370e+01 0.0
1.054999e+04 1.133243e+02 0.0
1.050000e+04 1.385377e+01 0.0
1.064999e+04 1.133277e+02 0.0
1.060000e+04 1.385408e+01 0.0
1.070000e+04 1.385461e+01 0.0
1.080000e+04 1.385536e+01 0.0
1.090000e+04 1.385635e+01 0.0
1.100000e+04 1.385769e+01 0.0
1.115000e+04 -9.790473e+01 0.0
1.130001e+04 1.386148e+01 0.0
1.110001e+04 1.386011e+01 0.0
1.120001e+04 1.386157e+01 0.0
1.140001e+04 1.386341e+01 0.0
1.150000e+04 1.386659e+01 0.0
1.160000e+04 1.386923e+01 0.0
1.170000e+04 1.387194e+01 0.0
1.180000e+04 1.387483e+01 0.0
1.190000e+04 1.387791e+01 0.0
1.200000e+04 1.388120e+01 0.0
1.214999e+04 1.135909e+02 0.0
1.210000e+04 1.388467e+01 0.0
1.224999e+04 1.136217e+02 0.0
1.220000e+04 1.388835e+01 0.0
1.230000e+04 1.389222e+01 0.0
1.240000e+04 1.389641e+01 0.0
1.255000e+04 -9.820798e+01 0.0
1.270001e+04 1.390854e+01 0.0
1.250001e+04 1.390165e+01 0.0
1.260001e+04 1.390589e+01 0.0
1.280001e+04 1.391319e+01 0.0
1.290000e+04 1.391906e+01 0.0
1.300000e+04 1.392435e+01 0.0
1.310000e+04 1.392968e+01 0.0
1.324999e+04 1.140119e+02 0.0
1.320000e+04 1.393515e+01 0.0
1.334999e+04 1.140587e+02 0.0
1.330000e+04 1.394079e+01 0.0
1.340000e+04 1.394659e+01 0.0
1.350000e+04 1.395256e+01 0.0
1.360000e+04 1.395868e+01 0.0
1.370000e+04 1.396496e+01 0.0
1.380000e+04 1.397140e+01 0.0
1.390000e+04 1.397811e+01 0.0
1.405000e+04 -9.881086e+01 0.0
1.420001e+04 1.399735e+01 0.0
1.400001e+04 1.398580e+01 0.0
1.410001e+04 1.399242e+01 0.0
1.430001e+04 1.400418e+01 0.0
1.440000e+04 1.401214e+01 0.0
1.450000e+04 1.401940e+01 0.0
1.460000e+04 1.402655e+01 0.0
1.470000e+04 1.403372e+01 0.0
1.480000e+04 1.404089e+01 0.0
1.494999e+04 1.149420e+02 0.0
1.490000e+04 1.404807e+01 0.0
1.504999e+04 1.150005e+02 0.0
1.500000e+04 1.405523e+01 0.0
1.510000e+04 1.406237e+01 0.0
1.520000e+04 1.406948e+01 0.0
1.530000e+04 1.407667e+01 0.0
1.545000e+04 -9.950972e+01 0.0
1.560001e+04 1.409622e+01 0.0
1.540001e+04 1.408467e+01 0.0
1.550001e+04 1.409139e+01 0.0
1.570001e+04 1.410279e+01 0.0
1.580000e+04 1.411030e+01 0.0
1.590000e+04 1.411692e+01 0.0
1.604999e+04 1.155529e+02 0.0
1.600000e+04 1.412325e+01 0.0
1.614999e+04 1.156025e+02 0.0
1.610000e+04 1.412939e+01 0.0
1.620000e+04 1.413537e+01 0.0
1.630000e+04 1.414115e+01 0.0
1.640000e+04 1.414674e+01 0.0
1.650000e+04 1.415211e+01 0.0
1.660000e+04 1.415727e+01 0.0
1.670000e+04 1.416232e+01 0.0
1.685000e+04 -1.000896e+02 0.0
1.700001e+04 1.417432e+01 0.0
1.680001e+04 1.416799e+01 0.0
1.690001e+04 1.417220e+01 0.0
1.710001e+04 1.417800e+01 0.0
1.720000e+04 1.418244e+01 0.0
1.730000e+04 1.418579e+01 0.0
1.740000e+04 1.418867e+01 0.0
1.750000e+04 1.419118e+01 0.0
1.760000e+04 1.419333e+01 0.0
1.774999e+04 1.161214e+02 0.0
1.770000e+04 1.419510e+01 0.0
1.784999e+04 1.161311e+02 0.0
1.780000e+04 1.419649e+01 0.0
1.790000e+04 1.419747e+01 0.0
1.800000e+04 1.419806e+01 0.0
1.810000e+04 1.419834e+01 0.0
1.825000e+04 -1.002911e+02 0.0
1.840001e+04 1.419500e+01 0.0
1.820001e+04 1.419907e+01 0.0
1.830001e+04 1.419816e+01 0.0
1.850001e+04 1.419330e+01 0.0
1.860000e+04 1.419228e+01 0.0
1.870000e+04 1.419015e+01 0.0
1.880000e+04 1.418755e+01 0.0
1.894999e+04 1.160166e+02 0.0
1.890000e+04 1.418461e+01 0.0
1.904999e+04 1.159891e+02 0.0
1.900000e+04 1.418138e+01 0.0
1.910000e+04 1.417789e+01 0.0
1.920000e+04 1.417415e+01 0.0
1.930000e+04 1.417020e+01 0.0
1.940000e+04 1.416606e+01 0.0
1.950000e+04 1.416189e+01 0.0
1.965000e+04 -9.999020e+01 0.0
1.980001e+04 1.414698e+01 0.0
1.960001e+04 1.415844e+01 0.0
1.970001e+04 1.415366e+01 0.0
1.990001e+04 1.414206e+01 0.0
2.000000e+04 1.413815e+01 0.0
2.010000e+04 1.413344e+01 0.0
2.020000e+04 1.412858e+01 0.0
2.030000e+04 1.412371e+01 0.0
2.040000e+04 1.411886e+01 0.0
2.054999e+04 1.154332e+02 0.0
2.050000e+04 1.411408e+01 0.0
2.064999e+04 1.153951e+02 0.0
2.060000e+04 1.410937e+01 0.0
2.070000e+04 1.410478e+01 0.0
2.080000e+04 1.410044e+01 0.0
2.095000e+04 -9.955841e+01 0.0
2.110001e+04 1.408684e+01 0.0
2.090001e+04 1.409712e+01 0.0
2.100001e+04 1.409279e+01 0.0
2.120001e+04 1.408296e+01 0.0
2.130000e+04 1.408037e+01 0.0
2.140000e+04 1.407729e+01 0.0
2.150000e+04 1.407435e+01 0.0
2.160000e+04 1.407170e+01 0.0
2.174999e+04 1.150785e+02 0.0
2.170000e+04 1.406938e+01 0.0
2.184999e+04 1.150639e+02 0.0
2.180000e+04 1.406741e+01 0.0
2.190000e+04 1.406582e+01 0.0
2.200000e+04 1.406463e+01 0.0
2.210000e+04 1.406387e+01 0.0
2.220000e+04 1.406369e+01 0.0
2.235000e+04 -9.934707e+01 0.0
2.250001e+04 1.406448e+01 0.0
2.230001e+04 1.406485e+01 0.0
2.240001e+04 1.406531e+01 0.0
2.260001e+04 1.406603e+01 0.0
2.270000e+04 1.406921e+01 0.0
2.280000e+04 1.407220e+01 0.0
2.290000e+04 1.407563e+01 0.0
2.300000e+04 1.407957e+01 0.0
2.310000e+04 1.408404e+01 0.0
2.320000e+04 1.408900e+01 0.0
2.330000e+04 1.409443e+01 0.0
2.344999e+04 1.153653e+02 0.0
2.340000e+04 1.410031e+01 0.0
2.354999e+04 1.154185e+02 0.0
2.350000e+04 1.410662e+01 0.0
2.360000e+04 1.411346e+01 0.0
2.375000e+04 -9.977161e+01 0.0
2.390001e+04 1.413452e+01 0.0
2.370001e+04 1.412154e+01 0.0
2.380001e+04 1.412878e+01 0.0
2.400001e+04 1.414241e+01 0.0
2.410000e+04 1.415164e+01 0.0
2.420000e+04 1.416035e+01 0.0
2.430000e+04 1.416913e+01 0.0
2.444999e+04 1.160134e+02 0.0
2.440000e+04 1.417809e+01 0.0
2.454999e+04 1.160887e+02 0.0
2.450000e+04 1.418722e+01 0.0
2.460000e+04 1.419649e+01 0.0
2.470000e+04 1.420588e+01 0.0
2.480000e+04 1.421538e+01 0.0
2.490000e+04 1.422508e+01 0.0
2.505000e+04 -1.005861e+02 0.0
2.520001e+04 1.425277e+01 0.0
2.500001e+04 1.423571e+01 0.0
2.510001e+04 1.424515e+01 0.0
2.530001e+04 1.426221e+01 0.0
2.540000e+04 1.427268e+01 0.0
2.550000e+04 1.428230e+01 0.0
2.560000e+04 1.429166e+01 0.0
2.570000e+04 1.430088e+01 0.0
2.580000e+04 1.430993e+01 0.0
2.590000e+04 1.431881e+01 0.0
2.600000e+04 1.432748e+01 0.0
2.610000e+04 1.433592e+01 0.0
2.620000e+04 1.434411e+01 0.0
2.635000e+04 1.174302e+02 0.0
2.630000e+04 1.435216e+01 0.0
2.650001e+04 1.436787e+01 0.0
2.640001e+04 1.436079e+01 0.0
2.660001e+04 1.437276e+01 0.0
2.670001e+04 1.437914e+01 0.0
2.680000e+04 1.438621e+01 0.0
2.690000e+04 1.439207e+01 0.0
2.700000e+04 1.439732e+01 0.0
2.710000e+04 1.440207e+01 0.0
2.724999e+04 1.178588e+02 0.0
2.720000e+04 1.440632e+01 0.0
2.734999e+04 1.178870e+02 0.0
2.730000e+04 1.441003e+01 0.0
2.740000e+04 1.441320e+01 0.0
2.750000e+04 1.441584e+01 0.0
2.760000e+04 1.441799e+01 0.0
2.770000e+04 1.441979e+01 0.0
2.785000e+04 -1.018712e+02 0.0
2.800001e+04 1.442089e+01 0.0
2.780001e+04 1.442202e+01 0.0
2.790001e+04 1.442259e+01 0.0
2.810001e+04 1.442067e+01 0.0
2.820000e+04 1.442115e+01 0.0
2.830000e+04 1.442049e+01 0.0
2.840000e+04 1.441935e+01 0.0
2.850000e+04 1.441785e+01 0.0
2.860000e+04 1.441605e+01 0.0
2.870000e+04 1.441397e+01 0.0
2.880000e+04 1.441162e+01 0.0
2.890000e+04 1.440904e+01 0.0
2.900000e+04 1.440637e+01 0.0
2.915000e+04 1.178049e+02 0.0
2.930001e+04 1.439562e+01 0.0
2.910001e+04 1.440439e+01 0.0
2.920001e+04 1.440101e+01 0.0
2.940001e+04 1.439198e+01 0.0
2.950000e+04 1.438929e+01 0.0
2.960000e+04 1.438573e+01 0.0
2.970000e+04 1.438194e+01 0.0
2.980000e+04 1.437806e+01 0.0
2.990000e+04 1.437414e+01 0.0
3.004999e+04 1.175315e+02 0.0
3.000000e+04 1.437020e+01 0.0
3.014999e+04 1.174992e+02 0.0
3.010000e+04 1.436625e+01 0.0
3.020000e+04 1.436233e+01 0.0
3.030000e+04 1.435858e+01 0.0
3.045000e+04 -1.013869e+02 0.0
3.060001e+04 1.434617e+01 0.0
3.040001e+04 1.435578e+01 0.0
3.050001e+04 1.435184e+01 0.0
3.070001e+04 1.434249e+01 0.0
3.080000e+04 1.434003e+01 0.0
3.090000e+04 1.433695e+01 0.0
3.100000e+04 1.433391e+01 0.0
3.110000e+04 1.433104e+01 0.0
3.120000e+04 1.432839e+01 0.0
3.130000e+04 1.432598e+01 0.0
3.140000e+04 1.432382e+01 0.0
3.150000e+04 1.432194e+01 0.0
3.160000e+04 1.432038e+01 0.0
3.170000e+04 1.431926e+01 0.0
3.185000e+04 -1.011408e+02 0.0
3.190001e+04 1.431863e+01 0.0
3.180001e+04 1.431937e+01 0.0
3.200001e+04 1.431640e+01 0.0
3.210001e+04 1.431640e+01 0.0
3.220000e+04 1.431780e+01 0.0
3.230000e+04 1.431876e+01 0.0
3.240000e+04 1.431989e+01 0.0
3.250000e+04 1.432129e+01 0.0
3.260000e+04 1.432299e+01 0.0
3.270000e+04 1.432497e+01 0.0
3.284999e+04 1.172061e+02 0.0
3.280000e+04 1.432722e+01 0.0
3.294999e+04 1.172276e+02 0.0
3.290000e+04 1.432974e+01 0.0
3.300000e+04 1.433264e+01 0.0
3.315000e+04 -1.012765e+02 0.0
3.330001e+04 1.434117e+01 0.0
3.310001e+04 1.433668e+01 0.0
3.320001e+04 1.433973e+01 0.0
3.340001e+04 1.434470e+01 0.0
3.350000e+04 1.434950e+01 0.0
3.360000e+04 1.435373e+01 0.0
3.370000e+04 1.435798e+01 0.0
3.380000e+04 1.436239e+01 0.0
3.390000e+04 1.436695e+01 0.0
3.400000e+04 1.437165e+01 0.0
3.410000e+04 1.437650e+01 0.0
3.420000e+04 1.438148e+01 0.0
3.430000e+04 1.438672e+01 0.0
3.445000e+04 -1.016814e+02 0.0
3.460001e+04 1.440143e+01 0.0
3.440001e+04 1.439295e+01 0.0
3.450001e+04 1.439807e+01 0.0
3.470001e+04 1.440675e+01 0.0
3.484999e+04 1.179239e+02 0.0
3.480000e+04 1.441322e+01 0.0
3.490000e+04 1.441897e+01 0.0
3.500000e+04 1.442462e+01 0.0
3.510000e+04 1.443028e+01 0.0
3.520000e+04 1.443597e+01 0.0
3.530000e+04 1.444167e+01 0.0
3.540000e+04 1.444737e+01 0.0
3.550000e+04 1.445307e+01 0.0
3.560000e+04 1.445876e+01 0.0
3.575000e+04 1.183413e+02 0.0
3.570000e+04 1.446457e+01 0.0
3.600001e+04 1.448010e+01 0.0
3.580001e+04 1.447123e+01 0.0
3.610001e+04 1.448541e+01 0.0
3.620000e+04 1.449173e+01 0.0
3.630000e+04 1.449718e+01 0.0
3.640000e+04 1.450239e+01 0.0
3.650000e+04 1.450747e+01 0.0
3.660000e+04 1.451245e+01 0.0
3.670000e+04 1.451731e+01 0.0
3.680000e+04 1.452207e+01 0.0
3.690000e+04 1.452673e+01 0.0
3.700000e+04 1.453142e+01 0.0
3.715000e+04 -1.026949e+02 0.0
3.730001e+04 1.454320e+01 0.0
3.710001e+04 1.453689e+01 0.0
3.720001e+04 1.454103e+01 0.0
3.740001e+04 1.454715e+01 0.0
3.754999e+04 1.190530e+02 0.0
3.750000e+04 1.455208e+01 0.0
3.764999e+04 1.190842e+02 0.0
3.760000e+04 1.455612e+01 0.0
3.770000e+04 1.455990e+01 0.0
3.780000e+04 1.456354e+01 0.0
3.790000e+04 1.456706e+01 0.0
3.800000e+04 1.457046e+01 0.0
3.810000e+04 1.457374e+01 0.0
3.820000e+04 1.457691e+01 0.0
3.830000e+04 1.458010e+01 0.0
3.845000e+04 -1.030227e+02 0.0
3.850001e+04 1.458669e+01 0.0
3.840001e+04 1.458407e+01 0.0
3.860001e+04 1.458732e+01 0.0
3.870001e+04 1.458973e+01 0.0
3.880000e+04 1.459311e+01 0.0
3.890000e+04 1.459559e+01 0.0
3.900000e+04 1.459779e+01 0.0
3.910000e+04 1.459984e+01 0.0
3.920000e+04 1.460176e+01 0.0
3.930000e+04 1.460356e+01 0.0
3.940000e+04 1.460522e+01 0.0
3.950000e+04 1.460677e+01 0.0
3.960000e+04 1.460831e+01 0.0
3.975000e+04 -1.032045e+02 0.0
3.990001e+04 1.461054e+01 0.0
3.970001e+04 1.461064e+01 0.0
3.980001e+04 1.461159e+01 0.0
4.000001e+04 1.461127e+01 0.0
4.010000e+04 1.461296e+01 0.0
4.020000e+04 1.461373e+01 0.0
4.034999e+04 1.195452e+02 0.0
4.030000e+04 1.461422e+01 0.0
4.044999e+04 1.195473e+02 0.0
4.040000e+04 1.461455e+01 0.0
4.050000e+04 1.461473e+01 0.0
4.060000e+04 1.461478e+01 0.0
4.070000e+04 1.461468e+01 0.0
4.080000e+04 1.461446e+01 0.0
4.090000e+04 1.461422e+01 0.0
4.105000e+04 -1.032273e+02 0.0
4.120001e+04 1.461108e+01 0.0
4.100001e+04 1.461475e+01 0.0
4.130001e+04 1.461003e+01 0.0
4.144999e+04 1.195062e+02 0.0
4.140000e+04 1.460998e+01 0.0
4.150000e+04 1.460903e+01 0.0
4.160000e+04 1.460785e+01 0.0
4.170000e+04 1.460655e+01 0.0
4.180000e+04 1.460517e+01 0.0
4.190000e+04 1.460371e+01 0.0
4.200000e+04 1.460220e+01 0.0
4.210000e+04 1.460064e+01 0.0
4.220000e+04 1.459917e+01 0.0
4.235000e+04 -1.031092e+02 0.0
4.250001e+04 1.459293e+01 0.0
4.230001e+04 1.459856e+01 0.0
4.240001e+04 1.459669e+01 0.0
4.260001e+04 1.459106e+01 0.0
4.270000e+04 1.459029e+01 0.0
4.280000e+04 1.458873e+01 0.0
4.290000e+04 1.458703e+01 0.0
4.300000e+04 1.458533e+01 0.0
4.314999e+04 1.192868e+02 0.0
4.310000e+04 1.458364e+01 0.0
4.324999e+04 1.192735e+02 0.0
4.320000e+04 1.458200e+01 0.0
4.330000e+04 1.458039e+01 0.0
4.340000e+04 1.457884e+01 0.0
4.350000e+04 1.457749e+01 0.0
4.365000e+04 -1.029586e+02 0.0
4.380001e+04 1.457223e+01 0.0
4.360001e+04 1.457710e+01 0.0
4.370001e+04 1.457556e+01 0.0
4.390001e+04 1.457089e+01 0.0
4.400000e+04 1.457076e+01 0.0
4.414999e+04 1.191781e+02 0.0
4.410000e+04 1.456994e+01 0.0
4.424999e+04 1.191714e+02 0.0
4.420000e+04 1.456909e+01 0.0
4.430000e+04 1.456834e+01 0.0
4.440000e+04 1.456771e+01 0.0
4.450000e+04 1.456723e+01 0.0
4.460000e+04 1.456688e+01 0.0
4.470000e+04 1.456671e+01 0.0
4.480000e+04 1.456683e+01 0.0
4.495000e+04 -1.029003e+02 0.0
4.510001e+04 1.456662e+01 0.0
4.490001e+04 1.456802e+01 0.0
4.500001e+04 1.456816e+01 0.0
4.520001e+04 1.456718e+01 0.0
4.530000e+04 1.456904e+01 0.0
4.540000e+04 1.457032e+01 0.0
4.550000e+04 1.457168e+01 0.0
4.560000e+04 1.457322e+01 0.0
4.570000e+04 1.457493e+01 0.0
4.580000e+04 1.457679e+01 0.0
4.590000e+04 1.457877e+01 0.0
4.600000e+04 1.458085e+01 0.0
4.615000e+04 1.192968e+02 0.0
4.610000e+04 1.458312e+01 0.0
4.630001e+04 1.458827e+01 0.0
4.620001e+04 1.458631e+01 0.0
4.640001e+04 1.458833e+01 0.0
4.650001e+04 1.459023e+01 0.0
4.660000e+04 1.459313e+01 0.0
4.674999e+04 1.193947e+02 0.0
4.670000e+04 1.459512e+01 0.0
4.684999e+04 1.194076e+02 0.0
4.680000e+04 1.459681e+01 0.0
4.690000e+04 1.459829e+01 0.0
4.700000e+04 1.459954e+01 0.0
4.710000e+04 1.460054e+01 0.0
4.720000e+04 1.460127e+01 0.0
4.730000e+04 1.460170e+01 0.0
4.740000e+04 1.460192e+01 0.0
4.755000e+04 -1.031421e+02 0.0
4.770001e+04 1.459862e+01 0.0
4.750001e+04 1.460268e+01 0.0
4.760001e+04 1.460180e+01 0.0
4.780001e+04 1.459689e+01 0.0
4.790000e+04 1.459577e+01 0.0
4.800000e+04 1.459333e+01 0.0
4.810000e+04 1.459020e+01 0.0
4.820000e+04 1.458646e+01 0.0
4.830000e+04 1.458210e+01 0.0
4.840000e+04 1.457710e+01 0.0
4.850000e+04 1.457142e+01 0.0
4.860000e+04 1.456505e+01 0.0
4.870000e+04 1.455807e+01 0.0
4.885000e+04 -1.027509e+02 0.0
4.890001e+04 1.454236e+01 0.0
4.880001e+04 1.455123e+01 0.0
4.900001e+04 1.453076e+01 0.0
4.910002e+04 1.452023e+01 0.0
4.920014e+04 1.451490e+01 0.0
4.930087e+04 1.457138e+01 0.0
CELLS 23976 95904
3  0 1 2
3  3 4 5
3  6 7 8
3  9 10 11
3  12 13 14
3  15 16 17
3  18 19 20
3  21 22 23
3  24 25 26
3  27 28 29
3  30 31 32
3  33 34 35
3  36 37 38
3  39 40 41
3  42 43 44
3  45 46 47
3  48 49 50
3  51 52 53
3  54 55 56
3  57 58 59
3  60 61 62
3  63 64 65
3  66 67 68
3  69 70 71
3  72 73 74
3  75 76 77
3  78 79 80
3  81 82 83
3  84 85 86
3  87 88 89
3  90 91 92
3  93 94 95
3  96 97 98
3  99 100 101
3  102 103 104
3  105 106 107
3  108 109 110
3  111 112 113
3  114 115 116
3  117 118 119
3  120 121 122
3  123 124 125
3  126 127 128
3  129 130 131
3  132 133 134
3  135 136 137
3  138 139 140
3  141 142 143
3  144 145 146
3  147 148 149
3  150 151 152
3  153 154 155
3  156 157 158
3  159 160 161
3  162 163 164
3  165 166 167
3  168 169 170
3  171 172 173
3  174 175 176
3  177 178 179
3  180 178 177
3  181 180 182
3  183 181 184
3  185 183 186
3  187 185 188
3  189 190 191
3  192 189 193
3  194 192 195
3  196 194 197
3  198 196 199
3  200 198 201
3  202 203 204
3  205 203 202
3  206 205 207
3  208 206 209
3  210 208 211
3  212 210 213
3  214 215 216
3  217 214 218
3  219 217 220
3  221 219 222
3  223 221 224
3  225 223 226
3  227 225 228
3  229 230 231
3  232 230 229
3  233 232 234
3  235 233 236
3  237 235 238
3  239 237 240
3  241 239 242
3  243 241 244
3  245 246 247
3  248 245 249
3  250 248 251
3  252 250 253
3  254 252 255
3  256 254 257
3  258 256 259
3  260 258 261
3  262 260 263
3  264 265 266
3  267 264 268
3  269 267 270
3  271 269 272
3  273 271 274
3  275 273 276
3  277 275 278
3  279 277 280
3  281 279 282
3  283 284 285
3  286 283 287
3  288 286 289
3  290 288 291
3  292 290 293
3  294 292 295
3  296 294 297
3  298 296 299
3  300 298 301
3  302 300 303
3  304 302 305
3  306 304 307
3  308 309 310
3  311 309 308
3  312 311 313
3  314 312 315
3  316 314 317
3  318 316 319
3  320 318 321
3  322 320 323
3  324 322 325
3  326 324 327
3  328 326 329
3  330 328 331
3  332 330 333
3  334 332 335
3  336 334 337
3  338 339 340
3  341 339 338
3  342 341 343
3  344 342 345
3  346 344 347
3  348 346 349
3  350 348 351
3  352 350 353
3  354 352 355
3  356 354 357
3  358 356 359
3  360 358 361
3  362 360 363
3  364 362 365
3  366 364 367
3  368 366 369
3  370 368 371
3  372 370 373
3  374 372 375
3  376 374 377
3  378 376 379
3  380 378 381
3  382 380 383
3  384 382 385
3  386 384 387
3  388 386 389
3  390 388 391
3  392 390 393
3  394 392 395
3  396 394 397
3  398 396 399
3  400 398 401
3  402 400 403
3  404 402 405
3  406 404 407
3  408 406 409
3  410 408 411
3  412 413 414
3  415 416 340
3  417 418 310
3  413 410 414
3  284 419 285
3  420 421 422
3  265 423 266
3  424 420 425
3  246 426 247
3  427 428 231
3  429 430 431
3  215 432 216
3  433 434 204
3  435 436 437
3  190 438 191
3  439 436 435
3  440 441 179
3  442 443 444
3  445 446 441
3  447 448 446
3  449 450 443
3  451 452 437
3  453 454 448
3  455 450 449
3  456 457 454
3  458 455 459
3  460 461 457
3  462 458 463
3  464 174 461
3  465 462 466
3  467 468 176
3  469 470 468
3  471 472 473
3  474 475 470
3  476 471 477
3  478 479 475
3  480 476 481
3  482 483 479
3  484 480 485
3  486 487 483
3  488 484 489
3  490 491 487
3  492 488 493
3  494 495 491
3  496 492 497
3  498 499 495
3  500 496 501
3  502 503 499
3  504 500 505
3  506 507 503
3  508 504 509
3  510 511 507
3  512 508 513
3  514 515 511
3  516 517 515
3  518 519 520
3  521 522 517
3  523 518 524
3  525 526 522
3  527 528 526
3  529 530 531
3  532 171 528
3  533 529 534
3  535 536 173
3  537 533 538
3  539 540 536
3  541 537 542
3  543 544 540
3  545 541 546
3  547 548 544
3  549 545 550
3  551 552 548
3  553 549 554
3  555 556 552
3  557 553 558
3  559 560 556
3  561 557 562
3  563 564 560
3  565 561 566
3  567 568 564
3  569 570 568
3  571 572 573
3  574 575 570
3  576 577 575
3  578 579 577
3  580 581 582
3  583 584 579
3  585 580 586
3  587 588 584
3  589 590 588
3  591 168 590
3  592 593 594
3  595 596 170
3  597 592 598
3  599 600 596
3  601 597 602
3  603 604 600
3  605 601 606
3  607 608 604
3  609 605 610
3  611 612 608
3  613 614 612
3  615 616 617
3  618 619 614
3  620 615 621
3  622 623 619
3  624 625 623
3  626 627 628
3  629 630 625
3  631 632 630
3  633 634 635
3  636 637 632
3  638 633 639
3  640 641 637
3  642 638 643
3  644 645 641
3  646 647 645
3  648 649 650
3  651 652 647
3  653 648 654
3  655 656 652
3  657 653 658
3  659 165 656
3  660 657 661
3  662 663 167
3  664 660 665
3  666 667 663
3  668 664 669
3  670 671 667
3  672 668 673
3  674 675 671
3  676 672 677
3  678 679 675
3  680 681 679
3  682 683 681
3  684 685 686
3  687 688 683
3  689 684 690
3  691 692 688
3  693 694 692
3  695 696 697
3  698 699 694
3  700 695 701
3  702 703 699
3  704 700 705
3  706 707 703
3  708 704 709
3  710 711 707
3  712 713 711
3  714 715 716
3  717 718 713
3  719 714 720
3  721 162 718
3  722 719 723
3  724 725 164
3  726 722 727
3  728 729 725
3  730 731 729
3  732 733 734
3  735 736 731
3  737 732 738
3  739 740 736
3  741 737 742
3  743 744 740
3  745 741 746
3  747 748 744
3  749 745 750
3  751 752 748
3  753 749 754
3  755 756 752
3  757 753 758
3  759 760 756
3  761 757 762
3  763 764 760
3  765 766 764
3  767 768 766
3  769 770 771
3  772 773 768
3  774 769 775
3  776 777 773
3  778 159 777
3  779 780 781
3  782 783 161
3  784 785 783
3  786 787 788
3  789 790 785
3  791 786 792
3  793 794 790
3  795 791 796
3  797 798 794
3  799 800 798
3  801 802 803
3  804 805 800
3  806 801 807
3  808 809 805
3  810 806 811
3  812 813 809
3  814 815 813
3  816 817 818
3  819 820 815
3  821 816 822
3  823 824 820
3  825 821 826
3  827 828 824
3  829 830 828
3  831 832 833
3  834 835 830
3  836 837 835
3  838 839 840
3  841 156 837
3  842 838 843
3  844 845 158
3  846 842 847
3  848 849 845
3  850 846 851
3  852 853 849
3  854 855 853
3  856 857 858
3  859 860 855
3  861 856 862
3  863 864 860
3  865 866 864
3  867 868 869
3  870 871 866
3  872 867 873
3  874 875 871
3  876 872 877
3  878 879 875
3  880 876 881
3  882 883 879
3  884 885 883
3  886 887 888
3  889 890 885
3  891 886 892
3  893 894 890
3  895 891 896
3  897 898 894
3  899 895 900
3  901 153 898
3  902 899 903
3  904 905 155
3  906 907 905
3  908 909 907
3  910 911 909
3  912 913 911
3  914 915 913
3  916 917 915
3  918 919 920
3  921 922 917
3  923 918 924
3  925 926 922
3  927 928 926
3  929 930 928
3  931 932 930
3  933 934 932
3  935 936 934
3  937 938 936
3  939 150 938
3  940 941 152
3  942 943 941
3  944 945 943
3  946 947 945
3  948 949 947
3  950 951 949
3  952 953 951
3  954 955 953
3  956 957 955
3  958 959 957
3  960 961 962
3  963 964 959
3  965 960 966
3  967 968 964
3  969 970 968
3  971 972 970
3  973 974 972
3  975 147 974
3  976 977 149
3  978 979 977
3  980 981 979
3  982 983 981
3  984 985 983
3  986 987 985
3  988 989 987
3  990 991 989
3  992 993 991
3  994 995 993
3  996 997 995
3  998 999 997
3  1000 1001 999
3  1002 1003 1004
3  1005 1006 1001
3  1007 144 1006
3  1008 1009 146
3  1010 1011 1009
3  1012 1013 1011
3  1014 1015 1013
3  1016 1017 1015
3  1018 1019 1017
3  1020 1021 1019
3  1022 1023 1021
3  1024 1025 1023
3  1026 1027 1025
3  1028 1029 1027
3  1030 1031 1029
3  1032 1033 1031
3  1034 1035 1033
3  1036 1037 1035
3  1038 141 1037
3  1039 1040 1041
3  1042 1043 143
3  1044 1039 1045
3  1046 1047 1043
3  1048 1049 1047
3  1050 1051 1049
3  1052 1053 1051
3  1054 1055 1053
3  1056 1057 1055
3  1058 1059 1057
3  1060 1061 1059
3  1062 1063 1061
3  1064 1065 1063
3  1066 1067 1065
3  1068 1069 1067
3  1070 1071 1069
3  1072 138 1071
3  1073 1074 140
3  1075 1076 1074
3  1077 1078 1076
3  1079 1080 1081
3  1082 1083 1078
3  1084 1079 1085
3  1086 1087 1083
3  1088 1089 1087
3  1090 1091 1089
3  1092 1093 1091
3  1094 1095 1093
3  1096 1097 1095
3  1098 1099 1097
3  1100 1101 1099
3  1102 1103 1101
3  1104 1105 1103
3  1106 135 1105
3  1107 1108 137
3  1109 1110 1108
3  1111 1112 1110
3  1113 1114 1112
3  1115 1116 1114
3  1117 1118 1119
3  1120 1121 1116
3  1122 1117 1123
3  1124 1125 1121
3  1126 1127 1125
3  1128 1129 1127
3  1130 1131 1129
3  1132 1133 1131
3  1134 1135 1133
3  1136 1137 1135
3  1138 1139 1137
3  1140 132 1139
3  1141 1142 134
3  1143 1144 1142
3  1145 1146 1144
3  1147 1148 1146
3  1149 1150 1148
3  1151 1152 1150
3  1153 1154 1152
3  1155 1156 1154
3  1157 1158 1159
3  1160 1161 1156
3  1162 1157 1163
3  1164 1165 1161
3  1166 1167 1165
3  1168 1169 1167
3  1170 1171 1169
3  1172 1173 1171
3  1174 129 1173
3  1175 1176 131
3  1177 1178 1176
3  1179 1180 1178
3  1181 1182 1180
3  1183 1184 1182
3  1185 1186 1184
3  1187 1188 1186
3  1189 1190 1188
3  1191 1192 1190
3  1193 1194 1192
3  1195 1196 1197
3  1198 1199 1194
3  1200 1195 1201
3  1202 1203 1199
3  1204 1205 1203
3  1206 1207 1205
3  1208 126 1207
3  1209 1210 128
3  1211 1212 1210
3  1213 1214 1212
3  1215 1216 1214
3  1217 1218 1216
3  1219 1220 1218
3  1221 1222 1220
3  1223 1224 1222
3  1225 1226 1224
3  1227 1228 1226
3  1229 1230 1228
3  1231 1232 1230
3  1233 1234 1235
3  1236 1237 1232
3  1238 1233 1239
3  1240 123 1237
3  1241 1242 125
3  1243 1244 1242
3  1245 1246 1244
3  1247 1248 1246
3  1249 1250 1248
3  1251 1252 1250
3  1253 1254 1252
3  1255 1256 1254
3  1257 1258 1256
3  1259 1260 1258
3  1261 1262 1260
3  1263 1264 1262
3  1265 1266 1264
3  1267 1268 1266
3  1269 120 1268
3  1270 1271 1272
3  1273 1274 122
3  1275 1270 1276
3  1277 1278 1274
3  1279 1280 1278
3  1281 1282 1280
3  1283 1284 1282
3  1285 1286 1284
3  1287 1288 1286
3  1289 1290 1288
3  1291 1292 1290
3  1293 1294 1292
3  1295 1296 1294
3  1297 1298 1296
3  1299 1300 1298
3  1301 117 1300
3  1302 1303 119
3  1304 1305 1303
3  1306 1307 1308
3  1309 1310 1305
3  1311 1306 1312
3  1313 1314 1310
3  1315 1316 1314
3  1317 1318 1316
3  1319 1320 1318
3  1321 1322 1320
3  1323 1324 1322
3  1325 1326 1324
3  1327 1328 1326
3  1329 1330 1328
3  1331 1332 1330
3  1333 114 1332
3  1334 1335 116
3  1336 1337 1335
3  1338 1339 1337
3  1340 1341 1339
3  1342 1343 1341
3  1344 1345 1343
3  1346 1347 1348
3  1349 1350 1345
3  1351 1352 1350
3  1353 1354 1352
3  1355 1356 1354
3  1357 1358 1356
3  1359 1360 1358
3  1361 1362 1360
3  1363 1364 1362
3  1365 111 1364
3  1366 1367 113
3  1368 1369 1367
3  1370 1371 1369
3  1372 1373 1371
3  1374 1375 1373
3  1376 1377 1375
3  1378 1379 1377
3  1380 1381 1382
3  1383 1384 1379
3  1385 1386 1384
3  1387 1388 1386
3  1389 1390 1388
3  1391 1392 1390
3  1393 1394 1392
3  1395 108 1394
3  1396 1397 110
3  1398 1399 1397
3  1400 1401 1399
3  1402 1403 1401
3  1404 1405 1403
3  1406 1407 1405
3  1408 1409 1407
3  1410 1411 1409
3  1412 1413 1414
3  1415 1416 1411
3  1417 1412 1418
3  1419 1420 1416
3  1421 1422 1420
3  1423 1424 1422
3  1425 105 1424
3  1426 1427 107
3  1428 1429 1427
3  1430 1431 1429
3  1432 1433 1431
3  1434 1435 1433
3  1436 1437 1435
3  1438 1439 1437
3  1440 1441 1439
3  1442 1443 1441
3  1444 1445 1443
3  1446 1447 1445
3  1448 1449 1450
3  1451 1452 1447
3  1453 1448 1454
3  1455 1456 1452
3  1457 102 1456
3  1458 1459 104
3  1460 1461 1459
3  1462 1463 1461
3  1464 1465 1463
3  1466 1467 1465
3  1468 1469 1467
3  1470 1471 1469
3  1472 1473 1471
3  1474 1475 1473
3  1476 1477 1475
3  1478 1479 1477
3  1480 1481 1479
3  1482 1483 1481
3  1484 1485 1486
3  1487 99 1483
3  1488 1484 1489
3  1490 1491 101
3  1492 1493 1491
3  1494 1495 1493
3  1496 1497 1495
3  1498 1499 1497
3  1500 1501 1499
3  1502 1503 1501
3  1504 1505 1503
3  1506 1507 1505
3  1508 1509 1507
3  1510 1511 1509
3  1512 1513 1511
3  1514 1515 1513
3  1516 96 1515
3  1517 1518 98
3  1519 1520 1521
3  1522 1523 1518
3  1524 1519 1525
3  1526 1527 1523
3  1528 1529 1527
3  1530 1531 1529
3  1532 1533 1531
3  1534 1535 1533
3  1536 1537 1535
3  1538 1539 1537
3  1540 1541 1539
3  1542 1543 1541
3  1544 1545 1543
3  1546 93 1545
3  1547 1548 95
3  1549 1550 1548
3  1551 1552 1550
3  1553 1554 1555
3  1556 1557 1552
3  1558 1553 1559
3  1560 1561 1557
3  1562 1563 1561
3  1564 1565 1563
3  1566 1567 1565
3  1568 1569 1567
3  1570 1571 1569
3  1572 1573 1571
3  1574 1575 1573
3  1576 1577 1575
3  1578 90 1577
3  1579 1580 92
3  1581 1582 1580
3  1583 1584 1582
3  1585 1586 1584
3  1587 1588 1586
3  1589 1590 1591
3  1592 1593 1588
3  1594 1589 1595
3  1596 1597 1593
3  1598 1599 1597
3  1600 1601 1599
3  1602 1603 1601
3  1604 1605 1603
3  1606 1607 1605
3  1608 87 1607
3  1609 1610 89
3  1611 1612 1610
3  1613 1614 1612
3  1615 1616 1614
3  1617 1618 1616
3  1619 1620 1618
3  1621 1622 1620
3  1623 1624 1625
3  1626 1627 1622
3  1628 1623 1629
3  1630 1631 1627
3  1632 1633 1631
3  1634 1635 1633
3  1636 1637 1635
3  1638 84 1637
3  1639 1640 86
3  1641 1642 1640
3  1643 1644 1642
3  1645 1646 1644
3  1647 1648 1646
3  1649 1650 1648
3  1651 1652 1650
3  1653 1654 1652
3  1655 1656 1654
3  1657 1658 1656
3  1659 1660 1661
3  1662 1663 1658
3  1664 1665 1663
3  1666 81 1665
3  1667 1668 83
3  1669 1670 1668
3  1671 1672 1670
3  1673 1674 1672
3  1675 1676 1674
3  1677 1678 1676
3  1679 1680 1678
3  1681 1682 1680
3  1683 1684 1682
3  1685 1686 1684
3  1687 1688 1686
3  1689 1690 1688
3  1691 1692 1693
3  1694 1695 1690
3  1696 1691 1697
3  1698 78 1695
3  1699 1700 80
3  1701 1702 1700
3  1703 1704 1702
3  1705 1706 1704
3  1707 1708 1706
3  1709 1710 1708
3  1711 1712 1710
3  1713 1714 1712
3  1715 1716 1714
3  1717 1718 1716
3  1719 1720 1718
3  1721 1722 1720
3  1723 75 1722
3  1724 1725 1726
3  1727 1728 77
3  1729 1724 1730
3  1731 1732 1728
3  1733 1734 1732
3  1735 1736 1734
3  1737 1738 1736
3  1739 1740 1738
3  1741 1742 1740
3  1743 1744 1742
3  1745 1746 1744
3  1747 1748 1746
3  1749 1750 1748
3  1751 1752 1750
3  1753 72 1752
3  1754 1755 74
3  1756 1757 1758
3  1759 1760 1755
3  1761 1756 1762
3  1763 1764 1760
3  1765 1766 1764
3  1767 1768 1766
3  1769 1770 1768
3  1771 1772 1770
3  1773 1774 1772
3  1775 1776 1774
3  1777 1778 1776
3  1779 1780 1778
3  1781 1782 1780
3  1783 69 1782
3  1784 1785 71
3  1786 1787 1785
3  1788 1789 1787
3  1790 1791 1792
3  1793 1794 1789
3  1795 1790 1796
3  1797 1798 1794
3  1799 1800 1798
3  1801 1802 1800
3  1803 1804 1802
3  1805 1806 1804
3  1807 1808 1806
3  1809 1810 1808
3  1811 1812 1810
3  1813 66 1812
3  1814 1815 68
3  1816 1817 1815
3  1818 1819 1817
3  1820 1821 1819
3  1822 1823 1821
3  1824 1825 1826
3  1827 1828 1823
3  1829 1824 1830
3  1831 1832 1828
3  1833 1834 1832
3  1835 1836 1834
3  1837 1838 1836
3  1839 1840 1838
3  1841 63 1840
3  1842 1843 65
3  1844 1845 1843
3  1846 1847 1845
3  1848 1849 1847
3  1850 1851 1849
3  1852 1853 1851
3  1854 1855 1853
3  1856 1857 1855
3  1858 1859 1860
3  1861 1862 1857
3  1863 1858 1864
3  1865 1866 1862
3  1867 1868 1866
3  1869 1870 1868
3  1871 60 1870
3  1872 1873 62
3  1874 1875 1873
3  1876 1877 1875
3  1878 1879 1877
3  1880 1881 1879
3  1882 1883 1881
3  1884 1885 1883
3  1886 1887 1885
3  1888 1889 1887
3  1890 1891 1892
3  1893 1894 1889
3  1895 1890 1896
3  1897 1898 1894
3  1899 1900 1898
3  1901 57 1900
3  1902 1903 59
3  1904 1905 1903
3  1906 1907 1905
3  1908 1909 1907
3  1910 1911 1909
3  1912 1913 1911
3  1914 1915 1913
3  1916 1917 1915
3  1918 1919 1917
3  1920 1921 1919
3  1922 1923 1921
3  1924 1925 1926
3  1927 54 1923
3  1928 1924 1929
3  1930 1931 56
3  1932 1933 1931
3  1934 1935 1933
3  1936 1937 1935
3  1938 1939 1937
3  1940 1941 1939
3  1942 1943 1941
3  1944 1945 1943
3  1946 1947 1945
3  1948 1949 1947
3  1950 1951 1949
3  1952 1953 1951
3  1954 51 1953
3  1955 1956 1957
3  1958 1959 53
3  1960 1955 1961
3  1962 1963 1959
3  1964 1965 1963
3  1966 1967 1965
3  1968 1969 1967
3  1970 1971 1969
3  1972 1973 1971
3  1974 1975 1973
3  1976 1977 1975
3  1978 1979 1977
3  1980 1981 1979
3  1982 1983 1981
3  1984 48 1983
3  1985 1986 50
3  1987 1988 1989
3  1990 1991 1986
3  1992 1987 1993
3  1994 1995 1991
3  1996 1997 1995
3  1998 1999 1997
3  2000 2001 1999
3  2002 2003 2001
3  2004 2005 2003
3  2006 2007 2005
3  2008 2009 2007
3  2010 2011 2009
3  2012 45 2011
3  2013 2014 47
3  2015 2016 2014
3  2017 2018 2016
3  2019 2020 2021
3  2022 2023 2018
3  2024 2019 2025
3  2026 2027 2023
3  2028 2029 2027
3  2030 2031 2029
3  2032 2033 2031
3  2034 2035 2033
3  2036 2037 2035
3  2038 2039 2037
3  2040 42 2039
3  2041 2042 44
3  2043 2044 2042
3  2045 2046 2044
3  2047 2048 2046
3  2049 2050 2048
3  2051 2052 2050
3  2053 2054 2055
3  2056 2057 2052
3  2058 2053 2059
3  2060 2061 2057
3  2062 2063 2061
3  2064 2065 2063
3  2066 2067 2065
3  2068 2069 2067
3  2070 39 2069
3  2071 2072 41
3  2073 2074 2072
3  2075 2076 2074
3  2077 2078 2076
3  2079 2080 2078
3  2081 2082 2080
3  2083 2084 2082
3  2085 2086 2087
3  2088 2089 2084
3  2090 2085 2091
3  2092 2093 2089
3  2094 2095 2093
3  2096 2097 2095
3  2098 36 2097
3  2099 2100 38
3  2101 2102 2100
3  2103 2104 2102
3  2105 2106 2104
3  2107 2108 2106
3  2109 2110 2108
3  2111 2112 2110
3  2113 2114 2112
3  2115 2116 2114
3  2117 2118 2119
3  2120 2121 2116
3  2122 2117 2123
3  2124 2125 2121
3  2126 33 2125
3  2127 2128 35
3  2129 2130 2128
3  2131 2132 2130
3  2133 2134 2132
3  2135 2136 2134
3  2137 2138 2136
3  2139 2140 2138
3  2141 2142 2140
3  2143 2144 2142
3  2145 2146 2144
3  2147 2148 2146
3  2149 2150 2151
3  2152 2153 2148
3  2154 2149 2155
3  2156 30 2153
3  2157 2158 32
3  2159 2160 2158
3  2161 2162 2160
3  2163 2164 2162
3  2165 2166 2164
3  2167 2168 2166
3  2169 2170 2168
3  2171 2172 2170
3  2173 2174 2172
3  2175 2176 2174
3  2177 2178 2176
3  2179 27 2178
3  2180 2181 2182
3  2183 2184 29
3  2185 2180 2186
3  2187 2188 2184
3  2189 2190 2188
3  2191 2192 2190
3  2193 2194 2192
3  2195 2196 2194
3  2197 2198 2196
3  2199 2200 2198
3  2201 2202 2200
3  2203 2204 2202
3  2205 2206 2204
3  2207 24 2206
3  2208 2209 26
3  2210 2211 2212
3  2213 2214 2209
3  2215 2210 2216
3  2217 2218 2214
3  2219 2220 2218
3  2221 2222 2220
3  2223 2224 2222
3  2225 2226 2224
3  2227 2228 2226
3  2229 2230 2228
3  2231 2232 2230
3  2233 2234 2232
3  2235 21 2234
3  2236 2237 23
3  2238 2239 2237
3  2240 2241 2239
3  2242 2243 2244
3  2245 2246 2241
3  2247 2242 2248
3  2249 2250 2246
3  2251 2252 2250
3  2253 2254 2252
3  2255 2256 2254
3  2257 2258 2256
3  2259 2260 2258
3  2261 2262 2260
3  2263 18 2262
3  2264 2265 20
3  2266 2267 2265
3  2268 2269 2267
3  2270 2271 2269
3  2272 2273 2271
3  2274 2275 2276
3  2277 2278 2273
3  2279 2274 2280
3  2281 2282 2278
3  2283 2284 2282
3  2285 2286 2284
3  2287 2288 2286
3  2289 2290 2288
3  2291 15 2290
3  2292 2293 17
3  2294 2295 2293
3  2296 2297 2295
3  2298 2299 2297
3  2300 2301 2299
3  2302 2303 2301
3  2304 2305 2306
3  2307 2308 2303
3  2309 2304 2310
3  2311 2312 2308
3  2313 2314 2312
3  2315 2316 2314
3  2317 2318 2316
3  2319 12 2318
3  2320 2321 14
3  2322 2323 2321
3  2324 2325 2323
3  2326 2327 2325
3  2328 2329 2327
3  2330 2331 2329
3  2332 2333 2331
3  2334 2335 2333
3  2336 2337 2338
3  2339 2340 2335
3  2341 2336 2342
3  2343 2344 2340
3  2345 2346 2344
3  2347 9 2346
3  2348 2349 11
3  2350 2351 2349
3  2352 2353 2351
3  2354 2355 2353
3  2356 2357 2355
3  2358 2359 2357
3  2360 2361 2359
3  2362 2363 2361
3  2364 2365 2363
3  2366 2367 2365
3  2368 2369 2370
3  2371 2372 2367
3  2373 2368 2374
3  2375 6 2372
3  2376 2377 8
3  2378 2379 2377
3  2380 2381 2379
3  2382 2383 2381
3  2384 2385 2383
3  2386 2387 2385
3  2388 2389 2387
3  2390 2391 2389
3  2392 2393 2391
3  2394 2395 2393
3  2396 2397 2395
3  2398 2399 2400
3  2401 3 2397
3  2402 2398 2403
3  2404 2405 5
3  2406 2407 2405
3  2408 2409 2407
3  2410 2411 2409
3  2412 2413 2411
3  2414 2415 2413
3  2416 2417 2415
3  2418 2419 2417
3  2420 2421 2419
3  2422 2423 2421
3  2424 2425 2423
3  2426 0 2425
3  2427 2428 2429
3  2430 2431 2
3  2432 2427 2433
3  2434 2435 2431
3  2436 2437 2435
3  2438 2439 2437
3  2440 2441 2439
3  2442 2443 2441
3  2444 2445 2443
3  2446 2447 2445
3  2448 2449 2447
3  2450 2451 2452
3  2453 2454 2455
3  2456 2453 2457
3  2458 2459 2460
3  2461 2458 2462
3  2463 2464 2465
3  2466 2463 2467
3  2468 2469 2470
3  2471 2468 2472
3  2473 2474 2475
3  2476 2473 2477
3  2478 2479 2480
3  2481 2478 2482
3  2483 2484 2485
3  2486 2483 2487
3  2488 2489 2490
3  2491 2488 2492
3  2493 2494 2495
3  2496 2493 2497
3  2498 2499 2500
3  2501 2498 2502
3  2503 2504 2505
3  2506 2503 2507
3  2508 2509 2510
3  2511 2508 2512
3  2513 2514 2515
3  2516 2517 2518
3  2519 2520 2521
3  2522 2523 2519
3  2524 2525 2521
3  2526 2527 2523
3  2528 2529 2525
3  2530 2527 2526
3  2531 2527 2530
3  2532 2533 2534
3  2535 2536 2537
3  2448 2535 2538
3  2539 2540 2541
3  2509 2542 2510
3  2504 2543 2505
3  2499 2544 2500
3  2494 2545 2495
3  2479 2546 2480
3  2474 2547 2475
3  2469 2548 2470
3  2459 2549 2460
3  2550 2551 2552
3  2428 2553 2429
3  2399 2554 2400
3  2337 2555 2338
3  2305 2556 2306
3  2275 2557 2276
3  2243 2558 2244
3  2181 2559 2182
3  2118 2560 2119
3  2086 2561 2087
3  2054 2562 2055
3  2020 2563 2021
3  1988 2564 1989
3  1956 2565 1957
3  1925 2566 1926
3  1891 2567 1892
3  1859 2568 1860
3  1757 2569 1758
3  1725 2570 1726
3  1692 2571 1693
3  2572 2573 2574
3  1624 2575 1625
3  1590 2576 1591
3  1554 2577 1555
3  1520 2578 1521
3  1449 2579 1450
3  1413 2580 1414
3  2581 2582 2583
3  2584 2585 2586
3  1307 2587 1308
3  1271 2588 1272
3  1196 2589 1197
3  1118 2590 1119
3  1080 2591 1081
3  2592 2593 2594
3  961 2595 962
3  180 177 182
3  181 182 184
3  887 2596 888
3  183 184 186
3  185 186 188
3  187 188 438
3  189 191 193
3  868 2597 869
3  192 193 195
3  194 195 197
3  196 197 199
3  857 2598 858
3  198 199 201
3  200 201 434
3  433 200 434
3  205 202 207
3  839 2599 840
3  206 207 209
3  208 209 211
3  832 2600 833
3  210 211 213
3  212 213 432
3  214 216 218
3  817 2601 818
3  217 218 220
3  219 220 222
3  221 222 224
3  223 224 226
3  802 2602 803
3  225 226 228
3  227 228 428
3  427 227 428
3  787 2603 788
3  232 229 234
3  233 234 236
3  780 2604 781
3  235 236 238
3  237 238 240
3  239 240 242
3  241 242 244
3  2605 2606 2607
3  243 244 426
3  245 247 249
3  248 249 251
3  250 251 253
3  252 253 255
3  254 255 257
3  256 257 259
3  258 259 261
3  733 2608 734
3  260 261 263
3  262 263 423
3  264 266 268
3  267 268 270
3  715 2609 716
3  269 270 272
3  271 272 274
3  273 274 276
3  275 276 278
3  277 278 280
3  696 2610 697
3  279 280 282
3  281 282 419
3  283 285 287
3  685 2611 686
3  2612 2613 2611
3  286 287 289
3  288 289 291
3  290 291 293
3  292 293 295
3  294 295 297
3  296 297 299
3  298 299 301
3  300 301 303
3  302 303 305
3  649 2614 650
3  304 305 307
3  306 307 418
3  417 306 418
3  634 2615 635
3  311 308 313
3  312 313 315
3  627 2616 628
3  314 315 317
3  316 317 319
3  318 319 321
3  616 2617 617
3  320 321 323
3  322 323 325
3  324 325 327
3  326 327 329
3  328 329 331
3  330 331 333
3  593 2618 594
3  332 333 335
3  2619 2620 2618
3  334 335 337
3  336 337 416
3  415 336 416
3  581 2621 582
3  2622 2623 2621
3  341 338 343
3  342 343 345
3  572 2624 573
3  344 345 347
3  346 347 349
3  348 349 351
3  350 351 353
3  352 353 355
3  354 355 357
3  356 357 359
3  358 359 361
3  360 361 363
3  362 363 365
3  364 365 367
3  530 2625 531
3  366 367 369
3  368 369 371
3  370 371 373
3  519 2626 520
3  372 373 375
3  374 375 377
3  376 377 379
3  378 379 381
3  380 381 383
3  382 383 385
3  384 385 387
3  386 387 389
3  388 389 391
3  390 391 393
3  392 393 395
3  394 395 397
3  472 2627 473
3  396 397 399
3  398 399 401
3  430 2628 431
3  400 401 403
3  402 403 405
3  404 405 407
3  406 407 409
3  408 409 411
3  421 413 422
3  2629 2630 2631
3  410 411 414
3  2629 420 2632
3  415 340 339
3  417 310 309
3  2629 408 410
3  410 421 2629
3  284 281 419
3  420 422 425
3  2633 404 406
3  265 262 423
3  424 2632 420
3  2634 402 404
3  424 425 2628
3  246 243 426
3  770 2607 771
3  451 437 436
3  430 424 2628
3  430 2635 424
3  427 231 230
3  429 431 452
3  215 212 432
3  433 204 203
3  2636 2637 2638
3  444 443 450
3  190 187 438
3  439 435 444
3  440 179 178
3  2639 2640 2641
3  445 441 440
3  2642 2641 2643
3  447 446 445
3  2644 2643 2645
3  2636 436 439
3  444 450 439
3  451 429 452
3  460 464 461
3  453 448 447
3  2646 2645 2647
3  2636 439 450
3  455 449 459
3  2648 429 451
3  456 454 453
3  2649 2647 2650
3  458 459 463
3  2651 400 402
3  460 457 456
3  919 2650 920
3  2652 398 400
3  462 463 466
3  464 175 174
3  2653 396 398
3  465 2654 462
3  465 466 2627
3  467 176 175
3  2655 2656 2657
3  2658 394 396
3  472 465 2627
3  469 468 467
3  2659 2657 2660
3  2661 392 394
3  471 473 477
3  474 470 469
3  2662 2660 2663
3  2664 390 392
3  476 477 481
3  478 475 474
3  2665 2663 2666
3  2667 388 390
3  480 481 485
3  482 479 478
3  2668 2666 2669
3  2670 386 388
3  484 485 489
3  486 483 482
3  2671 2669 2672
3  2673 384 386
3  488 489 493
3  490 487 486
3  2674 2672 2675
3  2676 382 384
3  492 493 497
3  494 491 490
3  2677 2675 2678
3  2679 380 382
3  496 497 501
3  498 495 494
3  2680 2678 2681
3  2682 378 380
3  500 501 505
3  502 499 498
3  2683 2681 2684
3  2685 376 378
3  504 505 509
3  506 503 502
3  2686 2684 2687
3  2688 374 376
3  508 509 513
3  510 507 506
3  2689 2687 2690
3  2691 372 374
3  512 513 2626
3  514 511 510
3  2692 2690 2693
3  2694 370 372
3  519 2695 512
3  519 512 2626
3  516 515 514
3  2696 2693 2697
3  2698 368 370
3  518 2699 519
3  518 520 524
3  521 517 516
3  2700 2697 2701
3  2702 366 368
3  523 524 2625
3  527 532 528
3  525 522 521
3  2703 2701 2595
3  2704 364 366
3  530 523 2625
3  527 526 525
3  2705 362 364
3  529 531 534
3  532 172 171
3  2706 360 362
3  533 534 538
3  535 173 172
3  2707 2708 2709
3  2710 358 360
3  537 538 542
3  539 536 535
3  2711 2709 2712
3  2713 356 358
3  541 542 546
3  543 540 539
3  2714 2712 2715
3  2716 354 356
3  545 546 550
3  547 544 543
3  2717 2715 2718
3  2719 352 354
3  549 550 554
3  551 548 547
3  2720 2718 2721
3  2722 350 352
3  553 554 558
3  555 552 551
3  2723 2721 2724
3  2725 348 350
3  557 558 562
3  559 556 555
3  2726 2724 2727
3  2728 346 348
3  561 562 566
3  563 560 559
3  2729 2727 2730
3  2731 344 346
3  565 566 2624
3  567 564 563
3  2732 2730 2733
3  2734 342 344
3  572 2735 565
3  572 565 2624
3  569 568 567
3  2736 2733 2737
3  2738 341 342
3  571 2739 572
3  571 573 2623
3  574 570 569
3  2740 2737 2741
3  2742 339 341
3  2622 571 2623
3  576 575 574
3  2743 2741 2744
3  2745 415 339
3  581 2622 2621
3  578 577 576
3  2746 2744 2747
3  2748 336 415
3  580 582 586
3  589 591 590
3  583 579 578
3  2749 2747 2750
3  2751 334 336
3  585 586 2620
3  587 584 583
3  2752 2750 2593
3  2753 332 334
3  2619 585 2620
3  589 588 587
3  2754 330 332
3  593 2619 2618
3  591 169 168
3  1003 2594 1004
3  2755 328 330
3  592 594 598
3  595 170 169
3  2756 2757 2758
3  2759 326 328
3  597 598 602
3  599 596 595
3  2760 2758 2761
3  2762 324 326
3  601 602 606
3  603 600 599
3  2763 2761 2764
3  2765 322 324
3  605 606 610
3  607 604 603
3  2766 2764 2767
3  2768 320 322
3  609 610 2617
3  611 608 607
3  2769 2767 2770
3  2771 318 320
3  616 2772 609
3  616 609 2617
3  613 612 611
3  2773 2770 2774
3  2775 316 318
3  615 2776 616
3  615 617 621
3  618 614 613
3  2777 2774 2778
3  2779 314 316
3  620 621 2616
3  622 619 618
3  2780 2778 2781
3  2782 312 314
3  627 620 2616
3  624 623 622
3  2783 2781 2784
3  2785 311 312
3  626 628 2615
3  629 625 624
3  2786 2784 2787
3  2788 309 311
3  634 626 2615
3  631 630 629
3  2789 2787 2790
3  2791 417 309
3  633 635 639
3  636 632 631
3  2792 2790 2793
3  2794 306 417
3  638 639 643
3  640 637 636
3  2795 2793 2796
3  2797 304 306
3  642 643 2614
3  644 641 640
3  2798 2796 2799
3  2800 302 304
3  649 642 2614
3  646 645 644
3  2801 2799 2802
3  2803 300 302
3  648 650 654
3  655 659 656
3  651 647 646
3  2804 2802 2805
3  2806 298 300
3  653 654 658
3  655 652 651
3  1040 2805 1041
3  2807 296 298
3  657 658 661
3  659 166 165
3  2808 294 296
3  660 2809 657
3  660 661 665
3  662 167 166
3  2810 2811 2812
3  2813 292 294
3  664 2814 660
3  664 665 669
3  666 663 662
3  2815 2812 2816
3  2817 290 292
3  668 669 673
3  670 667 666
3  2818 2816 2819
3  2820 288 290
3  672 673 677
3  674 671 670
3  2821 2819 2822
3  2823 286 288
3  676 677 2613
3  678 675 674
3  2824 2822 2825
3  2826 283 286
3  2612 676 2613
3  680 679 678
3  2827 2825 2828
3  2829 284 283
3  685 2612 2611
3  682 681 680
3  2830 2828 2831
3  2832 281 284
3  684 686 690
3  687 683 682
3  2833 2831 2834
3  2835 279 281
3  689 690 2610
3  691 688 687
3  2836 2834 2837
3  2838 277 279
3  696 689 2610
3  693 692 691
3  2839 2837 2840
3  2841 275 277
3  695 697 701
3  698 694 693
3  2842 2840 2843
3  2844 273 275
3  700 701 705
3  702 699 698
3  2845 2843 2846
3  2847 271 273
3  704 705 709
3  706 703 702
3  2848 2846 2849
3  2850 269 271
3  708 709 2609
3  710 707 706
3  2851 2849 2852
3  2853 267 269
3  715 2854 708
3  715 708 2609
3  717 721 718
3  712 711 710
3  2855 2852 2591
3  2856 264 267
3  714 2857 715
3  714 716 720
3  717 713 712
3  2858 265 264
3  719 720 723
3  721 163 162
3  2859 262 265
3  722 723 727
3  724 164 163
3  2860 2861 2862
3  2863 260 262
3  726 727 2608
3  728 725 724
3  2864 2862 2865
3  2866 258 260
3  733 726 2608
3  730 729 728
3  2867 2865 2868
3  2869 256 258
3  732 734 738
3  735 731 730
3  2870 2868 2871
3  2872 254 256
3  737 738 742
3  739 736 735
3  2873 2871 2874
3  2875 252 254
3  741 742 746
3  743 740 739
3  2876 2874 2877
3  2878 250 252
3  745 746 750
3  747 744 743
3  2879 2877 2880
3  2881 248 250
3  749 750 754
3  751 748 747
3  2882 2880 2883
3  2884 245 248
3  753 754 758
3  755 752 751
3  2885 2883 2886
3  2887 246 245
3  757 758 762
3  759 756 755
3  2888 2886 2889
3  761 762 2606
3  2890 243 246
3  763 760 759
3  2891 2889 2892
3  2893 241 243
3  2605 2894 761
3  2605 761 2606
3  765 764 763
3  2895 2892 2896
3  2897 239 241
3  770 2898 2605
3  770 2605 2607
3  767 766 765
3  2899 2896 2900
3  2901 237 239
3  769 771 775
3  772 768 767
3  2902 2900 2590
3  2903 235 237
3  774 775 2604
3  778 160 159
3  776 773 772
3  2904 233 235
3  780 774 2604
3  778 777 776
3  2905 232 233
3  779 781 2603
3  782 161 160
3  2906 2907 2908
3  2909 230 232
3  787 779 2603
3  784 783 782
3  2910 2908 2911
3  2912 427 230
3  786 788 792
3  789 785 784
3  2913 2911 2914
3  2915 227 427
3  791 792 796
3  793 790 789
3  2916 2914 2917
3  2918 225 227
3  795 796 2602
3  797 794 793
3  2919 2917 2920
3  2921 223 225
3  802 795 2602
3  799 798 797
3  2922 2920 2923
3  2924 221 223
3  801 803 807
3  804 800 799
3  2925 2923 2926
3  2927 219 221
3  806 807 811
3  808 805 804
3  2928 2926 2929
3  2930 217 219
3  810 811 2601
3  812 809 808
3  2931 2929 2932
3  2933 214 217
3  817 2934 810
3  817 810 2601
3  814 813 812
3  2935 2932 2936
3  2937 215 214
3  816 2938 817
3  816 818 822
3  819 815 814
3  2939 2936 2940
3  2941 212 215
3  821 822 826
3  823 820 819
3  2942 2940 2943
3  2944 210 212
3  825 826 2600
3  827 824 823
3  2945 2943 2946
3  2947 208 210
3  832 825 2600
3  829 828 827
3  2948 2946 2949
3  2950 206 208
3  831 833 2599
3  834 830 829
3  2951 2949 2952
3  2953 205 206
3  839 831 2599
3  841 157 156
3  836 835 834
3  1158 2952 1159
3  2954 203 205
3  838 840 843
3  841 837 836
3  2955 433 203
3  842 843 847
3  844 158 157
3  2956 2957 2958
3  2959 200 433
3  846 847 851
3  848 845 844
3  2960 2958 2961
3  2962 198 200
3  850 851 2598
3  852 849 848
3  2963 2961 2964
3  2965 196 198
3  857 850 2598
3  854 853 852
3  2966 2964 2967
3  2968 194 196
3  856 858 862
3  859 855 854
3  2969 2967 2970
3  2971 192 194
3  861 862 2597
3  863 860 859
3  2972 2970 2973
3  2974 189 192
3  868 2975 861
3  868 861 2597
3  865 864 863
3  2976 2973 2977
3  2978 190 189
3  867 2979 868
3  867 869 873
3  870 866 865
3  2980 2977 2981
3  2982 187 190
3  872 873 877
3  874 871 870
3  2983 2981 2984
3  2985 185 187
3  876 877 881
3  878 875 874
3  2986 2984 2987
3  2988 183 185
3  880 881 2596
3  882 879 878
3  2989 2987 2990
3  2991 181 183
3  887 880 2596
3  884 883 882
3  2992 2990 2993
3  2994 180 181
3  886 888 892
3  889 885 884
3  2995 2993 2996
3  2997 178 180
3  891 892 896
3  897 901 898
3  893 890 889
3  2998 2996 2589
3  2999 440 178
3  895 896 900
3  897 894 893
3  899 900 903
3  3000 445 440
3  901 154 153
3  902 903 2640
3  3001 447 445
3  904 155 154
3  3002 3003 3004
3  2639 902 2640
3  3005 453 447
3  906 905 904
3  3006 3004 3007
3  2642 2639 2641
3  3008 456 453
3  908 907 906
3  3009 3007 3010
3  2644 2642 2643
3  3011 460 456
3  910 909 908
3  3012 3010 3013
3  2646 2644 2645
3  3014 464 460
3  2646 3015 2644
3  912 911 910
3  3016 3013 3017
3  3018 175 464
3  2649 3019 2646
3  2649 2646 2647
3  914 913 912
3  3020 3017 3021
3  3022 467 175
3  919 2649 2650
3  916 915 914
3  3023 3021 3024
3  918 920 924
3  3025 469 467
3  921 917 916
3  3026 3024 3027
3  923 924 2656
3  3028 474 469
3  925 922 921
3  3029 3027 3030
3  2655 923 2656
3  3031 478 474
3  927 926 925
3  3032 3030 3033
3  2659 2655 2657
3  3034 482 478
3  929 928 927
3  3035 3033 3036
3  2662 2659 2660
3  3037 486 482
3  931 930 929
3  3038 3036 3039
3  2665 2662 2663
3  3040 490 486
3  933 932 931
3  3041 3039 3042
3  2668 2665 2666
3  3043 494 490
3  937 939 938
3  935 934 933
3  3044 3042 3045
3  2671 2668 2669
3  3046 498 494
3  937 936 935
3  1234 3045 1235
3  2674 2671 2672
3  3047 502 498
3  939 151 150
3  2677 2674 2675
3  3048 506 502
3  940 152 151
3  3049 3050 3051
3  2680 2677 2678
3  3052 510 506
3  942 941 940
3  3053 3051 3054
3  2683 2680 2681
3  3055 514 510
3  2683 3056 2680
3  944 943 942
3  3057 3054 3058
3  2686 2683 2684
3  3059 516 514
3  2686 3060 2683
3  946 945 944
3  3061 3058 3062
3  2689 2686 2687
3  3063 521 516
3  948 947 946
3  3064 3062 3065
3  2692 2689 2690
3  3066 525 521
3  950 949 948
3  3067 3065 3068
3  2696 2692 2693
3  3069 527 525
3  952 951 950
3  3070 3068 3071
3  2700 2696 2697
3  3072 532 527
3  954 953 952
3  3073 3071 3074
3  3075 172 532
3  2703 2700 2701
3  956 955 954
3  3076 3074 3077
3  3078 535 172
3  961 2703 2595
3  958 957 956
3  3079 3077 3080
3  960 962 966
3  3081 539 535
3  963 959 958
3  3082 3080 3083
3  965 966 2708
3  3084 543 539
3  967 964 963
3  3085 3083 3086
3  2707 965 2708
3  3087 547 543
3  969 968 967
3  3088 3086 3089
3  2711 2707 2709
3  3090 551 547
3  973 975 974
3  971 970 969
3  3091 3089 2588
3  2714 2711 2712
3  3092 555 551
3  973 972 971
3  2717 2714 2715
3  3093 559 555
3  975 148 147
3  2720 2717 2718
3  3094 563 559
3  976 149 148
3  3095 3096 3097
3  2723 2720 2721
3  3098 567 563
3  2723 3099 2720
3  978 977 976
3  3100 3097 3101
3  2726 2723 2724
3  3102 569 567
3  2726 3103 2723
3  980 979 978
3  3104 3101 3105
3  2729 2726 2727
3  3106 574 569
3  982 981 980
3  3107 3105 3108
3  2732 2729 2730
3  3109 576 574
3  984 983 982
3  3110 3108 3111
3  2736 2732 2733
3  3112 578 576
3  986 985 984
3  3113 3111 3114
3  2740 2736 2737
3  3115 583 578
3  988 987 986
3  3116 3114 3117
3  2743 2740 2741
3  3118 587 583
3  990 989 988
3  3119 3117 3120
3  2746 2743 2744
3  3121 589 587
3  992 991 990
3  3122 3120 3123
3  2749 2746 2747
3  3124 591 589
3  994 993 992
3  3125 3123 3126
3  2752 2749 2750
3  3127 169 591
3  996 995 994
3  3128 3126 3129
3  3130 595 169
3  2592 2752 2593
3  998 997 996
3  3131 3129 3132
3  1003 2592 2594
3  3133 599 595
3  1005 1007 1006
3  1000 999 998
3  3134 3132 2587
3  1002 1004 2757
3  3135 603 599
3  1005 1001 1000
3  2756 1002 2757
3  3136 607 603
3  1007 145 144
3  2760 2756 2758
3  3137 611 607
3  2760 3138 2756
3  1008 146 145
3  3139 3140 3141
3  2763 2760 2761
3  3142 613 611
3  2763 3143 2760
3  1010 1009 1008
3  3144 3141 3145
3  2766 2763 2764
3  3146 618 613
3  1012 1011 1010
3  3147 3145 3148
3  2769 2766 2767
3  3149 622 618
3  1014 1013 1012
3  3150 3148 3151
3  2773 2769 2770
3  3152 624 622
3  1016 1015 1014
3  3153 3151 3154
3  2777 2773 2774
3  3155 629 624
3  1018 1017 1016
3  3156 3154 3157
3  2780 2777 2778
3  3158 631 629
3  1020 1019 1018
3  3159 3157 3160
3  2783 2780 2781
3  3161 636 631
3  1022 1021 1020
3  3162 3160 3163
3  2786 2783 2784
3  3164 640 636
3  1024 1023 1022
3  3165 3163 3166
3  2789 2786 2787
3  3167 644 640
3  1026 1025 1024
3  3168 3166 3169
3  2792 2789 2790
3  3170 646 644
3  1028 1027 1026
3  3171 3169 3172
3  2795 2792 2793
3  3173 651 646
3  1030 1029 1028
3  3174 3172 3175
3  2798 2795 2796
3  3176 655 651
3  1036 1038 1037
3  1032 1031 1030
3  3177 3175 3178
3  2801 2798 2799
3  3179 659 655
3  1034 1033 1032
3  3180 3178 2585
3  3181 166 659
3  2804 3182 2801
3  2804 2801 2802
3  1036 1035 1034
3  3183 662 166
3  1040 3184 2804
3  1040 2804 2805
3  1038 142 141
3  1347 2586 1348
3  1039 1041 1045
3  3185 666 662
3  1042 143 142
3  3186 3187 3188
3  1044 1045 2811
3  3189 670 666
3  1046 1043 1042
3  3190 3188 3191
3  2810 1044 2811
3  3192 674 670
3  1048 1047 1046
3  3193 3191 3194
3  2815 2810 2812
3  3195 678 674
3  1050 1049 1048
3  3196 3194 3197
3  2818 2815 2816
3  3198 680 678
3  1052 1051 1050
3  3199 3197 3200
3  2821 2818 2819
3  3201 682 680
3  1054 1053 1052
3  3202 3200 3203
3  2824 2821 2822
3  3204 687 682
3  1056 1055 1054
3  3205 3203 3206
3  2827 2824 2825
3  3207 691 687
3  1058 1057 1056
3  3208 3206 3209
3  2830 2827 2828
3  3210 693 691
3  1060 1059 1058
3  3211 3209 3212
3  2833 2830 2831
3  3213 698 693
3  1062 1061 1060
3  3214 3212 3215
3  2836 2833 2834
3  3216 702 698
3  1064 1063 1062
3  3217 3215 3218
3  2839 2836 2837
3  3219 706 702
3  1070 1072 1071
3  1066 1065 1064
3  3220 3218 3221
3  2842 2839 2840
3  3222 710 706
3  2842 3223 2839
3  1068 1067 1066
3  3224 3221 2582
3  2845 2842 2843
3  3225 712 710
3  2845 3226 2842
3  1070 1069 1068
3  2848 2845 2846
3  3227 717 712
3  1072 139 138
3  1381 2583 1382
3  2851 2848 2849
3  3228 721 717
3  1073 140 139
3  3229 3230 3231
3  3232 163 721
3  2855 2851 2852
3  1075 1074 1073
3  3233 3231 3234
3  3235 724 163
3  1080 2855 2591
3  1077 1076 1075
3  3236 3234 3237
3  1079 1081 1085
3  3238 728 724
3  1082 1078 1077
3  3239 3237 3240
3  1084 1085 2861
3  3241 730 728
3  1086 1083 1082
3  3242 3240 3243
3  2860 1084 2861
3  3244 735 730
3  1088 1087 1086
3  3245 3243 3246
3  2864 2860 2862
3  3247 739 735
3  1090 1089 1088
3  3248 3246 3249
3  2867 2864 2865
3  3250 743 739
3  1092 1091 1090
3  3251 3249 3252
3  2870 2867 2868
3  3253 747 743
3  1094 1093 1092
3  3254 3252 3255
3  2873 2870 2871
3  3256 751 747
3  1096 1095 1094
3  3257 3255 3258
3  2876 2873 2874
3  3259 755 751
3  1098 1097 1096
3  3260 3258 3261
3  2879 2876 2877
3  3262 759 755
3  2879 3263 2876
3  1100 1099 1098
3  3264 3261 3265
3  2882 2879 2880
3  3266 763 759
3  2882 3267 2879
3  1104 1106 1105
3  1102 1101 1100
3  3268 3265 2580
3  2885 2882 2883
3  3269 765 763
3  1104 1103 1102
3  2888 2885 2886
3  3270 767 765
3  1106 136 135
3  2891 2888 2889
3  3271 772 767
3  1107 137 136
3  3272 3273 3274
3  2895 2891 2892
3  3275 776 772
3  1109 1108 1107
3  3276 3274 3277
3  2899 2895 2896
3  3278 778 776
3  1111 1110 1109
3  3279 3277 3280
3  3281 160 778
3  2902 2899 2900
3  1113 1112 1111
3  3282 3280 3283
3  3284 782 160
3  1118 2902 2590
3  1115 1114 1113
3  3285 3283 3286
3  1117 1119 1123
3  3287 784 782
3  1120 1116 1115
3  3288 3286 3289
3  1122 1123 2907
3  3290 789 784
3  1124 1121 1120
3  3291 3289 3292
3  2906 1122 2907
3  3293 793 789
3  1126 1125 1124
3  3294 3292 3295
3  2910 2906 2908
3  3296 797 793
3  1128 1127 1126
3  3297 3295 3298
3  2913 2910 2911
3  3299 799 797
3  1130 1129 1128
3  3300 3298 3301
3  2916 2913 2914
3  3302 804 799
3  2916 3303 2913
3  1132 1131 1130
3  3304 3301 3305
3  2919 2916 2917
3  3306 808 804
3  2919 3307 2916
3  1134 1133 1132
3  3308 3305 3309
3  2922 2919 2920
3  3310 812 808
3  1138 1140 1139
3  1136 1135 1134
3  3311 3309 2579
3  2925 2922 2923
3  3312 814 812
3  1138 1137 1136
3  2928 2925 2926
3  3313 819 814
3  1140 133 132
3  2931 2928 2929
3  3314 823 819
3  1141 134 133
3  3315 3316 3317
3  2935 2931 2932
3  3318 827 823
3  1143 1142 1141
3  3319 3317 3320
3  2939 2935 2936
3  3321 829 827
3  1145 1144 1143
3  3322 3320 3323
3  2942 2939 2940
3  3324 834 829
3  1147 1146 1145
3  3325 3323 3326
3  2945 2942 2943
3  3327 836 834
3  1149 1148 1147
3  3328 3326 3329
3  2948 2945 2946
3  3330 841 836
3  1151 1150 1149
3  3331 3329 3332
3  3333 157 841
3  2951 2948 2949
3  1153 1152 1151
3  3334 3332 3335
3  3336 844 157
3  1158 2951 2952
3  1155 1154 1153
3  3337 3335 3338
3  1157 1159 1163
3  3339 848 844
3  1160 1156 1155
3  3340 3338 3341
3  1162 1163 2957
3  3342 852 848
3  1162 3343 1157
3  1164 1161 1160
3  3344 3341 3345
3  2956 1162 2957
3  3346 854 852
3  2956 3347 1162
3  1166 1165 1164
3  3348 3345 3349
3  2960 2956 2958
3  3350 859 854
3  1168 1167 1166
3  3351 3349 3352
3  2963 2960 2961
3  3353 863 859
3  1172 1174 1173
3  1170 1169 1168
3  3354 3352 3355
3  2966 2963 2964
3  3356 865 863
3  1172 1171 1170
3  1485 3355 1486
3  2969 2966 2967
3  3357 870 865
3  1174 130 129
3  2972 2969 2970
3  3358 874 870
3  1175 131 130
3  3359 3360 3361
3  2976 2972 2973
3  3362 878 874
3  1177 1176 1175
3  3363 3361 3364
3  2980 2976 2977
3  3365 882 878
3  1179 1178 1177
3  3366 3364 3367
3  2983 2980 2981
3  3368 884 882
3  1181 1180 1179
3  3369 3367 3370
3  2986 2983 2984
3  3371 889 884
3  1183 1182 1181
3  3372 3370 3373
3  2989 2986 2987
3  3374 893 889
3  1185 1184 1183
3  3375 3373 3376
3  2992 2989 2990
3  3377 897 893
3  1187 1186 1185
3  3378 3376 3379
3  2995 2992 2993
3  3380 901 897
3  1189 1188 1187
3  3381 3379 3382
3  3383 154 901
3  2998 3384 2995
3  2998 2995 2996
3  1191 1190 1189
3  3385 3382 3386
3  3387 904 154
3  1196 3388 2998
3  1196 2998 2589
3  1193 1192 1191
3  3389 3386 3390
3  1195 1197 1201
3  3391 906 904
3  1198 1194 1193
3  3392 3390 3393
3  1200 1201 3003
3  3394 908 906
3  1202 1199 1198
3  3395 3393 3396
3  3002 1200 3003
3  3397 910 908
3  1206 1208 1207
3  1204 1203 1202
3  3398 3396 2578
3  3006 3002 3004
3  3399 912 910
3  1206 1205 1204
3  3009 3006 3007
3  3400 914 912
3  1208 127 126
3  3012 3009 3010
3  3401 916 914
3  1209 128 127
3  3402 3403 3404
3  3016 3012 3013
3  3405 921 916
3  1211 1210 1209
3  3406 3404 3407
3  3020 3016 3017
3  3408 925 921
3  1213 1212 1211
3  3409 3407 3410
3  3023 3020 3021
3  3411 927 925
3  1215 1214 1213
3  3412 3410 3413
3  3026 3023 3024
3  3414 929 927
3  1217 1216 1215
3  3415 3413 3416
3  3029 3026 3027
3  3417 931 929
3  1219 1218 1217
3  3418 3416 3419
3  3032 3029 3030
3  3420 933 931
3  1221 1220 1219
3  3421 3419 3422
3  3035 3032 3033
3  3423 935 933
3  3035 3424 3032
3  1223 1222 1221
3  3425 3422 3426
3  3038 3035 3036
3  3427 937 935
3  3038 3428 3035
3  1225 1224 1223
3  3429 3426 3430
3  3041 3038 3039
3  3431 939 937
3  1227 1226 1225
3  3432 3430 3433
3  3434 151 939
3  3044 3041 3042
3  1229 1228 1227
3  3435 3433 3436
3  3437 940 151
3  1234 3044 3045
3  1236 1240 1237
3  1231 1230 1229
3  3438 3436 2577
3  1233 1235 1239
3  3439 942 940
3  1236 1232 1231
3  1238 1239 3050
3  3440 944 942
3  1240 124 123
3  3049 1238 3050
3  3441 946 944
3  1241 125 124
3  3442 3443 3444
3  3053 3049 3051
3  3445 948 946
3  1243 1242 1241
3  3446 3444 3447
3  3057 3053 3054
3  3448 950 948
3  1245 1244 1243
3  3449 3447 3450
3  3061 3057 3058
3  3451 952 950
3  1247 1246 1245
3  3452 3450 3453
3  3064 3061 3062
3  3454 954 952
3  1249 1248 1247
3  3455 3453 3456
3  3067 3064 3065
3  3457 956 954
3  1251 1250 1249
3  3458 3456 3459
3  3070 3067 3068
3  3460 958 956
3  1253 1252 1251
3  3461 3459 3462
3  3073 3070 3071
3  3463 963 958
3  1255 1254 1253
3  3464 3462 3465
3  3076 3073 3074
3  3466 967 963
3  3076 3467 3073
3  1257 1256 1255
3  3468 3465 3469
3  3079 3076 3077
3  3470 969 967
3  3079 3471 3076
3  1259 1258 1257
3  3472 3469 3473
3  3082 3079 3080
3  3474 971 969
3  1261 1260 1259
3  3475 3473 3476
3  3085 3082 3083
3  3477 973 971
3  1263 1262 1261
3  3478 3476 3479
3  3088 3085 3086
3  3480 975 973
3  3481 3479 2576
3  1265 1264 1263
3  3482 148 975
3  3091 3088 3089
3  1269 121 120
3  1267 1266 1265
3  3483 976 148
3  1271 3091 2588
3  1269 1268 1267
3  1270 1272 1276
3  3484 978 976
3  1273 122 121
3  3485 3486 3487
3  1275 1276 3096
3  3488 980 978
3  1277 1274 1273
3  3489 3487 3490
3  3095 1275 3096
3  3491 982 980
3  1279 1278 1277
3  3492 3490 3493
3  3100 3095 3097
3  3494 984 982
3  1281 1280 1279
3  3495 3493 3496
3  3104 3100 3101
3  3497 986 984
3  1283 1282 1281
3  3498 3496 3499
3  3107 3104 3105
3  3500 988 986
3  1285 1284 1283
3  3501 3499 3502
3  3110 3107 3108
3  3503 990 988
3  1287 1286 1285
3  3504 3502 3505
3  3113 3110 3111
3  3506 992 990
3  3113 3507 3110
3  1289 1288 1287
3  3508 3505 3509
3  3116 3113 3114
3  3510 994 992
3  3116 3511 3113
3  1291 1290 1289
3  3512 3509 3513
3  3119 3116 3117
3  3514 996 994
3  1293 1292 1291
3  3515 3513 3516
3  3122 3119 3120
3  3517 998 996
3  1299 1301 1300
3  1295 1294 1293
3  3518 3516 3519
3  3125 3122 3123
3  3520 1000 998
3  1297 1296 1295
3  3521 3519 2575
3  3128 3125 3126
3  3522 1005 1000
3  1299 1298 1297
3  3131 3128 3129
3  3523 1007 1005
3  1301 118 117
3  3524 145 1007
3  3134 3131 3132
3  1302 119 118
3  3525 3526 3527
3  3528 1008 145
3  1307 3134 2587
3  1304 1303 1302
3  3529 3527 3530
3  1306 1308 1312
3  3531 1010 1008
3  1309 1305 1304
3  3532 3530 3533
3  1311 1312 3140
3  3534 1012 1010
3  1313 1310 1309
3  3535 3533 3536
3  3139 1311 3140
3  3537 1014 1012
3  1315 1314 1313
3  3538 3536 3539
3  3144 3139 3141
3  3540 1016 1014
3  1317 1316 1315
3  3541 3539 3542
3  3147 3144 3145
3  3543 1018 1016
3  1319 1318 1317
3  3544 3542 3545
3  3150 3147 3148
3  3546 1020 1018
3  1321 1320 1319
3  3547 3545 3548
3  3153 3150 3151
3  3549 1022 1020
3  1323 1322 1321
3  3550 3548 3551
3  3156 3153 3154
3  3552 1024 1022
3  1325 1324 1323
3  3553 3551 3554
3  3159 3156 3157
3  3555 1026 1024
3  1331 1333 1332
3  1327 1326 1325
3  3556 3554 3557
3  3162 3159 3160
3  3558 1028 1026
3  1329 1328 1327
3  3559 3557 2573
3  3165 3162 3163
3  3560 1030 1028
3  1331 1330 1329
3  3168 3165 3166
3  3561 1032 1030
3  1333 115 114
3  1660 2574 1661
3  3171 3168 3169
3  3562 1034 1032
3  1334 116 115
3  3563 3564 3565
3  3174 3171 3172
3  3566 1036 1034
3  1336 1335 1334
3  3567 3565 3568
3  3177 3174 3175
3  3569 1038 1036
3  1338 1337 1336
3  3570 3568 3571
3  3180 3177 3178
3  3572 142 1038
3  1340 1339 1338
3  3573 3571 3574
3  3575 1042 142
3  2584 3576 3180
3  2584 3180 2585
3  1342 1341 1340
3  3577 3574 3578
3  1347 2584 2586
3  3579 1046 1042
3  1347 3580 2584
3  1344 1343 1342
3  3581 3578 3582
3  1346 1348 3187
3  3583 1048 1046
3  1349 1345 1344
3  3584 3582 3585
3  3186 1346 3187
3  3586 1050 1048
3  1351 1350 1349
3  3587 3585 3588
3  3190 3186 3188
3  3589 1052 1050
3  1353 1352 1351
3  3590 3588 3591
3  3193 3190 3191
3  3592 1054 1052
3  1355 1354 1353
3  3593 3591 3594
3  3196 3193 3194
3  3595 1056 1054
3  1357 1356 1355
3  3596 3594 3597
3  3199 3196 3197
3  3598 1058 1056
3  1359 1358 1357
3  3599 3597 3600
3  3202 3199 3200
3  3601 1060 1058
3  1363 1365 1364
3  1361 1360 1359
3  3602 3600 2571
3  3205 3202 3203
3  3603 1062 1060
3  1363 1362 1361
3  3208 3205 3206
3  3604 1064 1062
3  1365 112 111
3  3211 3208 3209
3  3605 1066 1064
3  1366 113 112
3  3606 3607 3608
3  3214 3211 3212
3  3609 1068 1066
3  1368 1367 1366
3  3610 3608 3611
3  3217 3214 3215
3  3612 1070 1068
3  1370 1369 1368
3  3613 3611 3614
3  3220 3217 3218
3  3615 1072 1070
3  1372 1371 1370
3  3616 3614 3617
3  3224 3220 3221
3  3618 139 1072
3  1374 1373 1372
3  3619 3617 3620
3  3621 1073 139
3  2581 3224 2582
3  1376 1375 1374
3  3622 3620 3623
3  1381 2581 2583
3  3624 1075 1073
3  1378 1377 1376
3  3625 3623 3626
3  1380 1382 3230
3  3627 1077 1075
3  1383 1379 1378
3  3628 3626 3629
3  3229 1380 3230
3  3630 1082 1077
3  1385 1384 1383
3  3631 3629 3632
3  3233 3229 3231
3  3633 1086 1082
3  1387 1386 1385
3  3634 3632 3635
3  3236 3233 3234
3  3636 1088 1086
3  1389 1388 1387
3  3637 3635 3638
3  3239 3236 3237
3  3639 1090 1088
3  1393 1395 1394
3  1391 1390 1389
3  3640 3638 2570
3  3242 3239 3240
3  3641 1092 1090
3  1393 1392 1391
3  3245 3242 3243
3  3642 1094 1092
3  1395 109 108
3  3248 3245 3246
3  3643 1096 1094
3  1396 110 109
3  3644 3645 3646
3  3251 3248 3249
3  3647 1098 1096
3  1398 1397 1396
3  3648 3646 3649
3  3254 3251 3252
3  3650 1100 1098
3  1400 1399 1398
3  3651 3649 3652
3  3257 3254 3255
3  3653 1102 1100
3  3257 3654 3254
3  1402 1401 1400
3  3655 3652 3656
3  3260 3257 3258
3  3657 1104 1102
3  3260 3658 3257
3  1404 1403 1402
3  3659 3656 3660
3  3264 3260 3261
3  3661 1106 1104
3  1406 1405 1404
3  3662 3660 3663
3  3664 136 1106
3  3268 3264 3265
3  1408 1407 1406
3  3665 3663 3666
3  3667 1107 136
3  1413 3268 2580
3  1410 1409 1408
3  3668 3666 3669
3  1412 1414 1418
3  3670 1109 1107
3  1415 1411 1410
3  3671 3669 3672
3  1417 1418 3273
3  3673 1111 1109
3  1419 1416 1415
3  3674 3672 3675
3  3272 1417 3273
3  3676 1113 1111
3  1423 1425 1424
3  1421 1420 1419
3  3677 3675 2569
3  3276 3272 3274
3  3678 1115 1113
3  1423 1422 1421
3  3279 3276 3277
3  3679 1120 1115
3  1425 106 105
3  3282 3279 3280
3  3680 1124 1120
3  1426 107 106
3  3681 3682 3683
3  3285 3282 3283
3  3684 1126 1124
3  1428 1427 1426
3  3685 3683 3686
3  3288 3285 3286
3  3687 1128 1126
3  1430 1429 1428
3  3688 3686 3689
3  3291 3288 3289
3  3690 1130 1128
3  1432 1431 1430
3  3691 3689 3692
3  3294 3291 3292
3  3693 1132 1130
3  1434 1433 1432
3  3694 3692 3695
3  3297 3294 3295
3  3696 1134 1132
3  1436 1435 1434
3  3697 3695 3698
3  3300 3297 3298
3  3699 1136 1134
3  1438 1437 1436
3  3700 3698 3701
3  3304 3300 3301
3  3702 1138 1136
3  1440 1439 1438
3  3703 3701 3704
3  3308 3304 3305
3  3705 1140 1138
3  1442 1441 1440
3  3706 3704 3707
3  3708 133 1140
3  3311 3308 3309
3  1444 1443 1442
3  3709 3707 3710
3  3711 1141 133
3  1449 3311 2579
3  1446 1445 1444
3  3712 3710 3713
3  1448 1450 1454
3  3714 1143 1141
3  1455 1457 1456
3  1451 1447 1446
3  3715 3713 3716
3  1453 1454 3316
3  3717 1145 1143
3  1455 1452 1451
3  1791 3716 1792
3  3315 1453 3316
3  3718 1147 1145
3  1457 103 102
3  3319 3315 3317
3  3719 1149 1147
3  1458 104 103
3  3720 3721 3722
3  3322 3319 3320
3  3723 1151 1149
3  1460 1459 1458
3  3724 3722 3725
3  3325 3322 3323
3  3726 1153 1151
3  1462 1461 1460
3  3727 3725 3728
3  3328 3325 3326
3  3729 1155 1153
3  1464 1463 1462
3  3730 3728 3731
3  3331 3328 3329
3  3732 1160 1155
3  3331 3733 3328
3  1466 1465 1464
3  3734 3731 3735
3  3334 3331 3332
3  3736 1164 1160
3  3334 3737 3331
3  1468 1467 1466
3  3738 3735 3739
3  3337 3334 3335
3  3740 1166 1164
3  1470 1469 1468
3  3741 3739 3742
3  3340 3337 3338
3  3743 1168 1166
3  1472 1471 1470
3  3744 3742 3745
3  3344 3340 3341
3  3746 1170 1168
3  1474 1473 1472
3  3747 3745 3748
3  3348 3344 3345
3  3749 1172 1170
3  1476 1475 1474
3  3750 3748 3751
3  3351 3348 3349
3  3752 1174 1172
3  1478 1477 1476
3  3753 3751 3754
3  3755 130 1174
3  3354 3351 3352
3  1482 1487 1483
3  1480 1479 1478
3  3756 3754 3757
3  3758 1175 130
3  1485 3354 3355
3  1482 1481 1480
3  1825 3757 1826
3  1484 1486 1489
3  3759 1177 1175
3  1487 100 99
3  1488 1489 3360
3  3760 1179 1177
3  1490 101 100
3  3761 3762 3763
3  3359 1488 3360
3  3764 1181 1179
3  1492 1491 1490
3  3765 3763 3766
3  3363 3359 3361
3  3767 1183 1181
3  1494 1493 1492
3  3768 3766 3769
3  3366 3363 3364
3  3770 1185 1183
3  1496 1495 1494
3  3771 3769 3772
3  3369 3366 3367
3  3773 1187 1185
3  1498 1497 1496
3  3774 3772 3775
3  3372 3369 3370
3  3776 1189 1187
3  1500 1499 1498
3  3777 3775 3778
3  3375 3372 3373
3  3779 1191 1189
3  3375 3780 3372
3  1502 1501 1500
3  3781 3778 3782
3  3378 3375 3376
3  3783 1193 1191
3  3378 3784 3375
3  1504 1503 1502
3  3785 3782 3786
3  3381 3378 3379
3  3787 1198 1193
3  1506 1505 1504
3  3788 3786 3789
3  3385 3381 3382
3  3790 1202 1198
3  1508 1507 1506
3  3791 3789 3792
3  3389 3385 3386
3  3793 1204 1202
3  1510 1509 1508
3  3794 3792 3795
3  3392 3389 3390
3  3796 1206 1204
3  1514 1516 1515
3  1512 1511 1510
3  3797 3795 2568
3  3395 3392 3393
3  3798 1208 1206
3  1514 1513 1512
3  3799 127 1208
3  3398 3395 3396
3  1516 97 96
3  3800 1209 127
3  1520 3398 2578
3  1517 98 97
3  3801 3802 3803
3  1519 1521 1525
3  3804 1211 1209
3  1522 1518 1517
3  3805 3803 3806
3  1524 1525 3403
3  3807 1213 1211
3  1526 1523 1522
3  3808 3806 3809
3  3402 1524 3403
3  3810 1215 1213
3  1528 1527 1526
3  3811 3809 3812
3  3406 3402 3404
3  3813 1217 1215
3  1530 1529 1528
3  3814 3812 3815
3  3409 3406 3407
3  3816 1219 1217
3  3409 3817 3406
3  1532 1531 1530
3  3818 3815 3819
3  3412 3409 3410
3  3820 1221 1219
3  3412 3821 3409
3  1534 1533 1532
3  3822 3819 3823
3  3415 3412 3413
3  3824 1223 1221
3  1536 1535 1534
3  3825 3823 3826
3  3418 3415 3416
3  3827 1225 1223
3  1538 1537 1536
3  3828 3826 3829
3  3421 3418 3419
3  3830 1227 1225
3  1540 1539 1538
3  3831 3829 3832
3  3425 3421 3422
3  3833 1229 1227
3  1544 1546 1545
3  1542 1541 1540
3  3834 3832 2567
3  3429 3425 3426
3  3835 1231 1229
3  1544 1543 1542
3  3432 3429 3430
3  3836 1236 1231
3  1546 94 93
3  3435 3432 3433
3  3837 1240 1236
3  1547 95 94
3  3838 3839 3840
3  3841 124 1240
3  3438 3435 3436
3  1549 1548 1547
3  3842 3840 3843
3  3844 1241 124
3  1554 3438 2577
3  1551 1550 1549
3  3845 3843 3846
3  1553 1555 1559
3  3847 1243 1241
3  1556 1552 1551
3  3848 3846 3849
3  1558 1559 3443
3  3850 1245 1243
3  1560 1557 1556
3  3851 3849 3852
3  3442 1558 3443
3  3853 1247 1245
3  1562 1561 1560
3  3854 3852 3855
3  3446 3442 3444
3  3856 1249 1247
3  1564 1563 1562
3  3857 3855 3858
3  3449 3446 3447
3  3859 1251 1249
3  1566 1565 1564
3  3860 3858 3861
3  3452 3449 3450
3  3862 1253 1251
3  1568 1567 1566
3  3863 3861 3864
3  3455 3452 3453
3  3865 1255 1253
3  1570 1569 1568
3  3866 3864 3867
3  3458 3455 3456
3  3868 1257 1255
3  1572 1571 1570
3  3869 3867 3870
3  3461 3458 3459
3  3871 1259 1257
3  1576 1578 1577
3  1574 1573 1572
3  3872 3870 2566
3  3464 3461 3462
3  3873 1261 1259
3  1576 1575 1574
3  3468 3464 3465
3  3874 1263 1261
3  1578 91 90
3  3472 3468 3469
3  3875 1265 1263
3  1579 92 91
3  3876 3877 3878
3  3475 3472 3473
3  3879 1267 1265
3  1581 1580 1579
3  3880 3878 3881
3  3478 3475 3476
3  3882 1269 1267
3  1583 1582 1581
3  3883 3881 3884
3  3885 121 1269
3  3481 3478 3479
3  1585 1584 1583
3  3886 3884 3887
3  3888 1273 121
3  1590 3481 2576
3  1587 1586 1585
3  3889 3887 3890
3  1589 1591 1595
3  3891 1277 1273
3  1592 1588 1587
3  3892 3890 3893
3  1594 1595 3486
3  3894 1279 1277
3  1594 3895 1589
3  1596 1593 1592
3  3896 3893 3897
3  3485 1594 3486
3  3898 1281 1279
3  3485 3899 1594
3  1598 1597 1596
3  3900 3897 3901
3  3489 3485 3487
3  3902 1283 1281
3  1600 1599 1598
3  3903 3901 3904
3  3492 3489 3490
3  3905 1285 1283
3  1602 1601 1600
3  3906 3904 3907
3  3495 3492 3493
3  3908 1287 1285
3  1606 1608 1607
3  1604 1603 1602
3  3909 3907 2565
3  3498 3495 3496
3  3910 1289 1287
3  1606 1605 1604
3  3501 3498 3499
3  3911 1291 1289
3  1608 88 87
3  3504 3501 3502
3  3912 1293 1291
3  1609 89 88
3  3913 3914 3915
3  3508 3504 3505
3  3916 1295 1293
3  1611 1610 1609
3  3917 3915 3918
3  3512 3508 3509
3  3919 1297 1295
3  1613 1612 1611
3  3920 3918 3921
3  3515 3512 3513
3  3922 1299 1297
3  1615 1614 1613
3  3923 3921 3924
3  3518 3515 3516
3  3925 1301 1299
3  1617 1616 1615
3  3926 3924 3927
3  3928 118 1301
3  3521 3518 3519
3  1619 1618 1617
3  3929 3927 3930
3  3931 1302 118
3  1624 3521 2575
3  1621 1620 1619
3  3932 3930 3933
3  1623 1625 1629
3  3934 1304 1302
3  1626 1622 1621
3  3935 3933 3936
3  1628 1629 3526
3  3937 1309 1304
3  1630 1627 1626
3  3938 3936 3939
3  3525 1628 3526
3  3940 1313 1309
3  1632 1631 1630
3  3941 3939 3942
3  3529 3525 3527
3  3943 1315 1313
3  1636 1638 1637
3  1634 1633 1632
3  3944 3942 2564
3  3532 3529 3530
3  3945 1317 1315
3  1636 1635 1634
3  3535 3532 3533
3  3946 1319 1317
3  1638 85 84
3  3538 3535 3536
3  3947 1321 1319
3  1639 86 85
3  3948 3949 3950
3  3541 3538 3539
3  3951 1323 1321
3  1641 1640 1639
3  3952 3950 3953
3  3544 3541 3542
3  3954 1325 1323
3  1643 1642 1641
3  3955 3953 3956
3  3547 3544 3545
3  3957 1327 1325
3  1645 1644 1643
3  3958 3956 3959
3  3550 3547 3548
3  3960 1329 1327
3  1647 1646 1645
3  3961 3959 3962
3  3553 3550 3551
3  3963 1331 1329
3  1649 1648 1647
3  3964 3962 3965
3  3556 3553 3554
3  3966 1333 1331
3  1651 1650 1649
3  3967 3965 3968
3  3559 3556 3557
3  3969 115 1333
3  1653 1652 1651
3  3970 3968 3971
3  3972 1334 115
3  2572 3973 3559
3  2572 3559 2573
3  1655 1654 1653
3  3974 3971 3975
3  1660 2572 2574
3  3976 1336 1334
3  1657 1656 1655
3  3977 3975 3978
3  1659 1661 3564
3  3979 1338 1336
3  1659 3980 1660
3  1664 1666 1665
3  1662 1658 1657
3  3981 3978 2563
3  3563 1659 3564
3  3982 1340 1338
3  1664 1663 1662
3  3567 3563 3565
3  3983 1342 1340
3  1666 82 81
3  3570 3567 3568
3  3984 1344 1342
3  1667 83 82
3  3985 3986 3987
3  3573 3570 3571
3  3988 1349 1344
3  1669 1668 1667
3  3989 3987 3990
3  3577 3573 3574
3  3991 1351 1349
3  1671 1670 1669
3  3992 3990 3993
3  3581 3577 3578
3  3994 1353 1351
3  1673 1672 1671
3  3995 3993 3996
3  3584 3581 3582
3  3997 1355 1353
3  1675 1674 1673
3  3998 3996 3999
3  3587 3584 3585
3  4000 1357 1355
3  1677 1676 1675
3  4001 3999 4002
3  3590 3587 3588
3  4003 1359 1357
3  1679 1678 1677
3  4004 4002 4005
3  3593 3590 3591
3  4006 1361 1359
3  1681 1680 1679
3  4007 4005 4008
3  3596 3593 3594
3  4009 1363 1361
3  1683 1682 1681
3  4010 4008 4011
3  3599 3596 3597
3  4012 1365 1363
3  1685 1684 1683
3  4013 4011 4014
3  4015 112 1365
3  3602 3599 3600
3  1687 1686 1685
3  4016 4014 4017
3  4018 1366 112
3  1692 3602 2571
3  1694 1698 1695
3  1689 1688 1687
3  4019 4017 2562
3  1691 1693 1697
3  4020 1368 1366
3  1694 1690 1689
3  1696 1697 3607
3  4021 1370 1368
3  1698 79 78
3  3606 1696 3607
3  4022 1372 1370
3  1699 80 79
3  4023 4024 4025
3  3610 3606 3608
3  4026 1374 1372
3  1701 1700 1699
3  4027 4025 4028
3  3613 3610 3611
3  4029 1376 1374
3  1703 1702 1701
3  4030 4028 4031
3  3616 3613 3614
3  4032 1378 1376
3  1705 1704 1703
3  4033 4031 4034
3  3619 3616 3617
3  4035 1383 1378
3  1707 1706 1705
3  4036 4034 4037
3  3622 3619 3620
3  4038 1385 1383
3  1709 1708 1707
3  4039 4037 4040
3  3625 3622 3623
3  4041 1387 1385
3  1711 1710 1709
3  4042 4040 4043
3  3628 3625 3626
3  4044 1389 1387
3  1713 1712 1711
3  4045 4043 4046
3  3631 3628 3629
3  4047 1391 1389
3  1715 1714 1713
3  4048 4046 4049
3  3634 3631 3632
3  4050 1393 1391
3  3634 4051 3631
3  1717 1716 1715
3  4052 4049 4053
3  3637 3634 3635
3  4054 1395 1393
3  3637 4055 3634
3  1721 1723 1722
3  1719 1718 1717
3  4056 4053 2561
3  4057 109 1395
3  3640 3637 3638
3  1721 1720 1719
3  4058 1396 109
3  1725 3640 2570
3  1723 76 75
3  1724 1726 1730
3  4059 1398 1396
3  1727 77 76
3  4060 4061 4062
3  1729 1730 3645
3  4063 1400 1398
3  1731 1728 1727
3  4064 4062 4065
3  3644 1729 3645
3  4066 1402 1400
3  1733 1732 1731
3  4067 4065 4068
3  3648 3644 3646
3  4069 1404 1402
3  1735 1734 1733
3  4070 4068 4071
3  3651 3648 3649
3  4072 1406 1404
3  1737 1736 1735
3  4073 4071 4074
3  3655 3651 3652
3  4075 1408 1406
3  1739 1738 1737
3  4076 4074 4077
3  3659 3655 3656
3  4078 1410 1408
3  1741 1740 1739
3  4079 4077 4080
3  3662 3659 3660
3  4081 1415 1410
3  1743 1742 1741
3  4082 4080 4083
3  3665 3662 3663
3  4084 1419 1415
3  1745 1744 1743
3  4085 4083 4086
3  3668 3665 3666
3  4087 1421 1419
3  1747 1746 1745
3  4088 4086 4089
3  3671 3668 3669
3  4090 1423 1421
3  1751 1753 1752
3  1749 1748 1747
3  4091 4089 2560
3  3674 3671 3672
3  4092 1425 1423
3  1751 1750 1749
3  4093 106 1425
3  3677 3674 3675
3  1753 73 72
3  4094 1426 106
3  1757 3677 2569
3  1754 74 73
3  4095 4096 4097
3  1756 1758 1762
3  4098 1428 1426
3  1759 1755 1754
3  4099 4097 4100
3  1761 1762 3682
3  4101 1430 1428
3  1763 1760 1759
3  4102 4100 4103
3  3681 1761 3682
3  4104 1432 1430
3  1765 1764 1763
3  4105 4103 4106
3  3685 3681 3683
3  4107 1434 1432
3  1767 1766 1765
3  4108 4106 4109
3  3688 3685 3686
3  4110 1436 1434
3  1769 1768 1767
3  4111 4109 4112
3  3691 3688 3689
3  4113 1438 1436
3  1771 1770 1769
3  4114 4112 4115
3  3694 3691 3692
3  4116 1440 1438
3  1773 1772 1771
3  4117 4115 4118
3  3697 3694 3695
3  4119 1442 1440
3  1775 1774 1773
3  4120 4118 4121
3  3700 3697 3698
3  4122 1444 1442
3  1777 1776 1775
3  4123 4121 4124
3  3703 3700 3701
3  4125 1446 1444
3  1781 1783 1782
3  1779 1778 1777
3  4126 4124 4127
3  3706 3703 3704
3  4128 1451 1446
3  3706 4129 3703
3  1781 1780 1779
3  2150 4127 2151
3  3709 3706 3707
3  4130 1455 1451
3  3709 4131 3706
3  1783 70 69
3  3712 3709 3710
3  4132 1457 1455
3  1784 71 70
3  4133 4134 4135
3  4136 103 1457
3  3715 3712 3713
3  1786 1785 1784
3  4137 4135 4138
3  4139 1458 103
3  1791 3715 3716
3  1788 1787 1786
3  4140 4138 4141
3  1790 1792 1796
3  4142 1460 1458
3  1793 1789 1788
3  4143 4141 4144
3  1795 1796 3721
3  4145 1462 1460
3  1797 1794 1793
3  4146 4144 4147
3  3720 1795 3721
3  4148 1464 1462
3  1799 1798 1797
3  4149 4147 4150
3  3724 3720 3722
3  4151 1466 1464
3  1801 1800 1799
3  4152 4150 4153
3  3727 3724 3725
3  4154 1468 1466
3  1803 1802 1801
3  4155 4153 4156
3  3730 3727 3728
3  4157 1470 1468
3  1805 1804 1803
3  4158 4156 4159
3  3734 3730 3731
3  4160 1472 1470
3  1807 1806 1805
3  4161 4159 4162
3  3738 3734 3735
3  4163 1474 1472
3  1811 1813 1812
3  1809 1808 1807
3  4164 4162 2559
3  3741 3738 3739
3  4165 1476 1474
3  1811 1810 1809
3  3744 3741 3742
3  4166 1478 1476
3  3744 4167 3741
3  1813 67 66
3  3747 3744 3745
3  4168 1480 1478
3  1814 68 67
3  4169 4170 4171
3  3750 3747 3748
3  4172 1482 1480
3  3750 4173 3747
3  1816 1815 1814
3  4174 4171 4175
3  3753 3750 3751
3  4176 1487 1482
3  1818 1817 1816
3  4177 4175 4178
3  4179 100 1487
3  3756 3753 3754
3  1820 1819 1818
3  4180 4178 4181
3  4182 1490 100
3  1825 3756 3757
3  1822 1821 1820
3  4183 4181 4184
3  1824 1826 1830
3  4185 1492 1490
3  1827 1823 1822
3  4186 4184 4187
3  1829 1830 3762
3  4188 1494 1492
3  1831 1828 1827
3  4189 4187 4190
3  3761 1829 3762
3  4191 1496 1494
3  1833 1832 1831
3  4192 4190 4193
3  3765 3761 3763
3  4194 1498 1496
3  1835 1834 1833
3  4195 4193 4196
3  3768 3765 3766
3  4197 1500 1498
3  1839 1841 1840
3  1837 1836 1835
3  4198 4196 4199
3  3771 3768 3769
3  4200 1502 1500
3  1839 1838 1837
3  2211 4199 2212
3  3774 3771 3772
3  4201 1504 1502
3  1841 64 63
3  3777 3774 3775
3  4202 1506 1504
3  1842 65 64
3  4203 4204 4205
3  3781 3777 3778
3  4206 1508 1506
3  1844 1843 1842
3  4207 4205 4208
3  3785 3781 3782
3  4209 1510 1508
3  3785 4210 3781
3  1846 1845 1844
3  4211 4208 4212
3  3788 3785 3786
3  4213 1512 1510
3  3788 4214 3785
3  1848 1847 1846
3  4215 4212 4216
3  3791 3788 3789
3  4217 1514 1512
3  1850 1849 1848
3  4218 4216 4219
3  3794 3791 3792
3  4220 1516 1514
3  1852 1851 1850
3  4221 4219 4222
3  4223 97 1516
3  3797 3794 3795
3  1854 1853 1852
3  4224 4222 4225
3  4226 1517 97
3  1859 3797 2568
3  1856 1855 1854
3  4227 4225 4228
3  1858 1860 1864
3  4229 1522 1517
3  1861 1857 1856
3  4230 4228 4231
3  1863 1864 3802
3  4232 1526 1522
3  1865 1862 1861
3  4233 4231 4234
3  3801 1863 3802
3  4235 1528 1526
3  1869 1871 1870
3  1867 1866 1865
3  4236 4234 2558
3  3805 3801 3803
3  4237 1530 1528
3  1869 1868 1867
3  3808 3805 3806
3  4238 1532 1530
3  1871 61 60
3  3811 3808 3809
3  4239 1534 1532
3  1872 62 61
3  4240 4241 4242
3  3814 3811 3812
3  4243 1536 1534
3  1874 1873 1872
3  4244 4242 4245
3  3818 3814 3815
3  4246 1538 1536
3  1876 1875 1874
3  4247 4245 4248
3  3822 3818 3819
3  4249 1540 1538
3  1878 1877 1876
3  4250 4248 4251
3  3825 3822 3823
3  4252 1542 1540
3  1880 1879 1878
3  4253 4251 4254
3  3828 3825 3826
3  4255 1544 1542
3  1882 1881 1880
3  4256 4254 4257
3  3831 3828 3829
3  4258 1546 1544
3  1884 1883 1882
3  4259 4257 4260
3  4261 94 1546
3  3834 3831 3832
3  1886 1885 1884
3  4262 4260 4263
3  4264 1547 94
3  1891 3834 2567
3  1888 1887 1886
3  4265 4263 4266
3  1890 1892 1896
3  4267 1549 1547
3  1893 1889 1888
3  4268 4266 4269
3  1895 1896 3839
3  4270 1551 1549
3  1899 1901 1900
3  1897 1894 1893
3  4271 4269 2557
3  3838 1895 3839
3  4272 1556 1551
3  1899 1898 1897
3  3842 3838 3840
3  4273 1560 1556
3  1901 58 57
3  3845 3842 3843
3  4274 1562 1560
3  1902 59 58
3  4275 4276 4277
3  3848 3845 3846
3  4278 1564 1562
3  1904 1903 1902
3  4279 4277 4280
3  3851 3848 3849
3  4281 1566 1564
3  1906 1905 1904
3  4282 4280 4283
3  3854 3851 3852
3  4284 1568 1566
3  3854 4285 3851
3  1908 1907 1906
3  4286 4283 4287
3  3857 3854 3855
3  4288 1570 1568
3  3857 4289 3854
3  1910 1909 1908
3  4290 4287 4291
3  3860 3857 3858
3  4292 1572 1570
3  1912 1911 1910
3  4293 4291 4294
3  3863 3860 3861
3  4295 1574 1572
3  1914 1913 1912
3  4296 4294 4297
3  3866 3863 3864
3  4298 1576 1574
3  1916 1915 1914
3  4299 4297 4300
3  3869 3866 3867
3  4301 1578 1576
3  1918 1917 1916
3  4302 4300 4303
3  4304 91 1578
3  3872 3869 3870
3  1922 1927 1923
3  1920 1919 1918
3  4305 4303 2556
3  4306 1579 91
3  1925 3872 2566
3  1922 1921 1920
3  1924 1926 1929
3  4307 1581 1579
3  1927 55 54
3  1928 1929 3877
3  4308 1583 1581
3  1930 56 55
3  4309 4310 4311
3  3876 1928 3877
3  4312 1585 1583
3  1932 1931 1930
3  4313 4311 4314
3  3880 3876 3878
3  4315 1587 1585
3  1934 1933 1932
3  4316 4314 4317
3  3883 3880 3881
3  4318 1592 1587
3  1936 1935 1934
3  4319 4317 4320
3  3886 3883 3884
3  4321 1596 1592
3  1938 1937 1936
3  4322 4320 4323
3  3889 3886 3887
3  4324 1598 1596
3  1940 1939 1938
3  4325 4323 4326
3  3892 3889 3890
3  4327 1600 1598
3  1942 1941 1940
3  4328 4326 4329
3  3896 3892 3893
3  4330 1602 1600
3  1944 1943 1942
3  4331 4329 4332
3  3900 3896 3897
3  4333 1604 1602
3  1946 1945 1944
3  4334 4332 4335
3  3903 3900 3901
3  4336 1606 1604
3  1948 1947 1946
3  4337 4335 4338
3  3906 3903 3904
3  4339 1608 1606
3  1952 1954 1953
3  1950 1949 1948
3  4340 4338 2555
3  4341 88 1608
3  3909 3906 3907
3  1952 1951 1950
3  4342 1609 88
3  1956 3909 2565
3  1954 52 51
3  1955 1957 1961
3  4343 1611 1609
3  1958 53 52
3  4344 4345 4346
3  1960 1961 3914
3  4347 1613 1611
3  1962 1959 1958
3  4348 4346 4349
3  3913 1960 3914
3  4350 1615 1613
3  1964 1963 1962
3  4351 4349 4352
3  3917 3913 3915
3  4353 1617 1615
3  1966 1965 1964
3  4354 4352 4355
3  3920 3917 3918
3  4356 1619 1617
3  1968 1967 1966
3  4357 4355 4358
3  3923 3920 3921
3  4359 1621 1619
3  1970 1969 1968
3  4360 4358 4361
3  3926 3923 3924
3  4362 1626 1621
3  3926 4363 3923
3  1972 1971 1970
3  4364 4361 4365
3  3929 3926 3927
3  4366 1630 1626
3  3929 4367 3926
3  1974 1973 1972
3  4368 4365 4369
3  3932 3929 3930
3  4370 1632 1630
3  1976 1975 1974
3  4371 4369 4372
3  3935 3932 3933
3  4373 1634 1632
3  1978 1977 1976
3  4374 4372 4375
3  3938 3935 3936
3  4376 1636 1634
3  1982 1984 1983
3  1980 1979 1978
3  4377 4375 4378
3  3941 3938 3939
3  4379 1638 1636
3  1982 1981 1980
3  2369 4378 2370
3  4380 85 1638
3  3944 3941 3942
3  1984 49 48
3  4381 1639 85
3  1988 3944 2564
3  1985 50 49
3  4382 4383 4384
3  1987 1989 1993
3  4385 1641 1639
3  1990 1986 1985
3  4386 4384 4387
3  1992 1993 3949
3  4388 1643 1641
3  1994 1991 1990
3  4389 4387 4390
3  3948 1992 3949
3  4391 1645 1643
3  1996 1995 1994
3  4392 4390 4393
3  3952 3948 3950
3  4394 1647 1645
3  1998 1997 1996
3  4395 4393 4396
3  3955 3952 3953
3  4397 1649 1647
3  2000 1999 1998
3  4398 4396 4399
3  3958 3955 3956
3  4400 1651 1649
3  2002 2001 2000
3  4401 4399 4402
3  3961 3958 3959
3  4403 1653 1651
3  2004 2003 2002
3  4404 4402 4405
3  3964 3961 3962
3  4406 1655 1653
3  2006 2005 2004
3  4407 4405 4408
3  3967 3964 3965
3  4409 1657 1655
3  2010 2012 2011
3  2008 2007 2006
3  4410 4408 2554
3  3970 3967 3968
3  4411 1662 1657
3  2010 2009 2008
3  3974 3970 3971
3  4412 1664 1662
3  2012 46 45
3  3977 3974 3975
3  4413 1666 1664
3  2013 47 46
3  4414 4415 4416
3  4417 82 1666
3  3981 3977 3978
3  2015 2014 2013
3  4418 4416 4419
3  4420 1667 82
3  2020 3981 2563
3  2017 2016 2015
3  4421 4419 4422
3  2019 2021 2025
3  4423 1669 1667
3  2022 2018 2017
3  4424 4422 4425
3  2024 2025 3986
3  4426 1671 1669
3  2026 2023 2022
3  4427 4425 4428
3  3985 2024 3986
3  4429 1673 1671
3  2028 2027 2026
3  4430 4428 4431
3  3989 3985 3987
3  4432 1675 1673
3  2030 2029 2028
3  4433 4431 4434
3  3992 3989 3990
3  4435 1677 1675
3  2032 2031 2030
3  4436 4434 4437
3  3995 3992 3993
3  4438 1679 1677
3  2034 2033 2032
3  4439 4437 4440
3  3998 3995 3996
3  4441 1681 1679
3  3998 4442 3995
3  2038 2040 2039
3  2036 2035 2034
3  4443 4440 2553
3  4001 3998 3999
3  4444 1683 1681
3  4001 4445 3998
3  2038 2037 2036
3  4004 4001 4002
3  4446 1685 1683
3  2040 43 42
3  4007 4004 4005
3  4447 1687 1685
3  2041 44 43
3  4448 4449 4450
3  4010 4007 4008
3  4451 1689 1687
3  2043 2042 2041
3  4452 4450 4453
3  4013 4010 4011
3  4454 1694 1689
3  2045 2044 2043
3  4455 4453 4456
3  4016 4013 4014
3  4457 1698 1694
3  2047 2046 2045
3  4458 4456 4459
3  4460 79 1698
3  4019 4016 4017
3  2049 2048 2047
3  4461 4459 4462
3  4463 1699 79
3  2054 4019 2562
3  2051 2050 2049
3  4464 4462 4465
3  2053 2055 2059
3  4466 1701 1699
3  2056 2052 2051
3  4467 4465 4468
3  2058 2059 4024
3  4469 1703 1701
3  2060 2057 2056
3  4470 4468 4471
3  4023 2058 4024
3  4472 1705 1703
3  2062 2061 2060
3  4473 4471 4474
3  4027 4023 4025
3  4475 1707 1705
3  2068 2070 2069
3  2064 2063 2062
3  4476 4474 4477
3  4030 4027 4028
3  4478 1709 1707
3  2066 2065 2064
3  4479 4477 2551
3  4033 4030 4031
3  4480 1711 1709
3  2068 2067 2066
3  4036 4033 4034
3  4481 1713 1711
3  2070 40 39
3  2451 2552 2452
3  4039 4036 4037
3  4482 1715 1713
3  2071 41 40
3  4483 4484 4485
3  4042 4039 4040
3  4486 1717 1715
3  2073 2072 2071
3  4487 4485 4488
3  4045 4042 4043
3  4489 1719 1717
3  2075 2074 2073
3  4490 4488 4491
3  4048 4045 4046
3  4492 1721 1719
3  2077 2076 2075
3  4493 4491 4494
3  4052 4048 4049
3  4495 1723 1721
3  2079 2078 2077
3  4496 4494 4497
3  4498 76 1723
3  4056 4052 4053
3  2081 2080 2079
3  4499 4497 4500
3  4501 1727 76
3  2086 4056 2561
3  2083 2082 2081
3  4502 4500 4503
3  2085 2087 2091
3  4504 1731 1727
3  2088 2084 2083
3  4505 4503 4506
3  2090 2091 4061
3  4507 1733 1731
3  2092 2089 2088
3  4508 4506 4509
3  4060 2090 4061
3  4510 1735 1733
3  2096 2098 2097
3  2094 2093 2092
3  4511 4509 4512
3  4064 4060 4062
3  4513 1737 1735
3  2096 2095 2094
3  2454 4512 2455
3  4067 4064 4065
3  4514 1739 1737
3  2098 37 36
3  4070 4067 4068
3  4515 1741 1739
3  4070 4516 4067
3  2099 38 37
3  4517 4518 4519
3  4073 4070 4071
3  4520 1743 1741
3  4073 4521 4070
3  2101 2100 2099
3  4522 4519 4523
3  4076 4073 4074
3  4524 1745 1743
3  2103 2102 2101
3  4525 4523 4526
3  4079 4076 4077
3  4527 1747 1745
3  2105 2104 2103
3  4528 4526 4529
3  4082 4079 4080
3  4530 1749 1747
3  2107 2106 2105
3  4531 4529 4532
3  4085 4082 4083
3  4533 1751 1749
3  2109 2108 2107
3  4534 4532 4535
3  4088 4085 4086
3  4536 1753 1751
3  2111 2110 2109
3  4537 4535 4538
3  4539 73 1753
3  4091 4088 4089
3  2113 2112 2111
3  4540 4538 4541
3  4542 1754 73
3  2118 4091 2560
3  2115 2114 2113
3  4543 4541 4544
3  2117 2119 2123
3  4545 1759 1754
3  2120 2116 2115
3  4546 4544 2549
3  2122 2123 4096
3  4547 1763 1759
3  2126 34 33
3  2124 2121 2120
3  4095 2122 4096
3  4548 1765 1763
3  2126 2125 2124
3  4099 4095 4097
3  4549 1767 1765
3  2127 35 34
3  4550 4551 4552
3  4102 4099 4100
3  4553 1769 1767
3  2129 2128 2127
3  4554 4552 4555
3  4105 4102 4103
3  4556 1771 1769
3  2131 2130 2129
3  4557 4555 4558
3  4108 4105 4106
3  4559 1773 1771
3  2133 2132 2131
3  4560 4558 4561
3  4111 4108 4109
3  4562 1775 1773
3  2135 2134 2133
3  4563 4561 4564
3  4114 4111 4112
3  4565 1777 1775
3  2137 2136 2135
3  4566 4564 4567
3  4117 4114 4115
3  4568 1779 1777
3  2139 2138 2137
3  4569 4567 4570
3  4120 4117 4118
3  4571 1781 1779
3  2141 2140 2139
3  4572 4570 4573
3  4123 4120 4121
3  4574 1783 1781
3  2143 2142 2141
3  4575 4573 4576
3  4577 70 1783
3  4126 4123 4124
3  2145 2144 2143
3  4578 4576 4579
3  4580 1784 70
3  2150 4126 4127
3  2152 2156 2153
3  2147 2146 2145
3  4581 4579 4582
3  2149 2151 2155
3  4583 1786 1784
3  2152 2148 2147
3  2464 4582 2465
3  2154 2155 4134
3  4584 1788 1786
3  2156 31 30
3  4133 2154 4134
3  4585 1793 1788
3  2157 32 31
3  4586 4587 4588
3  4137 4133 4135
3  4589 1797 1793
3  2159 2158 2157
3  4590 4588 4591
3  4140 4137 4138
3  4592 1799 1797
3  2161 2160 2159
3  4593 4591 4594
3  4143 4140 4141
3  4595 1801 1799
3  2163 2162 2161
3  4596 4594 4597
3  4146 4143 4144
3  4598 1803 1801
3  4146 4599 4143
3  2165 2164 2163
3  4600 4597 4601
3  4149 4146 4147
3  4602 1805 1803
3  4149 4603 4146
3  2167 2166 2165
3  4604 4601 4605
3  4152 4149 4150
3  4606 1807 1805
3  2169 2168 2167
3  4607 4605 4608
3  4155 4152 4153
3  4609 1809 1807
3  2171 2170 2169
3  4610 4608 4611
3  4158 4155 4156
3  4612 1811 1809
3  2173 2172 2171
3  4613 4611 4614
3  4161 4158 4159
3  4615 1813 1811
3  2177 2179 2178
3  2175 2174 2173
3  4616 4614 2548
3  4617 67 1813
3  4164 4161 4162
3  2177 2176 2175
3  4618 1814 67
3  2181 4164 2559
3  2179 28 27
3  2180 2182 2186
3  4619 1816 1814
3  2183 29 28
3  4620 4621 4622
3  2185 2186 4170
3  4623 1818 1816
3  2187 2184 2183
3  4624 4622 4625
3  4169 2185 4170
3  4626 1820 1818
3  2189 2188 2187
3  4627 4625 4628
3  4174 4169 4171
3  4629 1822 1820
3  2191 2190 2189
3  4630 4628 4631
3  4177 4174 4175
3  4632 1827 1822
3  2193 2192 2191
3  4633 4631 4634
3  4180 4177 4178
3  4635 1831 1827
3  2195 2194 2193
3  4636 4634 4637
3  4183 4180 4181
3  4638 1833 1831
3  2197 2196 2195
3  4639 4637 4640
3  4186 4183 4184
3  4641 1835 1833
3  2199 2198 2197
3  4642 4640 4643
3  4189 4186 4187
3  4644 1837 1835
3  2205 2207 2206
3  2201 2200 2199
3  4645 4643 4646
3  4192 4189 4190
3  4647 1839 1837
3  2203 2202 2201
3  4648 4646 2547
3  4195 4192 4193
3  4649 1841 1839
3  2205 2204 2203
3  4650 64 1841
3  4198 4195 4196
3  2207 25 24
3  4651 1842 64
3  2211 4198 4199
3  2208 26 25
3  4652 4653 4654
3  2210 2212 2216
3  4655 1844 1842
3  2213 2209 2208
3  4656 4654 4657
3  2215 2216 4204
3  4658 1846 1844
3  2217 2214 2213
3  4659 4657 4660
3  4203 2215 4204
3  4661 1848 1846
3  2219 2218 2217
3  4662 4660 4663
3  4207 4203 4205
3  4664 1850 1848
3  2221 2220 2219
3  4665 4663 4666
3  4211 4207 4208
3  4667 1852 1850
3  2223 2222 2221
3  4668 4666 4669
3  4215 4211 4212
3  4670 1854 1852
3  2225 2224 2223
3  4671 4669 4672
3  4218 4215 4216
3  4673 1856 1854
3  2227 2226 2225
3  4674 4672 4675
3  4221 4218 4219
3  4676 1861 1856
3  4221 4677 4218
3  2229 2228 2227
3  4678 4675 4679
3  4224 4221 4222
3  4680 1865 1861
3  4224 4681 4221
3  2233 2235 2234
3  2231 2230 2229
3  4682 4679 2546
3  4227 4224 4225
3  4683 1867 1865
3  2233 2232 2231
3  4230 4227 4228
3  4684 1869 1867
3  2235 22 21
3  4233 4230 4231
3  4685 1871 1869
3  2236 23 22
3  4686 4687 4688
3  4689 61 1871
3  4236 4233 4234
3  2238 2237 2236
3  4690 4688 4691
3  4692 1872 61
3  2243 4236 2558
3  2240 2239 2238
3  4693 4691 4694
3  2242 2244 2248
3  4695 1874 1872
3  2245 2241 2240
3  4696 4694 4697
3  2247 2248 4241
3  4698 1876 1874
3  2249 2246 2245
3  4699 4697 4700
3  4240 2247 4241
3  4701 1878 1876
3  2251 2250 2249
3  4702 4700 4703
3  4244 4240 4242
3  4704 1880 1878
3  2253 2252 2251
3  4705 4703 4706
3  4247 4244 4245
3  4707 1882 1880
3  2255 2254 2253
3  4708 4706 4709
3  4250 4247 4248
3  4710 1884 1882
3  2257 2256 2255
3  4711 4709 4712
3  4253 4250 4251
3  4713 1886 1884
3  2261 2263 2262
3  2259 2258 2257
3  4714 4712 4715
3  4256 4253 4254
3  4716 1888 1886
3  2261 2260 2259
3  2484 4715 2485
3  4259 4256 4257
3  4717 1893 1888
3  2263 19 18
3  4262 4259 4260
3  4718 1897 1893
3  2264 20 19
3  4719 4720 4721
3  4265 4262 4263
3  4722 1899 1897
3  2266 2265 2264
3  4723 4721 4724
3  4268 4265 4266
3  4725 1901 1899
3  2268 2267 2266
3  4726 4724 4727
3  4728 58 1901
3  4271 4268 4269
3  2270 2269 2268
3  4729 4727 4730
3  4731 1902 58
3  2275 4271 2557
3  2272 2271 2270
3  4732 4730 4733
3  2274 2276 2280
3  4734 1904 1902
3  2277 2273 2272
3  4735 4733 4736
3  2279 2280 4276
3  4737 1906 1904
3  2281 2278 2277
3  4738 4736 4739
3  4275 2279 4276
3  4740 1908 1906
3  2283 2282 2281
3  4741 4739 4742
3  4279 4275 4277
3  4743 1910 1908
3  2285 2284 2283
3  4744 4742 4745
3  4282 4279 4280
3  4746 1912 1910
3  2289 2291 2290
3  2287 2286 2285
3  4747 4745 4748
3  4286 4282 4283
3  4749 1914 1912
3  2289 2288 2287
3  2489 4748 2490
3  4290 4286 4287
3  4750 1916 1914
3  4290 4751 4286
3  2291 16 15
3  4293 4290 4291
3  4752 1918 1916
3  4293 4753 4290
3  2292 17 16
3  4754 4755 4756
3  4296 4293 4294
3  4757 1920 1918
3  2294 2293 2292
3  4758 4756 4759
3  4299 4296 4297
3  4760 1922 1920
3  2296 2295 2294
3  4761 4759 4762
3  4302 4299 4300
3  4763 1927 1922
3  2298 2297 2296
3  4764 4762 4765
3  4766 55 1927
3  4305 4302 4303
3  2300 2299 2298
3  4767 4765 4768
3  4769 1930 55
3  2305 4305 2556
3  2302 2301 2300
3  4770 4768 4771
3  2304 2306 2310
3  4772 1932 1930
3  2307 2303 2302
3  4773 4771 4774
3  2309 2310 4310
3  4775 1934 1932
3  2311 2308 2307
3  4776 4774 4777
3  4309 2309 4310
3  4778 1936 1934
3  2313 2312 2311
3  4779 4777 4780
3  4313 4309 4311
3  4781 1938 1936
3  2317 2319 2318
3  2315 2314 2313
3  4782 4780 2545
3  4316 4313 4314
3  4783 1940 1938
3  2317 2316 2315
3  4319 4316 4317
3  4784 1942 1940
3  2319 13 12
3  4322 4319 4320
3  4785 1944 1942
3  2320 14 13
3  4786 4787 4788
3  4325 4322 4323
3  4789 1946 1944
3  2322 2321 2320
3  4790 4788 4791
3  4328 4325 4326
3  4792 1948 1946
3  2324 2323 2322
3  4793 4791 4794
3  4331 4328 4329
3  4795 1950 1948
3  2326 2325 2324
3  4796 4794 4797
3  4334 4331 4332
3  4798 1952 1950
3  2328 2327 2326
3  4799 4797 4800
3  4337 4334 4335
3  4801 1954 1952
3  2330 2329 2328
3  4802 4800 4803
3  4804 52 1954
3  4340 4337 4338
3  2332 2331 2330
3  4805 4803 4806
3  4807 1958 52
3  2337 4340 2555
3  2334 2333 2332
3  4808 4806 4809
3  2336 2338 2342
3  4810 1962 1958
3  2339 2335 2334
3  4811 4809 4812
3  2341 2342 4345
3  4813 1964 1962
3  2345 2347 2346
3  2343 2340 2339
3  4814 4812 2544
3  4344 2341 4345
3  4815 1966 1964
3  2345 2344 2343
3  4348 4344 4346
3  4816 1968 1966
3  2347 10 9
3  4351 4348 4349
3  4817 1970 1968
3  2348 11 10
3  4818 4819 4820
3  4354 4351 4352
3  4821 1972 1970
3  2350 2349 2348
3  4822 4820 4823
3  4357 4354 4355
3  4824 1974 1972
3  2352 2351 2350
3  4825 4823 4826
3  4360 4357 4358
3  4827 1976 1974
3  4360 4828 4357
3  2354 2353 2352
3  4829 4826 4830
3  4364 4360 4361
3  4831 1978 1976
3  4364 4832 4360
3  2356 2355 2354
3  4833 4830 4834
3  4368 4364 4365
3  4835 1980 1978
3  2358 2357 2356
3  4836 4834 4837
3  4371 4368 4369
3  4838 1982 1980
3  2360 2359 2358
3  4839 4837 4840
3  4374 4371 4372
3  4841 1984 1982
3  2362 2361 2360
3  4842 4840 4843
3  4844 49 1984
3  4377 4374 4375
3  2364 2363 2362
3  4845 4843 4846
3  4847 1985 49
3  2369 4377 4378
3  2371 2375 2372
3  2366 2365 2364
3  4848 4846 2543
3  2368 2370 2374
3  4849 1990 1985
3  2371 2367 2366
3  2373 2374 4383
3  4850 1994 1990
3  2375 7 6
3  4382 2373 4383
3  4851 1996 1994
3  2376 8 7
3  4852 4853 4854
3  4386 4382 4384
3  4855 1998 1996
3  2378 2377 2376
3  4856 4854 4857
3  4389 4386 4387
3  4858 2000 1998
3  2380 2379 2378
3  4859 4857 4860
3  4392 4389 4390
3  4861 2002 2000
3  2382 2381 2380
3  4862 4860 4863
3  4395 4392 4393
3  4864 2004 2002
3  2384 2383 2382
3  4865 4863 4866
3  4398 4395 4396
3  4867 2006 2004
3  2386 2385 2384
3  4868 4866 4869
3  4401 4398 4399
3  4870 2008 2006
3  2388 2387 2386
3  4871 4869 4872
3  4404 4401 4402
3  4873 2010 2008
3  2390 2389 2388
3  4874 4872 4875
3  4407 4404 4405
3  4876 2012 2010
3  2392 2391 2390
3  4877 4875 4878
3  4879 46 2012
3  4410 4407 4408
3  2396 2401 2397
3  2394 2393 2392
3  4880 4878 2542
3  4881 2013 46
3  2399 4410 2554
3  2396 2395 2394
3  2398 2400 2403
3  4882 2015 2013
3  2401 4 3
3  2402 2403 4415
3  4883 2017 2015
3  2404 5 4
3  4884 4885 4886
3  4414 2402 4415
3  4887 2022 2017
3  2406 2405 2404
3  4888 4886 4889
3  4418 4414 4416
3  4890 2026 2022
3  2408 2407 2406
3  4891 4889 4892
3  4421 4418 4419
3  4893 2028 2026
3  2410 2409 2408
3  4894 4892 4895
3  4424 4421 4422
3  4896 2030 2028
3  2412 2411 2410
3  4897 4895 4898
3  4427 4424 4425
3  4899 2032 2030
3  2414 2413 2412
3  4900 4898 4901
3  4430 4427 4428
3  4902 2034 2032
3  2416 2415 2414
3  4903 4901 4904
3  4433 4430 4431
3  4905 2036 2034
3  4433 4906 4430
3  2418 2417 2416
3  4907 4904 4908
3  4436 4433 4434
3  4909 2038 2036
3  4436 4910 4433
3  2424 2426 2425
3  2420 2419 2418
3  4911 4908 4912
3  4439 4436 4437
3  4913 2040 2038
3  2422 2421 2420
3  4914 4912 2540
3  4915 43 2040
3  4443 4439 4440
3  2424 2423 2422
3  4916 2041 43
3  2428 4443 2553
3  2426 1 0
3  2514 2541 2515
3  2427 2429 2433
3  4917 2043 2041
3  2430 2 1
3  4918 4919 4920
3  2432 2433 4449
3  4921 2045 2043
3  2434 2431 2430
3  4922 4920 4923
3  4448 2432 4449
3  4924 2047 2045
3  2436 2435 2434
3  4925 4923 4926
3  4452 4448 4450
3  4927 2049 2047
3  2438 2437 2436
3  2517 4926 2518
3  4455 4452 4453
3  4928 2051 2049
3  2440 2439 2438
3  4458 4455 4456
3  4929 2056 2051
3  2442 2441 2440
3  2532 4930 4931
3  4461 4458 4459
3  4932 2060 2056
3  2444 2443 2442
3  2448 2446 2535
3  4933 4931 4934
3  4464 4461 4462
3  4935 2062 2060
3  2446 2445 2444
3  2537 4934 2538
3  4467 4464 4465
3  4936 2064 2062
3  4470 4467 4468
3  4937 2066 2064
3  4473 4470 4471
3  4938 2068 2066
3  4476 4473 4474
3  4939 2070 2068
3  4479 4476 4477
3  4940 40 2070
3  4941 2071 40
3  2550 4479 2551
3  2451 2550 2552
3  4942 2073 2071
3  2450 2452 4484
3  4943 2075 2073
3  4483 2450 4484
3  4944 2077 2075
3  4487 4483 4485
3  4945 2079 2077
3  4490 4487 4488
3  4946 2081 2079
3  4493 4490 4491
3  4947 2083 2081
3  4496 4493 4494
3  4948 2088 2083
3  4499 4496 4497
3  4949 2092 2088
3  4502 4499 4500
3  4950 2094 2092
3  4505 4502 4503
3  4951 2096 2094
3  4505 4952 4502
3  4508 4505 4506
3  4953 2098 2096
3  4508 4954 4505
3  4955 37 2098
3  4511 4508 4509
3  4956 2099 37
3  2454 4511 4512
3  2453 2455 2457
3  4957 2101 2099
3  2456 2457 4518
3  4958 2103 2101
3  4517 2456 4518
3  4959 2105 2103
3  4522 4517 4519
3  4960 2107 2105
3  4525 4522 4523
3  4961 2109 2107
3  4528 4525 4526
3  4962 2111 2109
3  4531 4528 4529
3  4963 2113 2111
3  4534 4531 4532
3  4964 2115 2113
3  4537 4534 4535
3  4965 2120 2115
3  4540 4537 4538
3  4966 2124 2120
3  4543 4540 4541
3  4967 2126 2124
3  4968 34 2126
3  4546 4543 4544
3  4969 2127 34
3  2459 4546 2549
3  2458 2460 2462
3  4970 2129 2127
3  2461 2462 4551
3  4971 2131 2129
3  4550 2461 4551
3  4972 2133 2131
3  4554 4550 4552
3  4973 2135 2133
3  4557 4554 4555
3  4974 2137 2135
3  4560 4557 4558
3  4975 2139 2137
3  4563 4560 4561
3  4976 2141 2139
3  4566 4563 4564
3  4977 2143 2141
3  4569 4566 4567
3  4978 2145 2143
3  4572 4569 4570
3  4979 2147 2145
3  4575 4572 4573
3  4980 2152 2147
3  4578 4575 4576
3  4981 2156 2152
3  4982 31 2156
3  4581 4983 4578
3  4581 4578 4579
3  4984 2157 31
3  2464 4985 4581
3  2464 4581 4582
3  2463 2465 2467
3  4986 2159 2157
3  2466 2467 4587
3  4987 2161 2159
3  4586 2466 4587
3  4988 2163 2161
3  4590 4586 4588
3  4989 2165 2163
3  4593 4590 4591
3  4990 2167 2165
3  4596 4593 4594
3  4991 2169 2167
3  4600 4596 4597
3  4992 2171 2169
3  4604 4600 4601
3  4993 2173 2171
3  4607 4604 4605
3  4994 2175 2173
3  4610 4607 4608
3  4995 2177 2175
3  4613 4610 4611
3  4996 2179 2177
3  4997 28 2179
3  4616 4613 4614
3  4998 2183 28
3  2469 4616 2548
3  2468 2470 2472
3  4999 2187 2183
3  2471 2472 4621
3  5000 2189 2187
3  4620 2471 4621
3  5001 2191 2189
3  4624 4620 4622
3  5002 2193 2191
3  4627 4624 4625
3  5003 2195 2193
3  4630 4627 4628
3  5004 2197 2195
3  4633 4630 4631
3  5005 2199 2197
3  4636 4633 4634
3  5006 2201 2199
3  4639 4636 4637
3  5007 2203 2201
3  4642 4639 4640
3  5008 2205 2203
3  4645 4642 4643
3  5009 2207 2205
3  5010 25 2207
3  4648 4645 4646
3  5011 2208 25
3  2474 4648 2547
3  2473 2475 2477
3  5012 2213 2208
3  2473 5013 2474
3  2476 2477 4653
3  5014 2217 2213
3  2476 5015 2473
3  4652 2476 4653
3  5016 2219 2217
3  4656 4652 4654
3  5017 2221 2219
3  4659 4656 4657
3  5018 2223 2221
3  4662 4659 4660
3  5019 2225 2223
3  4665 4662 4663
3  5020 2227 2225
3  4668 4665 4666
3  5021 2229 2227
3  4671 4668 4669
3  5022 2231 2229
3  4674 4671 4672
3  5023 2233 2231
3  4678 4674 4675
3  5024 2235 2233
3  5025 22 2235
3  4682 4678 4679
3  5026 2236 22
3  2479 4682 2546
3  2478 2480 2482
3  5027 2238 2236
3  2481 2482 4687
3  5028 2240 2238
3  4686 2481 4687
3  5029 2245 2240
3  4690 4686 4688
3  5030 2249 2245
3  4693 4690 4691
3  5031 2251 2249
3  4696 4693 4694
3  5032 2253 2251
3  4699 4696 4697
3  5033 2255 2253
3  4702 4699 4700
3  5034 2257 2255
3  4705 4702 4703
3  5035 2259 2257
3  4708 4705 4706
3  5036 2261 2259
3  4711 4708 4709
3  5037 2263 2261
3  5038 19 2263
3  4714 4711 4712
3  5039 2264 19
3  2484 4714 4715
3  2483 2485 2487
3  5040 2266 2264
3  2486 2487 4720
3  5041 2268 2266
3  4719 2486 4720
3  5042 2270 2268
3  4719 5043 2486
3  4723 4719 4721
3  5044 2272 2270
3  4723 5045 4719
3  4726 4723 4724
3  5046 2277 2272
3  4729 4726 4727
3  5047 2281 2277
3  4732 4729 4730
3  5048 2283 2281
3  4735 4732 4733
3  5049 2285 2283
3  4738 4735 4736
3  5050 2287 2285
3  4741 4738 4739
3  5051 2289 2287
3  4744 4741 4742
3  5052 2291 2289
3  5053 16 2291
3  4747 4744 4745
3  5054 2292 16
3  2489 4747 4748
3  2488 2490 2492
3  5055 2294 2292
3  2491 2492 4755
3  5056 2296 2294
3  4754 2491 4755
3  5057 2298 2296
3  4758 4754 4756
3  5058 2300 2298
3  4761 4758 4759
3  5059 2302 2300
3  4764 4761 4762
3  5060 2307 2302
3  4767 4764 4765
3  5061 2311 2307
3  4770 4767 4768
3  5062 2313 2311
3  4773 4770 4771
3  5063 2315 2313
3  4776 4773 4774
3  5064 2317 2315
3  4779 4776 4777
3  5065 2319 2317
3  5066 13 2319
3  4782 4779 4780
3  5067 2320 13
3  2494 4782 2545
3  2493 2495 2497
3  5068 2322 2320
3  2496 2497 4787
3  5069 2324 2322
3  4786 2496 4787
3  5070 2326 2324
3  4790 4786 4788
3  5071 2328 2326
3  4793 4790 4791
3  5072 2330 2328
3  4793 5073 4790
3  4796 4793 4794
3  5074 2332 2330
3  4796 5075 4793
3  4799 4796 4797
3  5076 2334 2332
3  4802 4799 4800
3  5077 2339 2334
3  4805 4802 4803
3  5078 2343 2339
3  4808 4805 4806
3  5079 2345 2343
3  4811 4808 4809
3  5080 2347 2345
3  5081 10 2347
3  4814 4811 4812
3  5082 2348 10
3  2499 4814 2544
3  2498 2500 2502
3  5083 2350 2348
3  2501 2502 4819
3  5084 2352 2350
3  4818 2501 4819
3  5085 2354 2352
3  4822 4818 4820
3  5086 2356 2354
3  4825 4822 4823
3  5087 2358 2356
3  4829 4825 4826
3  5088 2360 2358
3  4833 4829 4830
3  5089 2362 2360
3  4836 4833 4834
3  5090 2364 2362
3  4839 4836 4837
3  5091 2366 2364
3  4842 4839 4840
3  5092 2371 2366
3  4845 4842 4843
3  5093 2375 2371
3  5094 7 2375
3  4848 4845 4846
3  5095 2376 7
3  2504 4848 2543
3  2503 2505 2507
3  5096 2378 2376
3  2506 2507 4853
3  5097 2380 2378
3  4852 2506 4853
3  5098 2382 2380
3  4856 4852 4854
3  5099 2384 2382
3  4859 4856 4857
3  5100 2386 2384
3  4859 5101 4856
3  4862 4859 4860
3  5102 2388 2386
3  4862 5103 4859
3  4865 4862 4863
3  5104 2390 2388
3  4868 4865 4866
3  5105 2392 2390
3  4871 4868 4869
3  5106 2394 2392
3  4874 4871 4872
3  5107 2396 2394
3  4877 4874 4875
3  5108 2401 2396
3  5109 4 2401
3  4880 4877 4878
3  5110 2404 4
3  2509 4880 2542
3  2508 2510 2512
3  5111 2406 2404
3  2511 2512 4885
3  5112 2408 2406
3  4884 2511 4885
3  5113 2410 2408
3  4888 4884 4886
3  5114 2412 2410
3  4891 4888 4889
3  5115 2414 2412
3  4894 4891 4892
3  5116 2416 2414
3  4897 4894 4895
3  5117 2418 2416
3  4900 4897 4898
3  5118 2420 2418
3  4903 4900 4901
3  5119 2422 2420
3  4907 4903 4904
3  5120 2424 2422
3  4911 4907 4908
3  5121 2426 2424
3  4914 4911 4912
3  5122 1 2426
3  5123 2430 1
3  2539 4914 2540
3  2514 2539 2541
3  5124 2434 2430
3  2513 2515 4919
3  5125 2436 2434
3  4918 2513 4919
3  5126 2438 2436
3  4922 4918 4920
3  5127 2440 2438
3  4925 4922 4923
3  2534 5128 4930
3  2517 4925 4926
3  2516 2518 2529
3  2519 2527 2520
3  2531 5129 5130
3  2524 2521 2520
3  2528 2516 2529
3  5131 5132 5128
3  2531 2524 2520
3  2520 2527 2531
3  2528 2525 2524
3  5133 5134 5130
3  2530 2526 5132
3  5131 2530 5132
3  5135 2444 2442
3  2534 5136 5131
3  2534 5131 5128
3  2532 2534 4930
3  5137 2442 2440
3  4933 2532 4931
3  2537 2538 2535
3  2537 4933 4934
3  2537 5138 4933
3  2536 2446 2444
3  2448 2447 2446
3  5139 2532 4933
3  2535 2446 2536
3  5140 2536 5135
3  5138 2537 2536
3  5141 5142 5143
3  5139 4933 5138
3  5144 5140 5135
3  2533 2532 5139
3  5136 2534 2533
3  5145 2530 5131
3  5146 2517 2516
3  5145 5131 5136
3  2519 2523 2527
3  5134 2516 2528
3  5130 2528 2524
3  2531 2530 5145
3  5130 2524 2531
3  5147 5136 2533
3  5134 2528 5130
3  5148 5145 5136
3  5149 4925 2517
3  5150 4922 4925
3  5146 2516 5134
3  5151 4918 4922
3  5149 2517 5146
3  5152 2513 4918
3  5150 4925 5149
3  5153 2514 2513
3  5151 4922 5150
3  5154 2539 2514
3  5152 4918 5151
3  5123 5155 5124
3  5156 4914 2539
3  5153 2513 5152
3  5157 4911 4914
3  5154 2514 5153
3  5158 5122 5121
3  5159 4907 4911
3  5156 2539 5154
3  5160 4903 4907
3  5157 4914 5156
3  5161 5158 5121
3  5162 4900 4903
3  5159 4911 5157
3  5163 4897 4900
3  5160 4907 5159
3  5164 4894 4897
3  5162 4903 5160
3  5165 4891 4894
3  5163 4900 5162
3  5166 4888 4891
3  5164 4897 5163
3  5167 4884 4888
3  5165 4894 5164
3  5168 2511 4884
3  5166 4891 5165
3  5169 2508 2511
3  5167 4888 5166
3  5170 2509 2508
3  5168 4884 5167
3  5110 5171 5111
3  5172 4880 2509
3  5169 2511 5168
3  5173 4877 4880
3  5170 2508 5169
3  5174 5109 5108
3  5175 4874 4877
3  5172 2509 5170
3  5176 5174 5108
3  5177 4871 4874
3  5173 4880 5172
3  5178 4868 4871
3  5175 4877 5173
3  5179 4865 4868
3  5177 4874 5175
3  5180 4862 4865
3  5178 4871 5177
3  5179 4868 5178
3  5180 4865 5179
3  5181 4852 4856
3  5103 4862 5180
3  5182 2506 4852
3  5101 4859 5103
3  5098 5183 5099
3  5184 2503 2506
3  5181 4856 5101
3  5185 2504 2503
3  5182 4852 5181
3  5095 5186 5096
3  5187 4848 2504
3  5184 2506 5182
3  5188 4845 4848
3  5185 2503 5184
3  5189 5094 5093
3  5190 4842 4845
3  5187 2504 5185
3  5191 5189 5093
3  5192 4839 4842
3  5188 4848 5187
3  5193 4836 4839
3  5190 4845 5188
3  5091 5194 5092
3  5195 4833 4836
3  5192 4842 5190
3  5090 5196 5091
3  5197 4829 4833
3  5193 4839 5192
3  5198 4825 4829
3  5195 4836 5193
3  5199 4822 4825
3  5197 4833 5195
3  5200 4818 4822
3  5198 4829 5197
3  5201 2501 4818
3  5199 4825 5198
3  5202 2498 2501
3  5200 4822 5199
3  5203 2499 2498
3  5201 4818 5200
3  5082 5204 5083
3  5205 4814 2499
3  5202 2501 5201
3  5206 4811 4814
3  5203 2498 5202
3  5207 5081 5080
3  5208 4808 4811
3  5205 2499 5203
3  5209 5207 5080
3  5210 4805 4808
3  5206 4814 5205
3  5211 4802 4805
3  5208 4811 5206
3  5212 4799 4802
3  5210 4808 5208
3  5213 4796 4799
3  5211 4805 5210
3  5212 4802 5211
3  5213 4799 5212
3  5214 4786 4790
3  5075 4796 5213
3  5215 2496 4786
3  5073 4793 5075
3  5070 5216 5071
3  5217 2493 2496
3  5214 4790 5073
3  5218 2494 2493
3  5215 4786 5214
3  5067 5219 5068
3  5220 4782 2494
3  5217 2496 5215
3  5221 4779 4782
3  5218 2493 5217
3  5222 5066 5065
3  5223 4776 4779
3  5220 2494 5218
3  5224 5222 5065
3  5225 4773 4776
3  5221 4782 5220
3  5226 4770 4773
3  5223 4779 5221
3  5227 4767 4770
3  5225 4776 5223
3  5228 4764 4767
3  5226 4773 5225
3  5229 4761 4764
3  5227 4770 5226
3  5230 4758 4761
3  5228 4767 5227
3  5059 5231 5060
3  5232 4754 4758
3  5229 4764 5228
3  5058 5233 5059
3  5234 2491 4754
3  5230 4761 5229
3  5235 2488 2491
3  5232 4758 5230
3  5236 2489 2488
3  5234 4754 5232
3  5054 5237 5055
3  5238 4747 2489
3  5235 2491 5234
3  5239 4744 4747
3  5236 2488 5235
3  5240 5053 5052
3  5241 4741 4744
3  5238 2489 5236
3  5242 5240 5052
3  5243 4738 4741
3  5239 4747 5238
3  5244 4735 4738
3  5241 4744 5239
3  5245 4732 4735
3  5243 4741 5241
3  5246 4729 4732
3  5244 4738 5243
3  5247 4726 4729
3  5245 4735 5244
3  5248 4723 4726
3  5246 4732 5245
3  5247 4729 5246
3  5248 4726 5247
3  5249 2483 2486
3  5045 4723 5248
3  5250 2484 2483
3  5043 4719 5045
3  5040 5251 5041
3  5252 4714 2484
3  5249 2486 5043
3  5038 5253 5039
3  5254 4711 4714
3  5250 2483 5249
3  5255 5038 5037
3  5256 4708 4711
3  5252 2484 5250
3  5257 5255 5037
3  5258 4705 4708
3  5254 4714 5252
3  5259 4702 4705
3  5256 4711 5254
3  5260 4699 4702
3  5258 4708 5256
3  5261 4696 4699
3  5259 4705 5258
3  5262 4693 4696
3  5260 4702 5259
3  5263 4690 4693
3  5261 4699 5260
3  5264 4686 4690
3  5262 4696 5261
3  5265 2481 4686
3  5263 4693 5262
3  5029 5266 5030
3  5267 2478 2481
3  5264 4690 5263
3  5028 5268 5029
3  5269 2479 2478
3  5265 4686 5264
3  5026 5270 5027
3  5271 4682 2479
3  5267 2481 5265
3  5272 4678 4682
3  5269 2478 5267
3  5273 5025 5024
3  5274 4674 4678
3  5271 2479 5269
3  5275 5273 5024
3  5276 4671 4674
3  5272 4682 5271
3  5277 4668 4671
3  5274 4678 5272
3  5278 4665 4668
3  5276 4674 5274
3  5279 4662 4665
3  5277 4671 5276
3  5280 4659 4662
3  5278 4668 5277
3  5281 4656 4659
3  5279 4665 5278
3  5282 4652 4656
3  5280 4662 5279
3  5283 2476 4652
3  5281 4659 5280
3  5282 4656 5281
3  5283 4652 5282
3  5011 5284 5012
3  5285 4648 2474
3  5015 2476 5283
3  5286 4645 4648
3  5013 2473 5015
3  5287 4642 4645
3  5285 2474 5013
3  5288 5289 5009
3  5290 4639 4642
3  5286 4648 5285
3  5291 4636 4639
3  5287 4645 5286
3  5292 4633 4636
3  5290 4642 5287
3  5293 4630 4633
3  5291 4639 5290
3  5294 4627 4630
3  5292 4636 5291
3  5295 4624 4627
3  5293 4633 5292
3  5296 4620 4624
3  5294 4630 5293
3  5297 2471 4620
3  5295 4627 5294
3  5298 2468 2471
3  5296 4624 5295
3  5299 2469 2468
3  5297 4620 5296
3  4999 5300 5000
3  5301 4616 2469
3  5298 2471 5297
3  4998 5302 4999
3  5303 4613 4616
3  5299 2468 5298
3  5304 4997 4996
3  5305 4610 4613
3  5301 2469 5299
3  5306 5304 4996
3  5307 4607 4610
3  5303 4616 5301
3  5308 4604 4607
3  5305 4613 5303
3  5309 4600 4604
3  5307 4610 5305
3  5310 4596 4600
3  5308 4607 5307
3  5311 4593 4596
3  5309 4604 5308
3  5312 4590 4593
3  5310 4600 5309
3  5313 4586 4590
3  5311 4596 5310
3  5314 2466 4586
3  5312 4593 5311
3  5315 2463 2466
3  5313 4590 5312
3  5316 2464 2463
3  5314 4586 5313
3  4984 5317 4986
3  5315 2466 5314
3  5316 2463 5315
3  5318 4982 4981
3  5319 4575 4578
3  4985 2464 5316
3  5320 5321 5322
3  5323 4572 4575
3  4983 4581 4985
3  5324 4569 4572
3  5319 4578 4983
3  5325 4566 4569
3  5323 4575 5319
3  5326 4563 4566
3  5324 4572 5323
3  5327 4560 4563
3  5325 4569 5324
3  5328 4557 4560
3  5326 4566 5325
3  5329 4554 4557
3  5327 4563 5326
3  5330 4550 4554
3  5328 4560 5327
3  5331 2461 4550
3  5329 4557 5328
3  5332 2458 2461
3  5330 4554 5329
3  5333 2459 2458
3  5331 4550 5330
3  5334 5335 5336
3  5337 4546 2459
3  5332 2461 5331
3  4969 5335 4970
3  5338 4543 4546
3  5333 2458 5332
3  5339 5334 5336
3  5340 4540 4543
3  5337 2459 5333
3  5341 4537 4540
3  5338 4546 5337
3  5342 4534 4537
3  5340 4543 5338
3  5343 4531 4534
3  5341 4540 5340
3  5344 4528 4531
3  5342 4537 5341
3  5345 4525 4528
3  5343 4534 5342
3  5346 4522 4525
3  5344 4531 5343
3  5347 4517 4522
3  5345 4528 5344
3  5348 2456 4517
3  5346 4525 5345
3  5349 2453 2456
3  5347 4522 5346
3  5350 2454 2453
3  5348 4517 5347
3  4956 5351 4957
3  5352 4511 2454
3  5349 2456 5348
3  5353 4508 4511
3  5350 2453 5349
3  5354 4955 4953
3  5352 2454 5350
3  5355 5354 4953
3  5353 4511 5352
3  5356 4499 4502
3  4954 4508 5353
3  5357 4496 4499
3  4952 4505 4954
3  4949 5358 4950
3  5359 4493 4496
3  5356 4502 4952
3  5360 4490 4493
3  5357 4499 5356
3  5361 4487 4490
3  5359 4496 5357
3  5362 4483 4487
3  5360 4493 5359
3  5363 2450 4483
3  5361 4490 5360
3  5364 2451 2450
3  5362 4487 5361
3  5365 2550 2451
3  5363 4483 5362
3  4941 5366 4942
3  5367 4479 2550
3  5364 2450 5363
3  5368 4476 4479
3  5365 2451 5364
3  5369 4940 4939
3  5370 4473 4476
3  5367 2550 5365
3  5371 4470 4473
3  5368 4479 5367
3  5372 5369 4939
3  5373 4467 4470
3  5370 4476 5368
3  5374 4464 4467
3  5371 4473 5370
3  5375 4461 4464
3  5373 4470 5371
3  5376 4458 4461
3  5374 4467 5373
3  5377 4455 4458
3  5375 4464 5374
3  5135 2536 2444
3  5378 2533 5139
3  5379 4452 4455
3  5376 4461 5375
3  5137 5135 2442
3  5380 5139 5138
3  5381 4448 4452
3  5377 4458 5376
3  5127 5137 2440
3  5382 2432 4448
3  5379 4455 5377
3  5383 5149 5146
3  5126 5127 2438
3  5384 2427 2432
3  5381 4452 5379
3  5385 5150 5149
3  5125 5126 2436
3  5386 2428 2427
3  5382 4448 5381
3  4916 5387 4917
3  5388 5151 5150
3  5124 5125 2434
3  5389 4443 2428
3  5384 2432 5382
3  5390 4439 4443
3  5386 2427 5384
3  5391 4915 4913
3  5392 5153 5152
3  5122 5123 1
3  5393 4436 4439
3  5389 2428 5386
3  5394 5391 4913
3  5395 5157 5156
3  5120 5121 2424
3  5390 4443 5389
3  5119 5120 2422
3  5393 4439 5390
3  5396 5159 5157
3  5118 5119 2420
3  5397 4427 4430
3  4910 4436 5393
3  5398 5160 5159
3  5117 5118 2418
3  5399 4424 4427
3  4906 4433 4910
3  4899 5400 4902
3  5401 5162 5160
3  5116 5117 2416
3  5402 4421 4424
3  5397 4430 4906
3  5403 5163 5162
3  5115 5116 2414
3  5404 4418 4421
3  5399 4427 5397
3  5405 5164 5163
3  5114 5115 2412
3  5406 4414 4418
3  5402 4424 5399
3  5407 5165 5164
3  5113 5114 2410
3  5408 2402 4414
3  5404 4421 5402
3  5409 5166 5165
3  5112 5113 2408
3  5410 2398 2402
3  5406 4418 5404
3  5411 5167 5166
3  5111 5112 2406
3  5412 2399 2398
3  5408 4414 5406
3  4881 5413 4882
3  5414 4410 2399
3  5410 2402 5408
3  5109 5110 4
3  5415 4407 4410
3  5412 2398 5410
3  5416 4879 4876
3  5417 5172 5170
3  5107 5108 2396
3  5418 4404 4407
3  5414 2399 5412
3  5419 5173 5172
3  5106 5107 2394
3  5420 4401 4404
3  5415 4410 5414
3  5421 5175 5173
3  5105 5106 2392
3  5422 4398 4401
3  5418 4407 5415
3  4870 5423 4873
3  5424 5177 5175
3  5104 5105 2390
3  5425 4395 4398
3  5420 4404 5418
3  5426 5178 5177
3  5102 5104 2388
3  5427 4392 4395
3  5422 4401 5420
3  5428 5179 5178
3  5100 5102 2386
3  5429 4389 4392
3  5425 4398 5422
3  5430 5180 5179
3  5099 5100 2384
3  5431 4386 4389
3  5427 4395 5425
3  5432 5101 5103
3  5098 5099 2382
3  5433 4382 4386
3  5429 4392 5427
3  5097 5098 2380
3  5434 2373 4382
3  5431 4389 5429
3  5435 5181 5101
3  5096 5097 2378
3  5436 2368 2373
3  5433 4386 5431
3  5437 2369 2368
3  5434 4382 5433
3  4847 5438 4849
3  5094 5095 7
3  5439 4377 2369
3  5436 2373 5434
3  5440 5187 5185
3  5092 5093 2371
3  5441 4374 4377
3  5437 2368 5436
3  5442 4844 4841
3  5443 5190 5188
3  5091 5092 2366
3  5444 4371 4374
3  5439 2369 5437
3  5445 5442 4841
3  5446 5192 5190
3  5090 5091 2364
3  5447 4368 4371
3  5441 4377 5439
3  5089 5090 2362
3  5448 4364 4368
3  5444 4374 5441
3  5449 5193 5192
3  5088 5089 2360
3  5447 4371 5444
3  5450 5195 5193
3  5087 5088 2358
3  5448 4368 5447
3  5451 5197 5195
3  5086 5087 2356
3  5452 4354 4357
3  4832 4364 5448
3  5453 5198 5197
3  5085 5086 2354
3  5454 4351 4354
3  4828 4360 4832
3  4821 5455 4824
3  5456 5199 5198
3  5084 5085 2352
3  5457 4348 4351
3  5452 4357 4828
3  5458 5200 5199
3  5083 5084 2350
3  5459 4344 4348
3  5454 4354 5452
3  5460 2341 4344
3  5457 4351 5454
3  5081 5082 10
3  5461 2336 2341
3  5459 4348 5457
3  5462 5205 5203
3  5079 5080 2345
3  5463 2337 2336
3  5460 4344 5459
3  4807 5464 4810
3  5465 5206 5205
3  5078 5079 2343
3  5466 4340 2337
3  5461 2341 5460
3  5467 5208 5206
3  5077 5078 2339
3  5468 4337 4340
3  5463 2336 5461
3  5469 4804 4801
3  5470 5210 5208
3  5076 5077 2334
3  5471 4334 4337
3  5466 2337 5463
3  5472 5469 4801
3  5473 5211 5210
3  5074 5076 2332
3  5474 4331 4334
3  5468 4340 5466
3  5475 5212 5211
3  5072 5074 2330
3  5476 4328 4331
3  5471 4337 5468
3  4795 5477 4798
3  5478 5213 5212
3  5071 5072 2328
3  5479 4325 4328
3  5474 4334 5471
3  4792 5480 4795
3  5481 5073 5075
3  5070 5071 2326
3  5482 4322 4325
3  5476 4331 5474
3  5069 5070 2324
3  5483 4319 4322
3  5479 4328 5476
3  5484 5214 5073
3  5068 5069 2322
3  5485 4316 4319
3  5482 4325 5479
3  5486 4313 4316
3  5483 4322 5482
3  5066 5067 13
3  5487 4309 4313
3  5485 4319 5483
3  5488 5220 5218
3  5064 5065 2317
3  5489 2309 4309
3  5486 4316 5485
3  5490 5221 5220
3  5063 5064 2315
3  5491 2304 2309
3  5487 4313 5486
3  5492 5223 5221
3  5062 5063 2313
3  5493 2305 2304
3  5489 4309 5487
3  4769 5494 4772
3  5495 5225 5223
3  5061 5062 2311
3  5496 4305 2305
3  5491 2309 5489
3  5497 5226 5225
3  5060 5061 2307
3  5498 4302 4305
3  5493 2304 5491
3  5499 4766 4763
3  5500 5228 5227
3  5059 5060 2302
3  5501 4299 4302
3  5496 2305 5493
3  5502 5499 4763
3  5503 5229 5228
3  5058 5059 2300
3  5504 4296 4299
3  5498 4305 5496
3  5057 5058 2298
3  5505 4293 4296
3  5501 4302 5498
3  5506 5230 5229
3  5056 5057 2296
3  5504 4299 5501
3  5507 5232 5230
3  5055 5056 2294
3  5505 4296 5504
3  5508 4282 4286
3  4753 4293 5505
3  5053 5054 16
3  5509 4279 4282
3  4751 4290 4753
3  4746 5510 4749
3  5511 5238 5236
3  5051 5052 2289
3  5512 4275 4279
3  5508 4286 4751
3  5513 5239 5238
3  5050 5051 2287
3  5514 2279 4275
3  5509 4282 5508
3  5515 5241 5239
3  5049 5050 2285
3  5516 2274 2279
3  5512 4279 5509
3  5517 5243 5241
3  5048 5049 2283
3  5518 2275 2274
3  5514 4275 5512
3  4731 5519 4734
3  5520 5244 5243
3  5047 5048 2281
3  5521 4271 2275
3  5516 2279 5514
3  5522 5245 5244
3  5046 5047 2277
3  5523 4268 4271
3  5518 2274 5516
3  5524 4728 4725
3  5525 5246 5245
3  5044 5046 2272
3  5526 4265 4268
3  5521 2275 5518
3  5527 5524 4725
3  5528 5247 5246
3  5042 5044 2270
3  5529 4262 4265
3  5523 4271 5521
3  5530 5248 5247
3  5041 5042 2268
3  5531 4259 4262
3  5526 4268 5523
3  5532 5043 5045
3  5040 5041 2266
3  5533 4256 4259
3  5529 4265 5526
3  5534 4253 4256
3  5531 4262 5529
3  4716 5535 4717
3  5536 5249 5043
3  5537 4250 4253
3  5533 4259 5531
3  4713 5538 4716
3  5539 5252 5250
3  5036 5037 2261
3  5540 4247 4250
3  5534 4256 5533
3  5541 5254 5252
3  5035 5036 2259
3  5542 4244 4247
3  5537 4253 5534
3  5543 5256 5254
3  5034 5035 2257
3  5544 4240 4244
3  5540 4250 5537
3  5545 5258 5256
3  5033 5034 2255
3  5546 2247 4240
3  5542 4247 5540
3  5547 5259 5258
3  5032 5033 2253
3  5548 2242 2247
3  5544 4244 5542
3  5549 5260 5259
3  5031 5032 2251
3  5550 2243 2242
3  5546 4240 5544
3  4692 5551 4695
3  5552 5261 5260
3  5030 5031 2249
3  5553 4236 2243
3  5548 2247 5546
3  5554 5263 5262
3  5029 5030 2245
3  5555 4233 4236
3  5550 2242 5548
3  5556 4689 4685
3  5557 5264 5263
3  5028 5029 2240
3  5558 4230 4233
3  5553 2243 5550
3  5559 5556 4685
3  5027 5028 2238
3  5560 4227 4230
3  5555 4236 5553
3  5561 4224 4227
3  5558 4233 5555
3  5025 5026 22
3  5560 4230 5558
3  5562 5271 5269
3  5023 5024 2233
3  5561 4227 5560
3  5563 5272 5271
3  5022 5023 2231
3  5564 4215 4218
3  4681 4224 5561
3  5565 5274 5272
3  5021 5022 2229
3  5566 4211 4215
3  4677 4221 4681
3  4670 5567 4673
3  5568 5276 5274
3  5020 5021 2227
3  5569 4207 4211
3  5564 4218 4677
3  5570 5277 5276
3  5019 5020 2225
3  5571 4203 4207
3  5566 4215 5564
3  5572 5278 5277
3  5018 5019 2223
3  5573 2215 4203
3  5569 4211 5566
3  5574 5279 5278
3  5017 5018 2221
3  5575 2210 2215
3  5571 4207 5569
3  5576 5280 5279
3  5016 5017 2219
3  5577 2211 2210
3  5573 4203 5571
3  4651 5578 4655
3  5579 5281 5280
3  5014 5016 2217
3  5580 4198 2211
3  5575 2215 5573
3  5010 5289 5581
3  5582 5282 5281
3  5012 5014 2213
3  5583 4195 4198
3  5577 2210 5575
3  5584 4650 4649
3  5585 4192 4195
3  5580 2211 5577
3  5586 5584 4649
3  5587 4189 4192
3  5583 4198 5580
3  5588 5285 5013
3  5008 5009 2205
3  5589 4186 4189
3  5585 4195 5583
3  5590 5286 5285
3  5007 5008 2203
3  5591 4183 4186
3  5587 4192 5585
3  5592 5287 5286
3  5006 5007 2201
3  5593 4180 4183
3  5589 4189 5587
3  5594 5290 5287
3  5005 5006 2199
3  5595 4177 4180
3  5591 4186 5589
3  4635 5596 4638
3  5597 5291 5290
3  5004 5005 2197
3  5598 4174 4177
3  5593 4183 5591
3  4632 5599 4635
3  5600 5292 5291
3  5003 5004 2195
3  5601 4169 4174
3  5595 4180 5593
3  5602 5293 5292
3  5002 5003 2193
3  5603 2185 4169
3  5598 4177 5595
3  5604 5294 5293
3  5001 5002 2191
3  5605 2180 2185
3  5601 4174 5598
3  5606 5295 5294
3  5000 5001 2189
3  5607 2181 2180
3  5603 4169 5601
3  4618 5608 4619
3  5609 5297 5296
3  4999 5000 2187
3  5610 4164 2181
3  5605 2185 5603
3  5611 4161 4164
3  5607 2180 5605
3  5612 4617 4615
3  5613 5298 5297
3  5614 4158 4161
3  5610 2181 5607
3  5615 5612 4615
3  5616 5301 5299
3  4995 4996 2177
3  5617 4155 4158
3  5611 4164 5610
3  5618 5303 5301
3  4994 4995 2175
3  5619 4152 4155
3  5614 4161 5611
3  5620 5305 5303
3  4993 4994 2173
3  5621 4149 4152
3  5617 4158 5614
3  5622 5307 5305
3  4992 4993 2171
3  5619 4155 5617
3  5623 5308 5307
3  4991 4992 2169
3  5621 4152 5619
3  5624 5309 5308
3  4990 4991 2167
3  5625 4140 4143
3  4603 4149 5621
3  5626 5310 5309
3  4989 4990 2165
3  5627 4137 4140
3  4599 4146 4603
3  4592 5628 4595
3  5629 5311 5310
3  4988 4989 2163
3  5630 4133 4137
3  5625 4143 4599
3  5631 5312 5311
3  4987 4988 2161
3  5632 2154 4133
3  5627 4140 5625
3  5633 5313 5312
3  4986 4987 2159
3  5634 2149 2154
3  5630 4137 5627
3  5635 2150 2149
3  5632 4133 5630
3  4580 5636 4583
3  4982 4984 31
3  5637 4126 2150
3  5634 2154 5632
3  5638 4983 4985
3  4980 4981 2152
3  5639 4123 4126
3  5635 2149 5634
3  5640 4577 4574
3  4979 4980 2147
3  5641 4120 4123
3  5637 2150 5635
3  5642 5640 4574
3  5643 5319 4983
3  4978 4979 2145
3  5644 4117 4120
3  5639 4126 5637
3  5645 5323 5319
3  4977 4978 2143
3  5646 4114 4117
3  5641 4123 5639
3  5647 5324 5323
3  4976 4977 2141
3  5648 4111 4114
3  5644 4120 5641
3  5649 5325 5324
3  4975 4976 2139
3  5650 4108 4111
3  5646 4117 5644
3  5651 5326 5325
3  4974 4975 2137
3  5652 4105 4108
3  5648 4114 5646
3  5653 5327 5326
3  4973 4974 2135
3  5654 4102 4105
3  5650 4111 5648
3  4556 5655 4559
3  5656 5328 5327
3  4972 4973 2133
3  5657 4099 4102
3  5652 4108 5650
3  4553 5658 4556
3  5659 5329 5328
3  4971 4972 2131
3  5660 4095 4099
3  5654 4105 5652
3  5661 5330 5329
3  4970 4971 2129
3  5662 2122 4095
3  5657 4102 5654
3  5663 2117 2122
3  5660 4099 5657
3  5664 5332 5331
3  4968 4969 34
3  5665 2118 2117
3  5662 4095 5660
3  4542 5666 4545
3  5667 5337 5333
3  4966 4967 2124
3  5668 4091 2118
3  5663 2122 5662
3  5669 5338 5337
3  4965 4966 2120
3  5670 4088 4091
3  5665 2117 5663
3  5671 4539 4536
3  5672 5340 5338
3  4964 4965 2115
3  5673 4085 4088
3  5668 2118 5665
3  5674 5671 4536
3  5675 5341 5340
3  4963 4964 2113
3  5676 4082 4085
3  5670 4091 5668
3  5677 5342 5341
3  4962 4963 2111
3  5678 4079 4082
3  5673 4088 5670
3  5679 5343 5342
3  4961 4962 2109
3  5680 4076 4079
3  5676 4085 5673
3  5681 5344 5343
3  4960 4961 2107
3  5682 4073 4076
3  5678 4082 5676
3  5683 5345 5344
3  4959 4960 2105
3  5680 4079 5678
3  5684 5346 5345
3  4958 4959 2103
3  5682 4076 5680
3  5685 5347 5346
3  4957 4958 2101
3  5686 4064 4067
3  4521 4073 5682
3  5687 4060 4064
3  4516 4070 4521
3  4513 5688 4514
3  4955 4956 37
3  5689 2090 4060
3  5686 4067 4516
3  5690 5352 5350
3  4951 4953 2096
3  5691 2085 2090
3  5687 4064 5686
3  5692 5353 5352
3  4950 4951 2094
3  5693 2086 2085
3  5689 4060 5687
3  4501 5694 4504
3  5695 4952 4954
3  4949 4950 2092
3  5696 4056 2086
3  5691 2090 5689
3  4948 4949 2088
3  5697 4052 4056
3  5693 2085 5691
3  5698 4498 4495
3  5699 5356 4952
3  4947 4948 2083
3  5700 4048 4052
3  5696 2086 5693
3  5701 5698 4495
3  5702 5357 5356
3  4946 4947 2081
3  5703 4045 4048
3  5697 4056 5696
3  5704 5359 5357
3  4945 4946 2079
3  5705 4042 4045
3  5700 4052 5697
3  5706 5360 5359
3  4944 4945 2077
3  5707 4039 4042
3  5703 4048 5700
3  5708 5361 5360
3  4943 4944 2075
3  5709 4036 4039
3  5705 4045 5703
3  5710 5362 5361
3  4942 4943 2073
3  5711 4033 4036
3  5707 4042 5705
3  5712 4030 4033
3  5709 4039 5707
3  4480 5713 4481
3  5714 5364 5363
3  4940 4941 40
3  5715 4027 4030
3  5711 4036 5709
3  4478 5716 4480
3  5717 5368 5367
3  4938 4939 2068
3  5718 4023 4027
3  5712 4033 5711
3  4937 4938 2066
3  5719 2058 4023
3  5715 4030 5712
3  5720 5370 5368
3  4936 4937 2064
3  5721 2053 2058
3  5718 4027 5715
3  5722 5371 5370
3  4935 4936 2062
3  5723 2054 2053
3  5719 4023 5718
3  4463 5724 4466
3  5725 5373 5371
3  4932 4935 2060
3  5726 4019 2054
3  5721 2058 5719
3  5727 5374 5373
3  4929 4932 2056
3  5728 4016 4019
3  5723 2053 5721
3  5729 4460 4457
3  5730 5375 5374
3  4928 4929 2051
3  5731 4013 4016
3  5726 2054 5723
3  5732 5729 4457
3  5733 5376 5375
3  4927 4928 2049
3  5734 4010 4013
3  5728 4019 5726
3  5735 5377 5376
3  4924 4927 2047
3  5736 4007 4010
3  5731 4016 5728
3  5737 5379 5377
3  4921 4924 2045
3  5738 4004 4007
3  5734 4013 5731
3  5739 5381 5379
3  4917 4921 2043
3  5740 4001 4004
3  5736 4010 5734
3  5738 4007 5736
3  4915 4916 43
3  5740 4004 5738
3  5741 5389 5386
3  4909 4913 2038
3  5742 3992 3995
3  4445 4001 5740
3  5743 5390 5389
3  4905 4909 2036
3  5744 3989 3992
3  4442 3998 4445
3  4435 5745 4438
3  5746 5393 5390
3  4902 4905 2034
3  5747 3985 3989
3  5742 3995 4442
3  5748 4906 4910
3  4899 4902 2032
3  5749 2024 3985
3  5744 3992 5742
3  4896 4899 2030
3  5750 2019 2024
3  5747 3989 5744
3  5751 5397 4906
3  4893 4896 2028
3  5752 2020 2019
3  5749 3985 5747
3  4420 5753 4423
3  5754 5399 5397
3  4890 4893 2026
3  5755 3981 2020
3  5750 2024 5749
3  5756 5402 5399
3  4887 4890 2022
3  5757 3977 3981
3  5752 2019 5750
3  5758 4417 4413
3  5759 5404 5402
3  4883 4887 2017
3  5760 3974 3977
3  5755 2020 5752
3  5761 5758 4413
3  5762 5406 5404
3  4882 4883 2015
3  5763 3970 3974
3  5757 3981 5755
3  5764 3967 3970
3  5760 3977 5757
3  4879 4881 46
3  5765 3964 3967
3  5763 3974 5760
3  5766 5415 5414
3  4873 4876 2010
3  5767 3961 3964
3  5764 3970 5763
3  5768 5418 5415
3  4870 4873 2008
3  5769 3958 3961
3  5765 3967 5764
3  4403 5770 4406
3  4867 4870 2006
3  5771 3955 3958
3  5767 3964 5765
3  4400 5772 4403
3  5773 5420 5418
3  4864 4867 2004
3  5774 3952 3955
3  5769 3961 5767
3  5775 5422 5420
3  4861 4864 2002
3  5776 3948 3952
3  5771 3958 5769
3  5777 5425 5422
3  4858 4861 2000
3  5778 1992 3948
3  5774 3955 5771
3  5779 5427 5425
3  4855 4858 1998
3  5780 1987 1992
3  5776 3952 5774
3  5781 5429 5427
3  4851 4855 1996
3  5782 1988 1987
3  5778 3948 5776
3  4381 5783 4385
3  5784 5431 5429
3  4850 4851 1994
3  5785 3944 1988
3  5780 1992 5778
3  5786 5433 5431
3  4849 4850 1990
3  5787 3941 3944
3  5782 1987 5780
3  5788 4380 4379
3  5789 3938 3941
3  5785 1988 5782
3  5790 5788 4379
3  4844 4847 49
3  5791 3935 3938
3  5787 3944 5785
3  5792 5439 5437
3  4838 4841 1982
3  5793 3932 3935
3  5789 3941 5787
3  5794 5441 5439
3  4835 4838 1980
3  5795 3929 3932
3  5791 3938 5789
3  5796 5444 5441
3  4831 4835 1978
3  5793 3935 5791
3  5797 5447 5444
3  4827 4831 1976
3  5795 3932 5793
3  5798 5448 5447
3  4824 4827 1974
3  5799 3920 3923
3  4367 3929 5795
3  5800 4828 4832
3  4821 4824 1972
3  5801 3917 3920
3  4363 3926 4367
3  4817 4821 1970
3  5802 3913 3917
3  5799 3923 4363
3  4353 5803 4356
3  5804 5452 4828
3  4816 4817 1968
3  5805 1960 3913
3  5801 3920 5799
3  4350 5806 4353
3  5807 5454 5452
3  4815 4816 1966
3  5808 1955 1960
3  5802 3917 5801
3  5809 5457 5454
3  4813 4815 1964
3  5810 1956 1955
3  5805 3913 5802
3  4342 5811 4343
3  5812 5459 5457
3  4810 4813 1962
3  5813 3909 1956
3  5808 1960 5805
3  5814 3906 3909
3  5810 1955 5808
3  5815 4341 4339
3  4804 4807 52
3  5816 3903 3906
3  5813 1956 5810
3  5817 5815 4339
3  5818 5466 5463
3  4798 4801 1952
3  5819 3900 3903
3  5814 3909 5813
3  5820 5471 5468
3  4795 4798 1950
3  5821 3896 3900
3  5816 3906 5814
3  5822 5474 5471
3  4792 4795 1948
3  5823 3892 3896
3  5819 3903 5816
3  4789 4792 1946
3  5824 3889 3892
3  5821 3900 5819
3  5825 5476 5474
3  4785 4789 1944
3  5826 3886 3889
3  5823 3896 5821
3  5827 5479 5476
3  4784 4785 1942
3  5828 3883 3886
3  5824 3892 5823
3  4321 5829 4324
3  5830 5482 5479
3  4783 4784 1940
3  5831 3880 3883
3  5826 3889 5824
3  4318 5832 4321
3  5833 5483 5482
3  4781 4783 1938
3  5834 3876 3880
3  5828 3886 5826
3  5835 5485 5483
3  4778 4781 1936
3  5836 1928 3876
3  5831 3883 5828
3  5837 5486 5485
3  4775 4778 1934
3  5838 1924 1928
3  5834 3880 5831
3  5839 5487 5486
3  4772 4775 1932
3  5840 1925 1924
3  5836 3876 5834
3  4306 5841 4307
3  5842 3872 1925
3  5838 1928 5836
3  4766 4769 55
3  5843 3869 3872
3  5840 1924 5838
3  5844 4304 4301
3  5845 5496 5493
3  4760 4763 1922
3  5846 3866 3869
3  5842 1925 5840
3  5847 5844 4301
3  5848 5498 5496
3  4757 4760 1920
3  5849 3863 3866
3  5843 3872 5842
3  5850 5501 5498
3  4752 4757 1918
3  5851 3860 3863
3  5846 3869 5843
3  5852 5504 5501
3  4750 4752 1916
3  5853 3857 3860
3  5849 3866 5846
3  5854 5505 5504
3  4749 4750 1914
3  5851 3863 5849
3  5855 4751 4753
3  4746 4749 1912
3  5853 3860 5851
3  4743 4746 1910
3  5856 3848 3851
3  4289 3857 5853
3  5857 5508 4751
3  4740 4743 1908
3  5858 3845 3848
3  4285 3854 4289
3  4278 5859 4281
3  5860 5509 5508
3  4737 4740 1906
3  5861 3842 3845
3  5856 3851 4285
3  5862 5512 5509
3  4734 4737 1904
3  5863 3838 3842
3  5858 3848 5856
3  5864 1895 3838
3  5861 3845 5858
3  4728 4731 58
3  5865 1890 1895
3  5863 3842 5861
3  5866 5521 5518
3  4722 4725 1899
3  5867 1891 1890
3  5864 3838 5863
3  4264 5868 4267
3  5869 5523 5521
3  4718 4722 1897
3  5870 3834 1891
3  5865 1895 5864
3  5871 5526 5523
3  4717 4718 1893
3  5872 3831 3834
3  5867 1890 5865
3  5873 4261 4258
3  5874 5531 5529
3  4716 4717 1888
3  5875 3828 3831
3  5870 1891 5867
3  5876 5873 4258
3  5877 5533 5531
3  4713 4716 1886
3  5878 3825 3828
3  5872 3834 5870
3  4710 4713 1884
3  5879 3822 3825
3  5875 3831 5872
3  5880 5534 5533
3  4707 4710 1882
3  5881 3818 3822
3  5878 3828 5875
3  5882 5537 5534
3  4704 4707 1880
3  5883 3814 3818
3  5879 3825 5878
3  5884 5540 5537
3  4701 4704 1878
3  5885 3811 3814
3  5881 3822 5879
3  4243 5886 4246
3  5887 5542 5540
3  4698 4701 1876
3  5888 3808 3811
3  5883 3818 5881
3  4239 5889 4243
3  5890 5544 5542
3  4695 4698 1874
3  5891 3805 3808
3  5885 3814 5883
3  5892 3801 3805
3  5888 3811 5885
3  4689 4692 61
3  5893 1863 3801
3  5891 3808 5888
3  5894 5553 5550
3  4684 4685 1869
3  5895 1858 1863
3  5892 3805 5891
3  5896 5555 5553
3  4683 4684 1867
3  5897 1859 1858
3  5893 3801 5892
3  4226 5898 4229
3  5899 5558 5555
3  4680 4683 1865
3  5900 3797 1859
3  5895 1863 5893
3  5901 5560 5558
3  4676 4680 1861
3  5902 3794 3797
3  5897 1858 5895
3  5903 4223 4220
3  5904 5561 5560
3  4673 4676 1856
3  5905 3791 3794
3  5900 1859 5897
3  5906 5903 4220
3  5907 4677 4681
3  4670 4673 1854
3  5908 3788 3791
3  5902 3797 5900
3  4667 4670 1852
3  5905 3794 5902
3  5909 5564 4677
3  4664 4667 1850
3  5908 3791 5905
3  5910 5566 5564
3  4661 4664 1848
3  5911 3777 3781
3  4214 3788 5908
3  5912 5569 5566
3  4658 4661 1846
3  5913 3774 3777
3  4210 3785 4214
3  4202 5914 4206
3  5915 5571 5569
3  4655 4658 1844
3  5916 3771 3774
3  5911 3781 4210
3  5917 3768 3771
3  5913 3777 5911
3  4650 4651 64
3  5918 3765 3768
3  5916 3774 5913
3  5919 5580 5577
3  4647 4649 1839
3  5920 3761 3765
3  5917 3771 5916
3  5921 5583 5580
3  4644 4647 1837
3  5922 1829 3761
3  5918 3768 5917
3  5923 5585 5583
3  4641 4644 1835
3  5924 1824 1829
3  5920 3765 5918
3  5925 5587 5585
3  4638 4641 1833
3  5926 1825 1824
3  5922 3761 5920
3  4182 5927 4185
3  5928 5591 5589
3  4635 4638 1831
3  5929 3756 1825
3  5924 1829 5922
3  5930 5593 5591
3  4632 4635 1827
3  5931 3753 3756
3  5926 1824 5924
3  5932 4179 4176
3  4629 4632 1822
3  5933 3750 3753
3  5929 1825 5926
3  5934 5932 4176
3  5935 5595 5593
3  4626 4629 1820
3  5931 3756 5929
3  5936 5598 5595
3  4623 4626 1818
3  5937 3744 3747
3  5933 3753 5931
3  5938 5601 5598
3  4619 4623 1816
3  4173 3750 5933
3  5939 3738 3741
3  5937 3747 4173
3  4165 5940 4166
3  4617 4618 67
3  5941 3734 3738
3  4167 3744 5937
3  5942 5610 5607
3  4612 4615 1811
3  5943 3730 3734
3  5939 3741 4167
3  5944 5611 5610
3  4609 4612 1809
3  5945 3727 3730
3  5941 3738 5939
3  4157 5946 4160
3  5947 5614 5611
3  4606 4609 1807
3  5948 3724 3727
3  5943 3734 5941
3  5949 5617 5614
3  4602 4606 1805
3  5950 3720 3724
3  5945 3730 5943
3  5951 5619 5617
3  4598 4602 1803
3  5952 1795 3720
3  5948 3727 5945
3  5953 5621 5619
3  4595 4598 1801
3  5954 1790 1795
3  5950 3724 5948
3  5955 4599 4603
3  4592 4595 1799
3  5956 1791 1790
3  5952 3720 5950
3  4139 5957 4142
3  4589 4592 1797
3  5958 3715 1791
3  5954 1795 5952
3  5959 5625 4599
3  4585 4589 1793
3  5960 3712 3715
3  5956 1790 5954
3  5961 4136 4132
3  5962 5627 5625
3  4584 4585 1788
3  5963 3709 3712
3  5958 1791 5956
3  5964 5961 4132
3  5965 5630 5627
3  4583 4584 1786
3  5960 3715 5958
3  5963 3712 5960
3  4577 4580 70
3  5966 3700 3703
3  4131 3709 5963
3  5967 5637 5635
3  4571 4574 1781
3  5968 3697 3700
3  4129 3706 4131
3  4122 5969 4125
3  5970 5639 5637
3  4568 4571 1779
3  5971 3694 3697
3  5966 3703 4129
3  5972 5641 5639
3  4565 4568 1777
3  5973 3691 3694
3  5968 3700 5966
3  5974 5644 5641
3  4562 4565 1775
3  5975 3688 3691
3  5971 3697 5968
3  5976 5646 5644
3  4559 4562 1773
3  5977 3685 3688
3  5973 3694 5971
3  5978 5650 5648
3  4556 4559 1771
3  5979 3681 3685
3  5975 3691 5973
3  5980 5652 5650
3  4553 4556 1769
3  5981 1761 3681
3  5977 3688 5975
3  4549 4553 1767
3  5982 1756 1761
3  5979 3685 5977
3  5983 5654 5652
3  4548 4549 1765
3  5984 1757 1756
3  5981 3681 5979
3  4094 5985 4098
3  5986 5657 5654
3  4547 4548 1763
3  5987 3677 1757
3  5982 1761 5981
3  5988 5660 5657
3  4545 4547 1759
3  5989 3674 3677
3  5984 1756 5982
3  5990 4093 4092
3  5991 3671 3674
3  5987 1757 5984
3  5992 5990 4092
3  4539 4542 73
3  5993 3668 3671
3  5989 3677 5987
3  5994 5668 5665
3  4533 4536 1751
3  5995 3665 3668
3  5991 3674 5989
3  4087 5996 4090
3  5997 5670 5668
3  4530 4533 1749
3  5998 3662 3665
3  5993 3671 5991
3  4084 5999 4087
3  6000 5673 5670
3  4527 4530 1747
3  6001 3659 3662
3  5995 3668 5993
3  6002 5676 5673
3  4524 4527 1745
3  6003 3655 3659
3  5998 3665 5995
3  6004 5678 5676
3  4520 4524 1743
3  6005 3651 3655
3  6001 3662 5998
3  6006 5680 5678
3  4515 4520 1741
3  6007 3648 3651
3  6003 3659 6001
3  6008 5682 5680
3  4514 4515 1739
3  6009 3644 3648
3  6005 3655 6003
3  6010 4516 4521
3  4513 4514 1737
3  6011 1729 3644
3  6007 3651 6005
3  4510 4513 1735
3  6012 1724 1729
3  6009 3648 6007
3  6013 5686 4516
3  4507 4510 1733
3  6014 1725 1724
3  6011 3644 6009
3  4058 6015 4059
3  6016 5687 5686
3  4504 4507 1731
3  6017 3640 1725
3  6012 1729 6011
3  6018 3637 3640
3  6014 1724 6012
3  6019 4057 4054
3  4498 4501 76
3  6017 1725 6014
3  6020 6019 4054
3  6021 5696 5693
3  4492 4495 1721
3  6018 3640 6017
3  6022 5697 5696
3  4489 4492 1719
3  6023 3628 3631
3  4055 3637 6018
3  6024 5700 5697
3  4486 4489 1717
3  6025 3625 3628
3  4051 3634 4055
3  4044 6026 4047
3  6027 5703 5700
3  4482 4486 1715
3  6028 3622 3625
3  6023 3631 4051
3  6029 5705 5703
3  4481 4482 1713
3  6030 3619 3622
3  6025 3628 6023
3  6031 5709 5707
3  4480 4481 1711
3  6032 3616 3619
3  6028 3625 6025
3  6033 5711 5709
3  4478 4480 1709
3  6034 3613 3616
3  6030 3622 6028
3  4475 4478 1707
3  6035 3610 3613
3  6032 3619 6030
3  6036 5712 5711
3  4472 4475 1705
3  6037 3606 3610
3  6034 3616 6032
3  6038 5715 5712
3  4469 4472 1703
3  6039 1696 3606
3  6035 3613 6034
3  6040 5718 5715
3  4466 4469 1701
3  6041 1691 1696
3  6037 3610 6035
3  6042 1692 1691
3  6039 3606 6037
3  4018 6043 4020
3  4460 4463 79
3  6044 3602 1692
3  6041 1696 6039
3  6045 5726 5723
3  4454 4457 1694
3  6046 3599 3602
3  6042 1691 6041
3  6047 4015 4012
3  6048 5728 5726
3  4451 4454 1689
3  6049 3596 3599
3  6044 1692 6042
3  6050 5731 5728
3  4447 4451 1687
3  6051 3593 3596
3  6046 3602 6044
3  6052 5734 5731
3  4446 4447 1685
3  6053 3590 3593
3  6049 3599 6046
3  4006 6054 4009
3  6055 5736 5734
3  4444 4446 1683
3  6056 3587 3590
3  6051 3596 6049
3  6057 5738 5736
3  4441 4444 1681
3  6058 3584 3587
3  6053 3593 6051
3  6059 5740 5738
3  4438 4441 1679
3  6060 3581 3584
3  6056 3590 6053
3  6061 4442 4445
3  4435 4438 1677
3  6062 3577 3581
3  6058 3587 6056
3  4432 4435 1675
3  6063 3573 3577
3  6060 3584 6058
3  6064 5742 4442
3  4429 4432 1673
3  6065 3570 3573
3  6062 3581 6060
3  6066 5744 5742
3  4426 4429 1671
3  6067 3567 3570
3  6063 3577 6062
3  6068 5747 5744
3  4423 4426 1669
3  6069 3563 3567
3  6065 3573 6063
3  6070 1659 3563
3  6067 3570 6065
3  4417 4420 82
3  6069 3567 6067
3  6071 5755 5752
3  4412 4413 1664
3  6072 2572 1660
3  6070 3563 6069
3  3972 6073 3976
3  6074 5757 5755
3  4411 4412 1662
3  3980 1659 6070
3  6075 5760 5757
3  4409 4411 1657
3  6076 3556 3559
3  6072 1660 3980
3  6077 6078 6079
3  6080 5763 5760
3  4406 4409 1655
3  6081 3553 3556
3  3973 2572 6072
3  6082 5765 5764
3  4403 4406 1653
3  6083 3550 3553
3  6076 3559 3973
3  6084 5767 5765
3  4400 4403 1651
3  6085 3547 3550
3  6081 3556 6076
3  3960 6086 3963
3  4397 4400 1649
3  6087 3544 3547
3  6083 3553 6081
3  6088 5769 5767
3  4394 4397 1647
3  6089 3541 3544
3  6085 3550 6083
3  6090 5771 5769
3  4391 4394 1645
3  6091 3538 3541
3  6087 3547 6085
3  6092 5774 5771
3  4388 4391 1643
3  6093 3535 3538
3  6089 3544 6087
3  6094 5776 5774
3  4385 4388 1641
3  6095 3532 3535
3  6091 3541 6089
3  6096 3529 3532
3  6093 3538 6091
3  4380 4381 85
3  6097 3525 3529
3  6095 3535 6093
3  6098 5785 5782
3  4376 4379 1636
3  6099 1628 3525
3  6096 3532 6095
3  6100 5787 5785
3  4373 4376 1634
3  6101 1623 1628
3  6097 3529 6096
3  6102 5789 5787
3  4370 4373 1632
3  6103 1624 1623
3  6099 3525 6097
3  3931 6104 3934
3  6105 5791 5789
3  4366 4370 1630
3  6106 3521 1624
3  6101 1628 6099
3  6107 5793 5791
3  4362 4366 1626
3  6108 3518 3521
3  6103 1623 6101
3  6109 3928 3925
3  6110 5795 5793
3  4359 4362 1621
3  6111 3515 3518
3  6106 1624 6103
3  6112 6109 3925
3  6113 4367 5795
3  4356 4359 1619
3  6114 3512 3515
3  6108 3521 6106
3  6115 5799 4363
3  4353 4356 1617
3  6116 3508 3512
3  6111 3518 6108
3  6117 5801 5799
3  4350 4353 1615
3  6118 3504 3508
3  6114 3515 6111
3  4347 4350 1613
3  6119 3501 3504
3  6116 3512 6114
3  6120 5802 5801
3  4343 4347 1611
3  6121 3498 3501
3  6118 3508 6116
3  6122 3495 3498
3  6119 3504 6118
3  4341 4342 88
3  6123 3492 3495
3  6121 3501 6119
3  6124 5813 5810
3  4336 4339 1606
3  6125 3489 3492
3  6122 3498 6121
3  6126 5814 5813
3  4333 4336 1604
3  6127 3485 3489
3  6123 3495 6122
3  6128 5816 5814
3  4330 4333 1602
3  6125 3492 6123
3  6129 5819 5816
3  4327 4330 1600
3  6127 3489 6125
3  6130 5821 5819
3  4324 4327 1598
3  6131 1590 1589
3  3899 3485 6127
3  6132 6133 6134
3  6135 5824 5823
3  4321 4324 1596
3  6136 3481 1590
3  3895 1594 3899
3  3888 6133 3891
3  6137 5826 5824
3  4318 4321 1592
3  6138 3478 3481
3  6131 1589 3895
3  6139 6132 6134
3  4315 4318 1587
3  6140 3475 3478
3  6136 1590 6131
3  6141 5828 5826
3  4312 4315 1585
3  6142 3472 3475
3  6138 3481 6136
3  6143 5831 5828
3  4308 4312 1583
3  6144 3468 3472
3  6140 3478 6138
3  6145 5834 5831
3  4307 4308 1581
3  6146 3464 3468
3  6142 3475 6140
3  6147 3461 3464
3  6144 3472 6142
3  4304 4306 91
3  6148 3458 3461
3  6146 3468 6144
3  6149 5842 5840
3  4298 4301 1576
3  6150 3455 3458
3  6147 3464 6146
3  6151 5843 5842
3  4295 4298 1574
3  6152 3452 3455
3  6148 3461 6147
3  6153 5846 5843
3  4292 4295 1572
3  6154 3449 3452
3  6150 3458 6148
3  6155 5849 5846
3  4288 4292 1570
3  6156 3446 3449
3  6152 3455 6150
3  6157 5851 5849
3  4284 4288 1568
3  6158 3442 3446
3  6154 3452 6152
3  6159 5853 5851
3  4281 4284 1566
3  6160 1558 3442
3  6156 3449 6154
3  3853 6161 3856
3  6162 4285 4289
3  4278 4281 1564
3  6163 1553 1558
3  6158 3446 6156
3  3850 6164 3853
3  4274 4278 1562
3  6165 1554 1553
3  6160 3442 6158
3  3844 6166 3847
3  6167 5856 4285
3  4273 4274 1560
3  6168 3438 1554
3  6163 1558 6160
3  6169 5858 5856
3  4272 4273 1556
3  6170 3435 3438
3  6165 1553 6163
3  6171 3841 3837
3  6172 5861 5858
3  4270 4272 1551
3  6173 3432 3435
3  6168 1554 6165
3  6174 6171 3837
3  6175 5863 5861
3  4267 4270 1549
3  6176 3429 3432
3  6170 3438 6168
3  6177 3425 3429
3  6173 3435 6170
3  4261 4264 94
3  6178 3421 3425
3  6176 3432 6173
3  6179 5870 5867
3  4255 4258 1544
3  6180 3418 3421
3  6177 3429 6176
3  6181 5872 5870
3  4252 4255 1542
3  6182 3415 3418
3  6178 3425 6177
3  6183 5875 5872
3  4249 4252 1540
3  6184 3412 3415
3  6180 3421 6178
3  6185 5878 5875
3  4246 4249 1538
3  6182 3418 6180
3  6186 5881 5879
3  4243 4246 1536
3  6184 3415 6182
3  6187 5883 5881
3  4239 4243 1534
3  6188 3402 3406
3  3821 3412 6184
3  4238 4239 1532
3  6189 1524 3402
3  3817 3409 3821
3  3810 6190 3813
3  6191 5885 5883
3  4237 4238 1530
3  6192 1519 1524
3  6188 3406 3817
3  6193 5888 5885
3  4235 4237 1528
3  6194 1520 1519
3  6189 3402 6188
3  3800 6195 3804
3  6196 5891 5888
3  4232 4235 1526
3  6197 3398 1520
3  6192 1524 6189
3  6198 5892 5891
3  4229 4232 1522
3  6199 3395 3398
3  6194 1519 6192
3  6200 3799 3798
3  6201 3392 3395
3  6197 1520 6194
3  6202 6200 3798
3  4223 4226 97
3  6203 3389 3392
3  6199 3398 6197
3  6204 5900 5897
3  4217 4220 1514
3  6205 3385 3389
3  6201 3395 6199
3  6206 5902 5900
3  4213 4217 1512
3  6207 3381 3385
3  6203 3392 6201
3  6208 5905 5902
3  4209 4213 1510
3  6209 3378 3381
3  6205 3389 6203
3  6210 5908 5905
3  4206 4209 1508
3  6207 3385 6205
3  6211 4210 4214
3  4202 4206 1506
3  6209 3381 6207
3  4201 4202 1504
3  6212 3369 3372
3  3784 3378 6209
3  6213 5911 4210
3  4200 4201 1502
3  6214 3366 3369
3  3780 3375 3784
3  3773 6215 3776
3  6216 5913 5911
3  4197 4200 1500
3  6217 3363 3366
3  6212 3372 3780
3  3770 6218 3773
3  6219 5916 5913
3  4194 4197 1498
3  6220 3359 3363
3  6214 3369 6212
3  6221 5917 5916
3  4191 4194 1496
3  6222 1488 3359
3  6217 3366 6214
3  6223 5918 5917
3  4188 4191 1494
3  6224 1484 1488
3  6220 3363 6217
3  6225 5920 5918
3  4185 4188 1492
3  6226 1485 1484
3  6222 3359 6220
3  3758 6227 3759
3  6228 3354 1485
3  6224 1488 6222
3  4179 4182 100
3  6229 3351 3354
3  6226 1484 6224
3  6230 3755 3752
3  6231 5929 5926
3  4172 4176 1482
3  6232 3348 3351
3  6228 1485 6226
3  6233 6230 3752
3  6234 5931 5929
3  4168 4172 1480
3  6235 3344 3348
3  6229 3354 6228
3  6236 5933 5931
3  4166 4168 1478
3  6237 3340 3344
3  6232 3351 6229
3  6238 5937 4173
3  4165 4166 1476
3  6239 3337 3340
3  6235 3348 6232
3  4163 4165 1474
3  6240 3334 3337
3  6237 3344 6235
3  6241 4167 5937
3  4160 4163 1472
3  6239 3340 6237
3  6242 5941 5939
3  4157 4160 1470
3  6240 3337 6239
3  4154 4157 1468
3  6243 3325 3328
3  3737 3334 6240
3  6244 5943 5941
3  4151 4154 1466
3  6245 3322 3325
3  3733 3331 3737
3  3726 6246 3729
3  6247 5945 5943
3  4148 4151 1464
3  6248 3319 3322
3  6243 3328 3733
3  6249 5948 5945
3  4145 4148 1462
3  6250 3315 3319
3  6245 3325 6243
3  6251 5950 5948
3  4142 4145 1460
3  6252 1453 3315
3  6248 3322 6245
3  6253 1448 1453
3  6250 3319 6248
3  4136 4139 103
3  6254 1449 1448
3  6252 3315 6250
3  3711 6255 3714
3  6256 5958 5956
3  4130 4132 1455
3  6257 3311 1449
3  6253 1453 6252
3  6258 5960 5958
3  4128 4130 1451
3  6259 3308 3311
3  6254 1448 6253
3  6260 3708 3705
3  6261 5963 5960
3  4125 4128 1446
3  6262 3304 3308
3  6257 1449 6254
3  6263 6260 3705
3  6264 4129 4131
3  4122 4125 1444
3  6265 3300 3304
3  6259 3311 6257
3  4119 4122 1442
3  6266 3297 3300
3  6262 3308 6259
3  6267 5966 4129
3  4116 4119 1440
3  6268 3294 3297
3  6265 3304 6262
3  6269 5968 5966
3  4113 4116 1438
3  6270 3291 3294
3  6266 3300 6265
3  3693 6271 3696
3  6272 5971 5968
3  4110 4113 1436
3  6273 3288 3291
3  6268 3297 6266
3  3690 6274 3693
3  6275 5973 5971
3  4107 4110 1434
3  6276 3285 3288
3  6270 3294 6268
3  6277 5975 5973
3  4104 4107 1432
3  6278 3282 3285
3  6273 3291 6270
3  6279 5977 5975
3  4101 4104 1430
3  6280 3279 3282
3  6276 3288 6273
3  6281 5979 5977
3  4098 4101 1428
3  6282 3276 3279
3  6278 3285 6276
3  6283 3272 3276
3  6280 3282 6278
3  4093 4094 106
3  6284 1417 3272
3  6282 3279 6280
3  6285 5987 5984
3  4090 4092 1423
3  6286 1412 1417
3  6283 3276 6282
3  6287 5991 5989
3  4087 4090 1421
3  6288 1413 1412
3  6284 3272 6283
3  3667 6289 3670
3  6290 5993 5991
3  4084 4087 1419
3  6291 3268 1413
3  6286 1417 6284
3  4081 4084 1415
3  6292 3264 3268
3  6288 1412 6286
3  6293 3664 3661
3  6294 5995 5993
3  4078 4081 1410
3  6295 3260 3264
3  6291 1413 6288
3  6296 6293 3661
3  6297 5998 5995
3  4075 4078 1408
3  6292 3268 6291
3  6298 6001 5998
3  4072 4075 1406
3  6295 3264 6292
3  6299 6003 6001
3  4069 4072 1404
3  6300 3251 3254
3  3658 3260 6295
3  6301 6005 6003
3  4066 4069 1402
3  6302 3248 3251
3  3654 3257 3658
3  3647 6303 3650
3  6304 6007 6005
3  4063 4066 1400
3  6305 3245 3248
3  6300 3254 3654
3  6306 6009 6007
3  4059 4063 1398
3  6307 3242 3245
3  6302 3251 6300
3  6308 3239 3242
3  6305 3248 6302
3  4057 4058 109
3  6309 3236 3239
3  6307 3245 6305
3  6310 6017 6014
3  4050 4054 1393
3  6311 3233 3236
3  6308 3242 6307
3  6312 6018 6017
3  4047 4050 1391
3  6313 3229 3233
3  6309 3239 6308
3  6314 4051 4055
3  4044 4047 1389
3  6315 1380 3229
3  6311 3236 6309
3  4041 4044 1387
3  6316 1381 1380
3  6313 3233 6311
3  6317 6023 4051
3  4038 4041 1385
3  6318 2581 1381
3  6315 3229 6313
3  3621 6319 3624
3  6320 6025 6023
3  4035 4038 1383
3  6321 3224 2581
3  6316 1380 6315
3  6322 6028 6025
3  4032 4035 1378
3  6323 3220 3224
3  6318 1381 6316
3  6324 3618 3615
3  6325 6030 6028
3  4029 4032 1376
3  6326 3217 3220
3  6321 2581 6318
3  6327 6032 6030
3  4026 4029 1374
3  6328 3214 3217
3  6323 3224 6321
3  6329 6324 3615
3  6330 6034 6032
3  4022 4026 1372
3  6331 3211 3214
3  6326 3220 6323
3  6332 6035 6034
3  4021 4022 1370
3  6333 3208 3211
3  6328 3217 6326
3  6334 6037 6035
3  4020 4021 1368
3  6335 3205 3208
3  6331 3214 6328
3  6336 3202 3205
3  6333 3211 6331
3  4015 4018 112
3  6337 3199 3202
3  6335 3208 6333
3  6338 6046 6044
3  4009 4012 1363
3  6339 3196 3199
3  6336 3205 6335
3  6340 6049 6046
3  4006 4009 1361
3  6341 3193 3196
3  6337 3202 6336
3  4003 4006 1359
3  6342 3190 3193
3  6339 3199 6337
3  6343 6051 6049
3  4000 4003 1357
3  6344 3186 3190
3  6341 3196 6339
3  6345 6053 6051
3  3997 4000 1355
3  6346 1346 3186
3  6342 3193 6341
3  6347 6056 6053
3  3994 3997 1353
3  6348 1347 1346
3  6344 3190 6342
3  6349 6058 6056
3  3991 3994 1351
3  6346 3186 6344
3  3575 6350 3579
3  6351 6060 6058
3  3988 3991 1349
3  6348 1346 6346
3  6352 6062 6060
3  3984 3988 1344
3  6353 3177 3180
3  3580 1347 6348
3  6354 3572 3569
3  6355 6063 6062
3  3983 3984 1342
3  6356 3174 3177
3  3576 2584 3580
3  6357 6065 6063
3  3982 3983 1340
3  6358 3171 3174
3  6353 3180 3576
3  6359 6067 6065
3  3979 3982 1338
3  6360 3168 3171
3  6356 3177 6353
3  3969 6361 6079
3  6362 6069 6067
3  3976 3979 1336
3  6363 3165 3168
3  6358 3174 6356
3  6364 3162 3165
3  6360 3171 6358
3  3969 3972 115
3  6365 3159 3162
3  6363 3168 6360
3  6366 3973 6072
3  3963 3966 1331
3  6367 3156 3159
3  6364 3165 6363
3  6368 6081 6076
3  3960 3963 1329
3  6369 3153 3156
3  6365 3162 6364
3  3957 3960 1327
3  6370 3150 3153
3  6367 3159 6365
3  6371 6083 6081
3  3954 3957 1325
3  6372 3147 3150
3  6369 3156 6367
3  6373 6085 6083
3  3951 3954 1323
3  6374 3144 3147
3  6370 3153 6369
3  6375 6087 6085
3  3947 3951 1321
3  6376 3139 3144
3  6372 3150 6370
3  6377 6089 6087
3  3946 3947 1319
3  6378 1311 3139
3  6374 3147 6372
3  6379 6091 6089
3  3945 3946 1317
3  6380 1306 1311
3  6376 3144 6374
3  3534 6381 3537
3  6382 6093 6091
3  3943 3945 1315
3  6383 1307 1306
3  6378 3139 6376
3  3531 6384 3534
3  6385 6095 6093
3  3940 3943 1313
3  6386 3134 1307
3  6380 1311 6378
3  6387 6096 6095
3  3937 3940 1309
3  6388 3131 3134
3  6383 1306 6380
3  6389 3524 3523
3  6390 6097 6096
3  3934 3937 1304
3  6391 3128 3131
3  6386 1307 6383
3  6392 6389 3523
3  6393 3125 3128
3  6388 3134 6386
3  3928 3931 118
3  6394 3122 3125
3  6391 3131 6388
3  6395 6106 6103
3  3922 3925 1299
3  6396 3119 3122
3  6393 3128 6391
3  6397 6108 6106
3  3919 3922 1297
3  6398 3116 3119
3  6394 3125 6393
3  6399 6111 6108
3  3916 3919 1295
3  6396 3122 6394
3  6400 6114 6111
3  3912 3916 1293
3  6398 3119 6396
3  6401 6116 6114
3  3911 3912 1291
3  6402 3107 3110
3  3511 3116 6398
3  6403 6118 6116
3  3910 3911 1289
3  6404 3104 3107
3  3507 3113 3511
3  3500 6405 3503
3  6406 6119 6118
3  3908 3910 1287
3  6407 3100 3104
3  6402 3110 3507
3  6408 6121 6119
3  3905 3908 1285
3  6409 3095 3100
3  6404 3107 6402
3  3494 6410 3497
3  6411 6122 6121
3  3902 3905 1283
3  6412 1275 3095
3  6407 3104 6404
3  6413 6123 6122
3  3898 3902 1281
3  6414 1270 1275
3  6409 3100 6407
3  6415 6125 6123
3  3894 3898 1279
3  6416 1271 1270
3  6412 3095 6409
3  3483 6417 3484
3  3885 6418 6134
3  6419 6127 6125
3  3891 3894 1277
3  6420 3091 1271
3  6414 1275 6412
3  3482 6421 3483
3  6422 3088 3091
3  6416 1270 6414
3  6423 3482 3480
3  3885 3888 121
3  6424 3085 3088
3  6420 1271 6416
3  6425 6423 3480
3  6426 6136 6131
3  3879 3882 1267
3  6427 3082 3085
3  6422 3091 6420
3  6428 6138 6136
3  3875 3879 1265
3  6429 3079 3082
3  6424 3088 6422
3  6430 6140 6138
3  3874 3875 1263
3  6427 3085 6424
3  6431 6142 6140
3  3873 3874 1261
3  6429 3082 6427
3  6432 6144 6142
3  3871 3873 1259
3  6433 3070 3073
3  3471 3079 6429
3  6434 6146 6144
3  3868 3871 1257
3  6435 3067 3070
3  3467 3076 3471
3  3460 6436 3463
3  6437 6147 6146
3  3865 3868 1255
3  6438 3064 3067
3  6433 3073 3467
3  6439 6148 6147
3  3862 3865 1253
3  6440 3061 3064
3  6435 3070 6433
3  3454 6441 3457
3  6442 6150 6148
3  3859 3862 1251
3  6443 3057 3061
3  6438 3067 6435
3  6444 6152 6150
3  3856 3859 1249
3  6445 3053 3057
3  6440 3064 6438
3  6446 6156 6154
3  3853 3856 1247
3  6447 3049 3053
3  6443 3061 6440
3  6448 6158 6156
3  3850 3853 1245
3  6449 1238 3049
3  6445 3057 6443
3  3847 3850 1243
3  6450 1233 1238
3  6447 3053 6445
3  6451 1234 1233
3  6449 3049 6447
3  3437 6452 3439
3  3841 3844 124
3  6453 3044 1234
3  6450 1238 6449
3  6454 6168 6165
3  3836 3837 1236
3  6455 3041 3044
3  6451 1233 6450
3  6456 3434 3431
3  6457 6170 6168
3  3835 3836 1231
3  6458 3038 3041
3  6453 1234 6451
3  6459 6456 3431
3  6460 6173 6170
3  3833 3835 1229
3  6455 3044 6453
3  6461 6176 6173
3  3830 3833 1227
3  6458 3041 6455
3  6462 6177 6176
3  3827 3830 1225
3  6463 3029 3032
3  3428 3038 6458
3  6464 6178 6177
3  3824 3827 1223
3  6465 3026 3029
3  3424 3035 3428
3  3417 6466 3420
3  6467 6180 6178
3  3820 3824 1221
3  6468 3023 3026
3  6463 3032 3424
3  6469 6182 6180
3  3816 3820 1219
3  6470 3020 3023
3  6465 3029 6463
3  3411 6471 3414
3  6472 6184 6182
3  3813 3816 1217
3  6473 3016 3020
3  6468 3026 6465
3  6474 3817 3821
3  3810 3813 1215
3  6475 3012 3016
3  6470 3023 6468
3  3807 3810 1213
3  6476 3009 3012
3  6473 3020 6470
3  6477 6188 3817
3  3804 3807 1211
3  6478 3006 3009
3  6475 3016 6473
3  6479 3002 3006
3  6476 3012 6475
3  3799 3800 127
3  6480 1200 3002
3  6478 3009 6476
3  6481 6197 6194
3  3796 3798 1206
3  6482 1195 1200
3  6479 3006 6478
3  6483 6199 6197
3  3793 3796 1204
3  6484 1196 1195
3  6480 3002 6479
3  3387 6485 3391
3  6486 6201 6199
3  3790 3793 1202
3  6482 1200 6480
3  6487 6203 6201
3  3787 3790 1198
3  6484 1195 6482
3  6488 3383 3380
3  6489 6205 6203
3  3783 3787 1193
3  6490 2992 2995
3  3388 1196 6484
3  6491 6492 6493
3  6494 6207 6205
3  3779 3783 1191
3  6495 2989 2992
3  3384 2998 3388
3  6496 6209 6207
3  3776 3779 1189
3  6497 2986 2989
3  6490 2995 3384
3  6498 3780 3784
3  3773 3776 1187
3  6499 2983 2986
3  6495 2992 6490
3  3371 6500 3374
3  6501 6212 3780
3  3770 3773 1185
3  6502 2980 2983
3  6497 2989 6495
3  3767 3770 1183
3  6503 2976 2980
3  6499 2986 6497
3  6504 6214 6212
3  3764 3767 1181
3  6505 2972 2976
3  6502 2983 6499
3  6506 6217 6214
3  3760 3764 1179
3  6507 2969 2972
3  6503 2980 6502
3  6508 6220 6217
3  3759 3760 1177
3  6509 2966 2969
3  6505 2976 6503
3  6510 2963 2966
3  6507 2972 6505
3  3755 3758 130
3  6511 2960 2963
3  6509 2969 6507
3  6512 6228 6226
3  3749 3752 1172
3  6513 2956 2960
3  6510 2966 6509
3  6514 6229 6228
3  3746 3749 1170
3  6511 2963 6510
3  6515 6232 6229
3  3743 3746 1168
3  6513 2960 6511
3  6516 6235 6232
3  3740 3743 1166
3  6517 1158 1157
3  3347 2956 6513
3  6518 6519 6520
3  6521 6237 6235
3  3736 3740 1164
3  6522 2951 1158
3  3343 1162 3347
3  3336 6519 3339
3  6523 6239 6237
3  3732 3736 1160
3  6524 2948 2951
3  6517 1157 3343
3  6525 3333 3330
3  6526 6240 6239
3  3729 3732 1155
3  6527 2945 2948
3  6522 1158 6517
3  6528 6525 3330
3  6529 3733 3737
3  3726 3729 1153
3  6530 2942 2945
3  6524 2951 6522
3  3723 3726 1151
3  6531 2939 2942
3  6527 2948 6524
3  6532 6243 3733
3  3719 3723 1149
3  6533 2935 2939
3  6530 2945 6527
3  6534 6245 6243
3  3718 3719 1147
3  6535 2931 2935
3  6531 2942 6530
3  6536 6248 6245
3  3717 3718 1145
3  6537 2928 2931
3  6533 2939 6531
3  6538 6250 6248
3  3714 3717 1143
3  6539 2925 2928
3  6535 2935 6533
3  6540 2922 2925
3  6537 2931 6535
3  3708 3711 133
3  6541 2919 2922
3  6539 2928 6537
3  6542 6257 6254
3  3702 3705 1138
3  6540 2925 6539
3  6543 6259 6257
3  3699 3702 1136
3  6541 2922 6540
3  6544 6262 6259
3  3696 3699 1134
3  6545 2910 2913
3  3307 2919 6541
3  6546 6266 6265
3  3693 3696 1132
3  6547 2906 2910
3  3303 2916 3307
3  3296 6548 3299
3  6549 6268 6266
3  3690 3693 1130
3  6550 1122 2906
3  6545 2913 3303
3  3687 3690 1128
3  6551 1117 1122
3  6547 2910 6545
3  3290 6552 3293
3  6553 6270 6268
3  3684 3687 1126
3  6554 1118 1117
3  6550 2906 6547
3  3284 6555 3287
3  6556 6273 6270
3  3680 3684 1124
3  6557 2902 1118
3  6551 1122 6550
3  6558 6276 6273
3  3679 3680 1120
3  6559 2899 2902
3  6554 1117 6551
3  6560 6561 6562
3  6563 6278 6276
3  3678 3679 1115
3  6564 2895 2899
3  6557 1118 6554
3  6565 6280 6278
3  3676 3678 1113
3  6566 2891 2895
3  6559 2902 6557
3  6567 6282 6280
3  3673 3676 1111
3  6568 2888 2891
3  6564 2899 6559
3  6569 6283 6282
3  3670 3673 1109
3  6570 2885 2888
3  6566 2895 6564
3  6571 2882 2885
3  6568 2891 6566
3  3664 3667 136
3  6570 2888 6568
3  6572 6291 6288
3  3657 3661 1104
3  6571 2885 6570
3  6573 6292 6291
3  3653 3657 1102
3  6574 2873 2876
3  3267 2882 6571
3  6575 6295 6292
3  3650 3653 1100
3  6576 2870 2873
3  3263 2879 3267
3  3256 6577 3259
3  6578 3654 3658
3  3647 3650 1098
3  6579 2867 2870
3  6574 2876 3263
3  3643 3647 1096
3  6580 2864 2867
3  6576 2873 6574
3  3250 6581 3253
3  6582 6300 3654
3  3642 3643 1094
3  6583 2860 2864
3  6579 2870 6576
3  6584 6302 6300
3  3641 3642 1092
3  6585 1084 2860
3  6580 2867 6579
3  6586 6305 6302
3  3639 3641 1090
3  6587 1079 1084
3  6583 2864 6580
3  6588 6307 6305
3  3636 3639 1088
3  6589 1080 1079
3  6585 2860 6583
3  3235 6590 3238
3  6591 6308 6307
3  3633 3636 1086
3  6592 2855 1080
3  6587 1084 6585
3  6593 6309 6308
3  3630 3633 1082
3  6594 2851 2855
3  6589 1079 6587
3  6595 3232 3228
3  6596 6311 6309
3  3627 3630 1077
3  6597 2848 2851
3  6592 1080 6589
3  6598 6595 3228
3  6599 6313 6311
3  3624 3627 1075
3  6600 2845 2848
3  6594 2855 6592
3  6597 2851 6594
3  6601 6316 6315
3  3618 3621 139
3  6600 2848 6597
3  6602 6323 6321
3  3612 3615 1070
3  6603 2836 2839
3  3226 2845 6600
3  3609 3612 1068
3  6604 2833 2836
3  3223 2842 3226
3  3216 6605 3219
3  6606 6326 6323
3  3605 3609 1066
3  6607 2830 2833
3  6603 2839 3223
3  6608 6328 6326
3  3604 3605 1064
3  6609 2827 2830
3  6604 2836 6603
3  3210 6610 3213
3  6611 6331 6328
3  3603 3604 1062
3  6612 2824 2827
3  6607 2833 6604
3  6613 6333 6331
3  3601 3603 1060
3  6614 2821 2824
3  6609 2830 6607
3  6615 6335 6333
3  3598 3601 1058
3  6616 2818 2821
3  6612 2827 6609
3  6617 6336 6335
3  3595 3598 1056
3  6618 2815 2818
3  6614 2824 6612
3  6619 6337 6336
3  3592 3595 1054
3  6620 2810 2815
3  6616 2821 6614
3  6621 6339 6337
3  3589 3592 1052
3  6622 1044 2810
3  6618 2818 6616
3  6623 6341 6339
3  3586 3589 1050
3  6624 1039 1044
3  6620 2815 6618
3  6625 6342 6341
3  3583 3586 1048
3  6626 1040 1039
3  6622 2810 6620
3  3183 6627 3185
3  6628 6344 6342
3  3579 3583 1046
3  6624 1044 6622
3  6626 1039 6624
3  6629 3181 3179
3  6630 6348 6346
3  3572 3575 142
3  6631 2798 2801
3  3184 1040 6626
3  6632 6633 6634
3  6635 3576 3580
3  3566 3569 1036
3  6636 2795 2798
3  3182 2804 3184
3  6637 6353 3576
3  3562 3566 1034
3  6638 2792 2795
3  6631 2801 3182
3  6639 6356 6353
3  3561 3562 1032
3  6640 2789 2792
3  6636 2798 6631
3  3170 6641 3173
3  6642 6358 6356
3  3560 3561 1030
3  6643 2786 2789
3  6638 2795 6636
3  6644 6360 6358
3  3558 3560 1028
3  6645 2783 2786
3  6640 2792 6638
3  6646 6363 6360
3  3555 3558 1026
3  6647 2780 2783
3  6643 2789 6640
3  6648 6364 6363
3  3552 3555 1024
3  6649 2777 2780
3  6645 2786 6643
3  6650 6365 6364
3  3549 3552 1022
3  6651 2773 2777
3  6647 2783 6645
3  6652 6367 6365
3  3546 3549 1020
3  6653 2769 2773
3  6649 2780 6647
3  6654 6369 6367
3  3543 3546 1018
3  6655 2766 2769
3  6651 2777 6649
3  6656 6370 6369
3  3540 3543 1016
3  6657 2763 2766
3  6653 2773 6651
3  6658 6372 6370
3  3537 3540 1014
3  6655 2769 6653
3  6659 6376 6374
3  3534 3537 1012
3  6657 2766 6655
3  6660 6378 6376
3  3531 3534 1010
3  6661 1002 2756
3  3143 2763 6657
3  6662 1003 1002
3  3138 2760 3143
3  3135 6663 3136
3  3524 3528 145
3  6664 2592 1003
3  6661 2756 3138
3  6665 6666 6667
3  6668 6386 6383
3  3522 3523 1005
3  6669 2752 2592
3  6662 1002 6661
3  3130 6666 3133
3  6670 6388 6386
3  3520 3522 1000
3  6671 2749 2752
3  6664 1003 6662
3  6672 6391 6388
3  3517 3520 998
3  6673 2746 2749
3  6669 2592 6664
3  6674 6393 6391
3  3514 3517 996
3  6675 2743 2746
3  6671 2752 6669
3  6676 6394 6393
3  3510 3514 994
3  6677 2740 2743
3  6673 2749 6671
3  6678 6396 6394
3  3506 3510 992
3  6679 2736 2740
3  6675 2746 6673
3  6680 6398 6396
3  3503 3506 990
3  6681 2732 2736
3  6677 2743 6675
3  6682 3507 3511
3  3500 3503 988
3  6683 2729 2732
3  6679 2740 6677
3  3497 3500 986
3  6684 2726 2729
3  6681 2736 6679
3  6685 6404 6402
3  3494 3497 984
3  6683 2732 6681
3  3491 3494 982
3  6684 2729 6683
3  6686 6407 6404
3  3488 3491 980
3  6687 2717 2720
3  3103 2726 6684
3  6688 6409 6407
3  3484 3488 978
3  6689 2714 2717
3  3099 2723 3103
3  3093 6690 3094
3  6691 2711 2714
3  6687 2720 3099
3  6692 6414 6412
3  6693 2707 2711
3  6689 2717 6687
3  3090 6694 3092
3  6695 6420 6416
3  3477 3480 973
3  6696 965 2707
3  6691 2714 6689
3  6697 6422 6420
3  3474 3477 971
3  6698 960 965
3  6693 2711 6691
3  6699 6424 6422
3  3470 3474 969
3  6700 961 960
3  6696 2707 6693
3  3078 6701 3081
3  6702 6427 6424
3  3466 3470 967
3  6703 2703 961
3  6698 965 6696
3  6704 6429 6427
3  3463 3466 963
3  6705 2700 2703
3  6700 960 6698
3  6706 3075 3072
3  6707 3467 3471
3  3460 3463 958
3  6708 2696 2700
3  6703 961 6700
3  6709 6706 3072
3  3457 3460 956
3  6710 2692 2696
3  6705 2703 6703
3  6711 6435 6433
3  3454 3457 954
3  6712 2689 2692
3  6708 2700 6705
3  3451 3454 952
3  6713 2686 2689
3  6710 2696 6708
3  6714 6438 6435
3  3448 3451 950
3  6712 2692 6710
3  6715 6440 6438
3  3445 3448 948
3  6713 2689 6712
3  6716 6443 6440
3  3441 3445 946
3  6717 2677 2680
3  3060 2686 6713
3  6718 6445 6443
3  3440 3441 944
3  6719 2674 2677
3  3056 2683 3060
3  3048 6720 3052
3  6721 6447 6445
3  3439 3440 942
3  6722 2671 2674
3  6717 2680 3056
3  6723 2668 2671
3  6719 2677 6717
3  3046 6724 3047
3  3434 3437 151
3  6725 2665 2668
3  6722 2674 6719
3  6726 6453 6451
3  3427 3431 937
3  6727 2662 2665
3  6723 2671 6722
3  6728 6455 6453
3  3423 3427 935
3  6729 2659 2662
3  6725 2668 6723
3  6730 6458 6455
3  3420 3423 933
3  6731 2655 2659
3  6727 2665 6725
3  6732 3424 3428
3  3417 3420 931
3  6733 923 2655
3  6729 2662 6727
3  3414 3417 929
3  6734 918 923
3  6731 2659 6729
3  6735 6465 6463
3  3411 3414 927
3  6736 919 918
3  6733 2655 6731
3  3022 6737 3025
3  3408 3411 925
3  6738 2649 919
3  6734 923 6733
3  6739 6468 6465
3  3405 3408 921
3  6736 918 6734
3  6740 3018 3014
3  6741 6470 6468
3  3401 3405 916
3  6738 919 6736
3  6742 6740 3014
3  6743 6473 6470
3  3400 3401 914
3  6744 2642 2644
3  3019 2649 6738
3  6745 6475 6473
3  3399 3400 912
3  6746 2639 2642
3  3015 2646 3019
3  3008 6747 3011
3  6748 6476 6475
3  3397 3399 910
3  6749 902 2639
3  6744 2644 3015
3  6750 6478 6476
3  3394 3397 908
3  6751 899 902
3  6746 2642 6744
3  3001 6752 3005
3  6753 6479 6478
3  3391 3394 906
3  6754 895 899
3  6749 2639 6746
3  2999 6755 3000
3  6756 891 895
3  6751 902 6749
3  2997 6757 2999
3  3383 3387 154
3  6758 886 891
3  6754 899 6751
3  6759 2997 2994
3  6760 3384 3388
3  3377 3380 897
3  6761 887 886
3  6756 895 6754
3  6762 2994 2991
3  3374 3377 893
3  6763 880 887
3  6758 891 6756
3  6764 2991 2988
3  6765 6495 6490
3  3371 3374 889
3  6766 876 880
3  6761 886 6758
3  6767 2988 2985
3  3368 3371 884
3  6768 872 876
3  6763 887 6761
3  6769 2985 2982
3  6770 6497 6495
3  3365 3368 882
3  6771 867 872
3  6766 880 6763
3  6772 2982 2978
3  6773 6499 6497
3  3362 3365 878
3  6768 876 6766
3  6774 6502 6499
3  3358 3362 874
3  6771 872 6768
3  6775 2974 2971
3  6776 6503 6502
3  3357 3358 870
3  6777 856 861
3  2979 867 6771
3  6778 2971 2968
3  6779 6505 6503
3  3356 3357 865
3  6780 857 856
3  2975 868 2979
3  6781 2968 2965
3  6782 6507 6505
3  3353 3356 863
3  6783 850 857
3  6777 861 2975
3  6784 2962 2959
3  6785 6509 6507
3  3350 3353 859
3  6786 846 850
3  6780 856 6777
3  6787 6510 6509
3  3346 3350 854
3  6788 842 846
3  6783 857 6780
3  6789 2955 2954
3  6790 6511 6510
3  3342 3346 852
3  6791 838 842
3  6786 850 6783
3  6792 6513 6511
3  3339 3342 848
3  6793 839 838
3  6788 846 6786
3  6794 2954 2953
3  6795 831 839
3  6791 842 6788
3  6796 2953 2950
3  6797 3343 3347
3  3333 3336 157
3  6798 832 831
3  6793 838 6791
3  6799 2950 2947
3  6800 6522 6517
3  3327 3330 836
3  6801 825 832
3  6795 839 6793
3  6802 2947 2944
3  6803 6524 6522
3  3324 3327 834
3  6804 821 825
3  6798 831 6795
3  6805 2944 2941
3  6806 6527 6524
3  3321 3324 829
3  6807 816 821
3  6801 832 6798
3  6808 2941 2937
3  6809 6530 6527
3  3318 3321 827
3  6804 825 6801
3  6810 6531 6530
3  3314 3318 823
3  6807 821 6804
3  6811 2933 2930
3  6812 6533 6531
3  3313 3314 819
3  6813 806 810
3  2938 816 6807
3  6814 2930 2927
3  6815 6535 6533
3  3312 3313 814
3  6816 801 806
3  2934 817 2938
3  6817 2927 2924
3  6818 6537 6535
3  3310 3312 812
3  6819 802 801
3  6813 810 2934
3  6820 2921 2918
3  6821 6539 6537
3  3306 3310 808
3  6822 795 802
3  6816 806 6813
3  6823 6540 6539
3  3302 3306 804
3  6824 791 795
3  6819 801 6816
3  6825 2915 2912
3  6826 6541 6540
3  3299 3302 799
3  6827 786 791
3  6822 802 6819
3  6828 3303 3307
3  3296 3299 797
3  6829 787 786
3  6824 795 6822
3  6830 2912 2909
3  3293 3296 793
3  6831 779 787
3  6827 791 6824
3  6832 2909 2905
3  6833 6547 6545
3  3290 3293 789
3  6834 780 779
3  6829 786 6827
3  6835 2905 2904
3  3287 3290 784
3  6836 774 780
3  6831 787 6829
3  6837 2904 2903
3  6838 769 774
3  6834 779 6831
3  6839 2903 2901
3  6840 6551 6550
3  3281 3284 160
3  6841 770 769
3  6836 780 6834
3  6842 2901 2897
3  6843 6557 6554
3  3275 3278 776
3  6838 774 6836
3  6844 2897 2893
3  6845 6559 6557
3  3271 3275 772
3  6841 769 6838
3  6846 2893 2890
3  6847 6564 6559
3  3270 3271 767
3  6848 757 761
3  2898 770 6841
3  6849 2890 2887
3  6850 6566 6564
3  3269 3270 765
3  6851 753 757
3  2894 2605 2898
3  6852 6568 6566
3  3266 3269 763
3  6853 749 753
3  6848 761 2894
3  6854 2881 2878
3  6855 6570 6568
3  3262 3266 759
3  6856 745 749
3  6851 757 6848
3  6857 6571 6570
3  3259 3262 755
3  6858 741 745
3  6853 753 6851
3  6859 2875 2872
3  6860 3263 3267
3  3256 3259 751
3  6861 737 741
3  6856 749 6853
3  3253 3256 747
3  6862 732 737
3  6858 745 6856
3  6863 2872 2869
3  6864 6576 6574
3  3250 3253 743
3  6865 733 732
3  6861 741 6858
3  6866 2869 2866
3  3247 3250 739
3  6867 726 733
3  6862 737 6861
3  6868 2866 2863
3  6869 6579 6576
3  3244 3247 735
3  6870 722 726
3  6865 732 6862
3  6871 2863 2859
3  6872 6580 6579
3  3241 3244 730
3  6873 719 722
3  6867 733 6865
3  6874 2859 2858
3  6875 6583 6580
3  3238 3241 728
3  6876 714 719
3  6870 726 6867
3  6873 722 6870
3  6877 2856 2853
3  3232 3235 163
3  6876 719 6873
3  6878 2853 2850
3  6879 6592 6589
3  3227 3228 717
3  6880 704 708
3  2857 714 6876
3  6881 2850 2847
3  6882 6594 6592
3  3225 3227 712
3  6883 700 704
3  2854 715 2857
3  6884 2847 2844
3  6885 6597 6594
3  3222 3225 710
3  6886 695 700
3  6880 708 2854
3  6887 2841 2838
3  6888 6600 6597
3  3219 3222 706
3  6889 696 695
3  6883 704 6880
3  6890 3223 3226
3  3216 3219 702
3  6891 689 696
3  6886 700 6883
3  6892 2835 2832
3  3213 3216 698
3  6893 684 689
3  6889 695 6886
3  6894 6604 6603
3  3210 3213 693
3  6895 685 684
3  6891 696 6889
3  6896 2832 2829
3  3207 3210 691
3  6897 2612 685
3  6893 689 6891
3  6898 6607 6604
3  3204 3207 687
3  6899 676 2612
3  6895 684 6893
3  6900 2826 2823
3  6901 6609 6607
3  3201 3204 682
3  6902 672 676
3  6897 685 6895
3  6903 2823 2820
3  6904 6612 6609
3  3198 3201 680
3  6905 668 672
3  6899 2612 6897
3  6906 2820 2817
3  6907 6614 6612
3  3195 3198 678
3  6908 664 668
3  6902 676 6899
3  6909 2817 2813
3  6910 6616 6614
3  3192 3195 674
3  6905 672 6902
3  6911 2813 2808
3  6912 6618 6616
3  3189 3192 670
3  6908 668 6905
3  6913 2808 2807
3  6914 6620 6618
3  3185 3189 666
3  6915 653 657
3  2814 664 6908
3  6916 2807 2806
3  6917 648 653
3  2809 660 2814
3  6918 2806 2803
3  3181 3183 166
3  6919 649 648
3  6915 657 2809
3  6920 2800 2797
3  6921 3182 3184
3  3176 3179 655
3  6922 642 649
3  6917 653 6915
3  3173 3176 651
3  6923 638 642
3  6919 648 6917
3  6924 2794 2791
3  6925 6636 6631
3  3170 3173 646
3  6926 633 638
3  6922 649 6919
3  3167 3170 644
3  6927 634 633
3  6923 642 6922
3  6928 2791 2788
3  6929 6638 6636
3  3164 3167 640
3  6930 626 634
3  6926 638 6923
3  6931 2788 2785
3  6932 6640 6638
3  3161 3164 636
3  6933 627 626
3  6927 633 6926
3  6934 2785 2782
3  6935 6643 6640
3  3158 3161 631
3  6936 620 627
3  6930 634 6927
3  6937 2782 2779
3  6938 6645 6643
3  3155 3158 629
3  6939 615 620
3  6933 626 6930
3  6940 2779 2775
3  6941 6647 6645
3  3152 3155 624
3  6936 627 6933
3  6942 2775 2771
3  6943 6649 6647
3  3149 3152 622
3  6939 620 6936
3  6944 2771 2768
3  6945 6651 6649
3  3146 3149 618
3  6946 605 609
3  2776 615 6939
3  6947 2768 2765
3  6948 6653 6651
3  3142 3146 613
3  6949 601 605
3  2772 616 2776
3  6950 2765 2762
3  6951 6655 6653
3  3137 3142 611
3  6952 597 601
3  6946 609 2772
3  6953 2762 2759
3  6954 6657 6655
3  3136 3137 607
3  6955 592 597
3  6949 605 6946
3  6956 2759 2755
3  6957 3138 3143
3  3135 3136 603
3  6958 593 592
3  6952 601 6949
3  6959 2755 2754
3  3133 3135 599
3  6960 2619 593
3  6955 597 6952
3  6961 2753 2751
3  6962 585 2619
3  6958 592 6955
3  6963 6662 6661
3  3127 3130 169
3  6964 580 585
3  6960 593 6958
3  6965 2748 2745
3  6966 6669 6664
3  3121 3124 589
3  6967 581 580
3  6962 2619 6960
3  6968 6671 6669
3  3118 3121 587
3  6969 2622 581
3  6964 585 6962
3  6970 2745 2742
3  6971 6673 6671
3  3115 3118 583
3  6972 571 2622
3  6967 580 6964
3  6973 2742 2738
3  6974 6675 6673
3  3112 3115 578
3  6969 581 6967
3  6975 2738 2734
3  6976 6677 6675
3  3109 3112 576
3  6972 2622 6969
3  6977 2734 2731
3  6978 6679 6677
3  3106 3109 574
3  6979 561 565
3  2739 571 6972
3  6980 2731 2728
3  6981 6681 6679
3  3102 3106 569
3  6982 557 561
3  2735 572 2739
3  6983 2728 2725
3  6984 6683 6681
3  3098 3102 567
3  6985 553 557
3  6979 565 2735
3  6986 2725 2722
3  6987 6684 6683
3  3094 3098 563
3  6988 549 553
3  6982 561 6979
3  6989 2722 2719
3  6990 3099 3103
3  3093 3094 559
3  6991 545 549
3  6985 557 6982
3  6992 2719 2716
3  3092 3093 555
3  6993 541 545
3  6988 553 6985
3  6994 2716 2713
3  6995 6689 6687
3  3090 3092 551
3  6996 537 541
3  6991 549 6988
3  6997 2710 2706
3  3087 3090 547
3  6998 533 537
3  6993 545 6991
3  6999 6691 6689
3  3084 3087 543
3  7000 529 533
3  6996 541 6993
3  7001 2705 2704
3  7002 6693 6691
3  3081 3084 539
3  7003 530 529
3  6998 537 6996
3  7004 523 530
3  7000 533 6998
3  7005 2704 2702
3  3075 3078 172
3  7006 518 523
3  7003 529 7000
3  7007 2702 2698
3  7008 6703 6700
3  3069 3072 527
3  7004 530 7003
3  7009 2698 2694
3  7010 6705 6703
3  3066 3069 525
3  7006 523 7004
3  7011 2694 2691
3  7012 6708 6705
3  3063 3066 521
3  7013 508 512
3  2699 518 7006
3  7014 2691 2688
3  7015 6710 6708
3  3059 3063 516
3  7016 504 508
3  2695 519 2699
3  7017 2688 2685
3  7018 6712 6710
3  3055 3059 514
3  7019 500 504
3  7013 512 2695
3  7020 2685 2682
3  7021 6713 6712
3  3052 3055 510
3  7022 496 500
3  7016 508 7013
3  7023 2682 2679
3  7024 3056 3060
3  3048 3052 506
3  7025 492 496
3  7019 504 7016
3  7026 2679 2676
3  3047 3048 502
3  7027 488 492
3  7022 500 7019
3  7028 2676 2673
3  7029 6719 6717
3  3046 3047 498
3  7030 484 488
3  7025 496 7022
3  7031 2670 2667
3  3043 3046 494
3  7032 480 484
3  7027 492 7025
3  7033 6722 6719
3  3040 3043 490
3  7034 476 480
3  7030 488 7027
3  7035 2664 2661
3  7036 6723 6722
3  3037 3040 486
3  7037 471 476
3  7032 484 7030
3  7038 6725 6723
3  3034 3037 482
3  7039 472 471
3  7034 480 7032
3  7040 2661 2658
3  7041 6727 6725
3  3031 3034 478
3  7042 465 472
3  7037 476 7034
3  7043 2658 2653
3  7044 6729 6727
3  3028 3031 474
3  7039 471 7037
3  7045 2653 2652
3  7046 430 429
3  7047 6731 6729
3  3025 3028 469
3  7048 458 462
3  7042 472 7039
3  7049 2652 2651
3  2654 465 7042
3  7050 2651 2634
3  3018 3022 175
3  7048 462 2654
3  7051 455 458
3  7052 6738 6736
3  3011 3014 460
3  7051 458 7048
3  2636 450 455
3  2637 7053 2638
3  7054 3015 3019
3  3008 3011 456
3  2638 451 436
3  2636 455 7051
3  3005 3008 453
3  7055 6746 6744
3  3001 3005 447
3  3000 3001 445
3  2638 436 2636
3  7056 7048 2654
3  2648 7053 7057
3  7058 2634 2633
3  2648 451 2638
3  7046 429 2648
3  2635 430 7046
3  2632 424 2635
3  413 421 410
3  7059 2633 2631
3  2631 406 408
3  2629 421 420
3  2631 408 2629
3  7060 2635 7046
3  2633 406 2631
3  7061 2632 2635
3  2634 404 2633
3  7062 7061 7060
3  2651 402 2634
3  7063 2654 7042
3  2652 400 2651
3  7064 7042 7039
3  2653 398 2652
3  7065 7039 7037
3  2658 396 2653
3  7066 7037 7034
3  2661 394 2658
3  7067 7034 7032
3  7068 7030 7027
3  2664 392 2661
3  2667 390 2664
3  7069 7025 7022
3  2670 388 2667
3  2673 386 2670
3  2676 384 2673
3  7070 7022 7019
3  2679 382 2676
3  7071 7019 7016
3  2682 380 2679
3  7072 7016 7013
3  2685 378 2682
3  7073 7013 2695
3  2688 376 2685
3  7074 2695 2699
3  2691 374 2688
3  7075 2699 7006
3  2694 372 2691
3  7076 7006 7004
3  2698 370 2694
3  7077 7004 7003
3  2702 368 2698
3  7078 7003 7000
3  2704 366 2702
3  7079 7000 6998
3  7080 6996 6993
3  2705 364 2704
3  2706 362 2705
3  7081 6991 6988
3  2710 360 2706
3  2713 358 2710
3  2716 356 2713
3  7082 6988 6985
3  2719 354 2716
3  7083 6985 6982
3  2722 352 2719
3  7084 6982 6979
3  2725 350 2722
3  7085 6979 2735
3  2728 348 2725
3  7086 2735 2739
3  2731 346 2728
3  7087 2739 6972
3  2734 344 2731
3  7088 6972 6969
3  2738 342 2734
3  7089 6969 6967
3  2742 341 2738
3  7090 6967 6964
3  2745 339 2742
3  7091 6964 6962
3  7092 6960 6958
3  2748 415 2745
3  2751 336 2748
3  7093 6955 6952
3  2753 334 2751
3  2754 332 2753
3  2755 330 2754
3  7094 6952 6949
3  2759 328 2755
3  7095 6949 6946
3  2762 326 2759
3  7096 6946 2772
3  2765 324 2762
3  7097 2772 2776
3  2768 322 2765
3  7098 2776 6939
3  2771 320 2768
3  7099 6939 6936
3  2775 318 2771
3  7100 6936 6933
3  2779 316 2775
3  7101 6933 6930
3  2782 314 2779
3  7102 6930 6927
3  2785 312 2782
3  7103 6927 6926
3  2788 311 2785
3  7104 6926 6923
3  2791 309 2788
3  7105 6923 6922
3  7106 6919 6917
3  2794 417 2791
3  2797 306 2794
3  7107 6915 2809
3  2800 304 2797
3  2803 302 2800
3  2806 300 2803
3  7108 2809 2814
3  2807 298 2806
3  7109 2814 6908
3  2808 296 2807
3  7110 6908 6905
3  2813 294 2808
3  7111 6905 6902
3  2817 292 2813
3  7112 6902 6899
3  2820 290 2817
3  7113 6899 6897
3  2823 288 2820
3  7114 6897 6895
3  2829 283 2826
3  7115 6893 6891
3  2826 286 2823
3  7116 6895 6893
3  7117 6896 2829
3  2832 284 2829
3  7118 6891 6889
3  7119 6886 6883
3  2835 281 2832
3  2838 279 2835
3  7120 6880 2854
3  2841 277 2838
3  2844 275 2841
3  2847 273 2844
3  7121 2854 2857
3  2850 271 2847
3  7122 2857 6876
3  2853 269 2850
3  7123 6876 6873
3  2858 264 2856
3  7124 6870 6867
3  2856 267 2853
3  7125 6873 6870
3  7126 6874 2858
3  2859 265 2858
3  7127 6867 6865
3  2863 262 2859
3  7128 6865 6862
3  2866 260 2863
3  7129 6862 6861
3  2869 258 2866
3  7130 6861 6858
3  2872 256 2869
3  7131 6858 6856
3  7132 6853 6851
3  2875 254 2872
3  2878 252 2875
3  7133 6848 2894
3  2881 250 2878
3  2887 245 2884
3  7134 2894 2898
3  2884 248 2881
3  7135 6849 2887
3  2890 246 2887
3  7136 2898 6841
3  2893 243 2890
3  7137 6841 6838
3  2897 241 2893
3  7138 6838 6836
3  2901 239 2897
3  7139 6836 6834
3  2903 237 2901
3  7140 6834 6831
3  2904 235 2903
3  7141 6831 6829
3  2905 233 2904
3  7142 6829 6827
3  2909 232 2905
3  7143 6827 6824
3  2912 230 2909
3  7144 6824 6822
3  7145 6819 6816
3  2915 427 2912
3  2918 227 2915
3  7146 6813 2934
3  2921 225 2918
3  2924 223 2921
3  2927 221 2924
3  7147 2934 2938
3  2930 219 2927
3  7148 2938 6807
3  2937 214 2933
3  7149 6804 6801
3  2933 217 2930
3  7150 6807 6804
3  7151 6808 2937
3  2941 215 2937
3  7152 6801 6798
3  2944 212 2941
3  7153 6798 6795
3  2947 210 2944
3  7154 6795 6793
3  2950 208 2947
3  7155 6793 6791
3  2953 206 2950
3  7156 6791 6788
3  2954 205 2953
3  7157 6788 6786
3  7158 6783 6780
3  2955 203 2954
3  2959 433 2955
3  7159 6777 2975
3  2962 200 2959
3  2965 198 2962
3  2968 196 2965
3  7160 2975 2979
3  2971 194 2968
3  7161 2979 6771
3  2978 189 2974
3  7162 6768 6766
3  2974 192 2971
3  7163 6771 6768
3  7164 6772 2978
3  2982 190 2978
3  7165 6766 6763
3  2985 187 2982
3  7166 6763 6761
3  2988 185 2985
3  7167 6761 6758
3  2991 183 2988
3  7168 6758 6756
3  7169 6751 6749
3  2994 181 2991
3  7170 6756 6754
3  2999 3000 440
3  2997 180 2994
3  7171 6754 6751
3  2999 178 2997
3  7172 6749 6746
3  3018 464 3014
3  7173 6736 6734
3  7174 6734 6733
3  3022 3025 467
3  7175 6733 6731
3  3022 3018 7176
3  3075 532 3072
3  7177 6700 6698
3  7178 6698 6696
3  3078 3081 535
3  7179 6696 6693
3  3078 3075 7180
3  3127 591 3124
3  3127 7181 6667
3  3130 3133 595
3  3130 3127 6667
3  3181 659 3179
3  7182 6626 6624
3  7183 6624 6622
3  3183 3185 662
3  7184 6622 6620
3  3183 3181 7185
3  3232 721 3228
3  7186 6589 6587
3  7187 6587 6585
3  3235 3238 724
3  7188 6585 6583
3  3235 3232 7189
3  3281 778 3278
3  3281 7190 6562
3  3284 3287 782
3  7191 6550 6547
3  3284 3281 6562
3  3333 841 3330
3  7192 6517 3343
3  3336 3339 844
3  3336 3333 6520
3  3383 901 3380
3  7193 6484 6482
3  7194 6482 6480
3  3387 3391 904
3  7195 6480 6479
3  3387 3383 7196
3  3434 939 3431
3  7197 6451 6450
3  7198 6450 6449
3  3437 3439 940
3  7199 6449 6447
3  3437 3434 7200
3  3483 3484 976
3  3482 975 3480
3  7201 6416 6414
3  3483 148 3482
3  7202 6412 6409
3  3524 1007 3523
3  7203 6383 6380
3  7204 6380 6378
3  3528 3531 1008
3  3528 7205 3531
3  3528 3524 7206
3  3572 1038 3569
3  7207 3580 6348
3  3575 3579 1042
3  7208 6346 6344
3  3575 3572 7209
3  3618 1072 3615
3  7210 6318 6316
3  3621 3624 1073
3  7211 6315 6313
3  3621 3618 7212
3  3664 1106 3661
3  7213 6288 6286
3  7214 6286 6284
3  3667 3670 1107
3  7215 6284 6283
3  3667 3664 7216
3  3708 1140 3705
3  7217 6254 6253
3  7218 6253 6252
3  3711 3714 1141
3  7219 6252 6250
3  3711 3708 7220
3  3755 1174 3752
3  7221 6226 6224
3  7222 6224 6222
3  3758 3759 1175
3  7223 6222 6220
3  3758 3755 7224
3  3799 1208 3798
3  7225 6194 6192
3  7226 6192 6189
3  3800 3804 1209
3  7227 6189 6188
3  3800 3799 7228
3  3841 1240 3837
3  7229 6165 6163
3  7230 6163 6160
3  3844 3847 1241
3  7231 6160 6158
3  3844 3841 7232
3  3885 1269 3882
3  7233 3895 3899
3  3888 3885 6134
3  3888 3891 1273
3  3928 1301 3925
3  7234 6103 6101
3  7235 6101 6099
3  3931 3934 1302
3  7236 6099 6097
3  3931 3928 7237
3  3969 1333 3966
3  7238 3980 6070
3  3972 3976 1334
3  7239 6070 6069
3  3972 3969 6079
3  4015 1365 4012
3  7240 6042 6041
3  7241 6041 6039
3  4018 4020 1366
3  7242 6039 6037
3  4018 4015 7243
3  4057 1395 4054
3  7244 6014 6012
3  7245 6012 6011
3  4058 4059 1396
3  7246 6011 6009
3  4058 4057 7247
3  4093 1425 4092
3  7248 5984 5982
3  7249 5982 5981
3  4094 4098 1426
3  7250 5981 5979
3  4094 4093 7251
3  4136 1457 4132
3  7252 5956 5954
3  7253 5954 5952
3  4139 4142 1458
3  7254 5952 5950
3  4139 4136 7255
3  4179 1487 4176
3  7256 5926 5924
3  7257 5924 5922
3  4182 4185 1490
3  7258 5922 5920
3  4182 4179 7259
3  4223 1516 4220
3  7260 5897 5895
3  7261 5895 5893
3  4226 4229 1517
3  7262 5893 5892
3  4226 4223 7263
3  4261 1546 4258
3  7264 5867 5865
3  7265 5865 5864
3  4264 4267 1547
3  7266 5864 5863
3  4264 4261 7267
3  4304 1578 4301
3  7268 5840 5838
3  7269 5838 5836
3  4306 4307 1579
3  7270 5836 5834
3  4306 4304 7271
3  4341 1608 4339
3  7272 5810 5808
3  7273 5808 5805
3  4342 4343 1609
3  7274 5805 5802
3  4342 4341 7275
3  4380 1638 4379
3  7276 5782 5780
3  7277 5780 5778
3  4381 4385 1639
3  7278 5778 5776
3  4381 4380 7279
3  4417 1666 4413
3  7280 5752 5750
3  7281 5750 5749
3  4420 4423 1667
3  7282 5749 5747
3  4420 4417 7283
3  4460 1698 4457
3  7284 5723 5721
3  7285 5721 5719
3  4463 4466 1699
3  7286 5719 5718
3  4463 4460 7287
3  4498 1723 4495
3  7288 5693 5691
3  7289 5691 5689
3  4501 4504 1727
3  7290 5689 5687
3  4501 4498 7291
3  4539 1753 4536
3  7292 5665 5663
3  7293 5663 5662
3  4542 4545 1754
3  7294 5662 5660
3  4542 4539 7295
3  4577 1783 4574
3  7296 5635 5634
3  7297 5634 5632
3  4580 4583 1784
3  7298 5632 5630
3  4580 4577 7299
3  4617 1813 4615
3  7300 5607 5605
3  7301 5605 5603
3  4618 4619 1814
3  7302 5603 5601
3  4618 4617 7303
3  4650 1841 4649
3  7304 5577 5575
3  7305 5575 5573
3  4651 4655 1842
3  7306 5573 5571
3  4651 4650 7307
3  4689 1871 4685
3  7308 5550 5548
3  7309 5548 5546
3  4692 4695 1872
3  7310 5546 5544
3  4692 4689 7311
3  4728 1901 4725
3  7312 5518 5516
3  7313 5516 5514
3  4731 4734 1902
3  7314 5514 5512
3  4731 4728 7315
3  4766 1927 4763
3  7316 5493 5491
3  7317 5491 5489
3  4769 4772 1930
3  7318 5489 5487
3  4769 4766 7319
3  4804 1954 4801
3  7320 5463 5461
3  7321 5461 5460
3  4807 4810 1958
3  7322 5460 5459
3  4807 4804 7323
3  4844 1984 4841
3  7324 5437 5436
3  7325 5436 5434
3  4847 4849 1985
3  7326 5434 5433
3  4847 4844 7327
3  4879 2012 4876
3  7328 5412 5410
3  7329 5410 5408
3  4881 4882 2013
3  7330 5408 5406
3  4881 4879 7331
3  4915 2040 4913
3  7332 5386 5384
3  7333 5384 5382
3  4916 4917 2041
3  7334 5382 5381
3  4916 4915 7335
3  4940 2070 4939
3  7336 5365 5364
3  4941 4942 2071
3  7337 5363 5362
3  4941 4940 7338
3  4955 2098 4953
3  7339 5350 5349
3  7340 5349 5348
3  4956 4957 2099
3  7341 5348 5347
3  4956 4955 7342
3  4968 2126 4967
3  4968 7343 5336
3  4969 4970 2127
3  4969 4968 5336
3  4982 2156 4981
3  7344 5316 5315
3  7345 5315 5314
3  4984 4986 2157
3  7346 5314 5313
3  4984 4982 7347
3  4998 4999 2183
3  4997 2179 4996
3  7348 5299 5298
3  4998 4997 7349
3  4998 28 4997
3  5011 5012 2208
3  5010 2207 5009
3  7350 5015 5283
3  5011 25 5010
3  7351 5283 5282
3  5011 5010 5581
3  5025 2235 5024
3  7352 5269 5267
3  7353 5267 5265
3  5026 5027 2236
3  7354 5265 5264
3  5026 5025 7355
3  5039 5040 2264
3  5038 2263 5037
3  7356 5250 5249
3  5039 19 5038
3  5039 7357 5040
3  5053 2291 5052
3  7358 5236 5235
3  7359 5235 5234
3  5054 5055 2292
3  7360 5234 5232
3  5054 5053 7361
3  5066 2319 5065
3  7362 5218 5217
3  7363 5217 5215
3  5067 5068 2320
3  7364 5215 5214
3  5067 5066 7365
3  5081 2347 5080
3  7366 5203 5202
3  7367 5202 5201
3  5082 5083 2348
3  7368 5201 5200
3  5082 5081 7369
3  5094 2375 5093
3  7370 5185 5184
3  7371 5184 5182
3  5095 5096 2376
3  7372 5182 5181
3  5095 5094 7373
3  5109 2401 5108
3  7374 5170 5169
3  7375 5169 5168
3  5110 5111 2404
3  7376 5168 5167
3  5110 5109 7377
3  5122 2426 5121
3  7378 5154 5153
3  5123 5124 2430
3  7379 5152 5151
3  5123 5122 7380
3  7381 5125 5124
3  7382 5112 5111
3  7383 5097 5096
3  7384 5084 5083
3  7385 5069 5068
3  7386 5056 5055
3  7387 5045 5248
3  7388 5028 5027
3  7389 5014 5012
3  7390 5296 5295
3  7391 4987 4986
3  7392 4971 4970
3  7393 4958 4957
3  7394 4943 4942
3  7395 4921 4917
3  7396 4883 4882
3  7397 4850 4849
3  7398 4813 4810
3  7399 4775 4772
3  7400 4737 4734
3  7401 4698 4695
3  7402 4658 4655
3  7403 4623 4619
3  7404 4584 4583
3  7405 4547 4545
3  7406 4507 4504
3  7407 4469 4466
3  7408 4426 4423
3  7409 4388 4385
3  7410 4347 4343
3  7411 4308 4307
3  7412 4270 4267
3  7413 4232 4229
3  7414 4188 4185
3  7415 4145 4142
3  7416 4101 4098
3  7417 4063 4059
3  7418 4021 4020
3  7419 3979 3976
3  7420 3937 3934
3  7421 3894 3891
3  7422 3850 3847
3  7423 3807 3804
3  7424 3760 3759
3  7425 3717 3714
3  7426 3673 3670
3  7427 3627 3624
3  7428 3583 3579
3  7429 3488 3484
3  7430 3440 3439
3  7431 3394 3391
3  7432 3342 3339
3  7433 3290 3287
3  7434 3241 3238
3  7435 3189 3185
3  7436 3135 3133
3  7437 3084 3081
3  7438 3028 3025
3  7439 3001 3000
3  6759 6757 2997
3  6762 6759 2994
3  6764 6762 2991
3  6767 6764 2988
3  6769 6767 2985
3  6772 6769 2982
3  7164 2978 2974
3  6775 7164 2974
3  7440 2965 2962
3  6778 6775 2971
3  7441 6780 6777
3  6781 6778 2968
3  7440 6781 2965
3  7442 2959 2955
3  7443 6786 6783
3  6784 7440 2962
3  7442 6784 2959
3  6789 7442 2955
3  6794 6789 2954
3  6796 6794 2953
3  6799 6796 2950
3  6802 6799 2947
3  6805 6802 2944
3  6808 6805 2941
3  7151 2937 2933
3  6811 7151 2933
3  7444 2924 2921
3  6814 6811 2930
3  7445 6816 6813
3  6817 6814 2927
3  7444 6817 2924
3  7446 2918 2915
3  7447 6822 6819
3  6820 7444 2921
3  7446 6820 2918
3  6825 7446 2915
3  6830 6825 2912
3  6832 6830 2909
3  6835 6832 2905
3  6837 6835 2904
3  6839 6837 2903
3  6842 6839 2901
3  6844 6842 2897
3  6846 6844 2893
3  7448 2884 2881
3  6849 6846 2890
3  7449 6851 6848
3  7135 2887 2884
3  7448 7135 2884
3  7450 2878 2875
3  7451 6856 6853
3  6854 7448 2881
3  7450 6854 2878
3  6859 7450 2875
3  6863 6859 2872
3  6866 6863 2869
3  6868 6866 2866
3  6871 6868 2863
3  6874 6871 2859
3  7126 2858 2856
3  6877 7126 2856
3  6878 6877 2853
3  7452 2844 2841
3  6881 6878 2850
3  7453 6883 6880
3  6884 6881 2847
3  7452 6884 2844
3  7454 2838 2835
3  7455 6889 6886
3  6887 7452 2841
3  7454 6887 2838
3  6892 7454 2835
3  6896 6892 2832
3  7117 2829 2826
3  6900 7117 2826
3  6903 6900 2823
3  6906 6903 2820
3  6909 6906 2817
3  6911 6909 2813
3  6913 6911 2808
3  7456 2803 2800
3  6916 6913 2807
3  7457 6917 6915
3  6918 6916 2806
3  7456 6918 2803
3  7458 2797 2794
3  7459 6922 6919
3  6920 7456 2800
3  7458 6920 2797
3  6924 7458 2794
3  6928 6924 2791
3  6931 6928 2788
3  6934 6931 2785
3  6937 6934 2782
3  6940 6937 2779
3  6942 6940 2775
3  6944 6942 2771
3  6947 6944 2768
3  6950 6947 2765
3  6953 6950 2762
3  7460 2754 2753
3  6956 6953 2759
3  7461 6958 6955
3  6959 6956 2755
3  7460 6959 2754
3  7462 2751 2748
3  7463 6962 6960
3  6961 7460 2753
3  7462 6961 2751
3  6965 7462 2748
3  6970 6965 2745
3  6973 6970 2742
3  6975 6973 2738
3  6977 6975 2734
3  6980 6977 2731
3  6983 6980 2728
3  6986 6983 2725
3  6989 6986 2722
3  7464 2713 2710
3  6992 6989 2719
3  7465 6993 6991
3  6994 6992 2716
3  7464 6994 2713
3  7466 2706 2705
3  7467 6998 6996
3  6997 7464 2710
3  7466 6997 2706
3  7001 7466 2705
3  7005 7001 2704
3  7007 7005 2702
3  7009 7007 2698
3  7011 7009 2694
3  7014 7011 2691
3  7017 7014 2688
3  7020 7017 2685
3  7023 7020 2682
3  7468 2673 2670
3  7026 7023 2679
3  7469 7027 7025
3  7028 7026 2676
3  7468 7028 2673
3  7470 2667 2664
3  7471 7032 7030
3  7031 7468 2670
3  7470 7031 2667
3  7035 7470 2664
3  7040 7035 2661
3  7043 7040 2658
3  7045 7043 2653
3  7049 7045 2652
3  7050 7049 2651
3  7058 7050 2634
3  7059 2631 2630
3  7059 7058 2633
3  7059 7062 7058
3  2630 2629 2632
3  2630 7061 7059
3  7061 2630 2632
3  7057 7046 2648
3  7060 7061 2635
3  7472 7050 7058
3  7057 7060 7046
3  7473 7051 7048
3  7053 2648 2638
3  7053 7474 7057
3  2637 2636 7051
3  2637 7473 7053
3  7475 6744 3015
3  6755 2999 6757
3  7169 7476 7171
3  7477 3008 3005
3  7439 3000 6755
3  7172 7478 7169
3  7479 3019 6738
3  6752 3001 7439
3  7055 7480 7172
3  7481 7482 7483
3  6742 3014 3011
3  7477 3005 6752
3  7475 7484 7055
3  6747 3008 7477
3  7473 2637 7051
3  6740 7176 3018
3  7482 7485 7176
3  6742 3011 6747
3  7474 7053 7473
3  7056 7473 7048
3  7486 7474 7056
3  7063 7056 2654
3  7487 3031 3028
3  6737 3022 7176
3  7064 7488 7063
3  7064 7063 7042
3  7489 3034 3031
3  7438 3025 6737
3  7065 7064 7039
3  7490 3037 3034
3  7487 3028 7438
3  7066 7065 7037
3  7491 3040 3037
3  7489 3031 7487
3  7067 7066 7034
3  7492 3043 3040
3  7490 3034 7489
3  7471 7493 7067
3  7471 7067 7032
3  7494 3046 3043
3  7491 3037 7490
3  7068 7495 7471
3  7068 7471 7030
3  7496 6717 3056
3  7492 3040 7491
3  7036 7497 7038
3  7469 7498 7068
3  7469 7068 7027
3  7499 3048 3047
3  7494 3043 7492
3  7033 7500 7036
3  7069 7469 7025
3  7501 3060 6713
3  6724 3046 7494
3  7029 7502 7033
3  7070 7069 7022
3  7503 3055 3052
3  7499 3047 6724
3  7496 7504 7029
3  7071 7070 7019
3  7505 3059 3055
3  6720 3048 7499
3  7072 7071 7016
3  7506 3063 3059
3  7503 3052 6720
3  7073 7507 7072
3  7073 7072 7013
3  7508 3066 3063
3  7505 3055 7503
3  7074 7073 2695
3  7509 3069 3066
3  7506 3059 7505
3  7075 7074 2699
3  7508 3063 7506
3  7076 7075 7006
3  7509 3066 7508
3  6709 3072 3069
3  7077 7076 7004
3  6706 7180 3075
3  6709 3069 7509
3  7510 7511 7512
3  7078 7077 7003
3  7079 7078 7000
3  7513 3087 3084
3  6701 3078 7180
3  7467 7514 7079
3  7467 7079 6998
3  7515 3090 3087
3  7437 3081 6701
3  7179 7516 7178
3  7080 7517 7467
3  7080 7467 6996
3  7518 6687 3099
3  7513 3084 7437
3  7002 7519 7179
3  7465 7520 7080
3  7465 7080 6993
3  7521 3093 3092
3  7515 3087 7513
3  6999 7522 7002
3  7081 7465 6991
3  7523 3103 6684
3  6694 3090 7515
3  7082 7081 6988
3  7524 3098 3094
3  7521 3092 6694
3  7518 7525 6995
3  7083 7082 6985
3  7526 3102 3098
3  6690 3093 7521
3  7084 7083 6982
3  7527 3106 3102
3  7524 3094 6690
3  7085 7528 7084
3  7085 7084 6979
3  7529 3109 3106
3  7526 3098 7524
3  7086 7085 2735
3  7530 3112 3109
3  7527 3102 7526
3  7087 7086 2739
3  7531 3115 3112
3  7529 3106 7527
3  7088 7087 6972
3  7532 3118 3115
3  7530 3109 7529
3  7089 7088 6969
3  7533 3121 3118
3  7531 3112 7530
3  7090 7089 6967
3  7534 3124 3121
3  7532 3115 7531
3  7091 7090 6964
3  7533 3118 7532
3  7463 7535 7091
3  7463 7091 6962
3  7181 3127 3124
3  7534 3121 7533
3  7536 6664 6662
3  6968 7537 6971
3  7534 7181 3124
3  7538 7539 7540
3  7092 7541 7463
3  7092 7463 6960
3  7461 7542 7092
3  7461 7092 6958
3  7543 3143 6657
3  6666 3130 6667
3  7544 6661 3138
3  7093 7461 6955
3  7545 3137 3136
3  7436 3133 6666
3  7544 7546 6963
3  7094 7093 6952
3  7547 3142 3137
3  6663 3135 7436
3  7095 7094 6949
3  7548 3146 3142
3  7545 3136 6663
3  7096 7549 7095
3  7096 7095 6946
3  7550 3149 3146
3  7547 3137 7545
3  7097 7096 2772
3  7551 3152 3149
3  7548 3142 7547
3  7098 7097 2776
3  7552 3155 3152
3  7550 3146 7548
3  7099 7098 6939
3  7553 3158 3155
3  7551 3149 7550
3  7100 7099 6936
3  7554 3161 3158
3  7552 3152 7551
3  7101 7100 6933
3  7555 3164 3161
3  7553 3155 7552
3  7102 7101 6930
3  7556 3167 3164
3  7554 3158 7553
3  7103 7102 6927
3  7557 3170 3167
3  7555 3161 7554
3  6935 7558 6938
3  7104 7103 6926
3  7559 6631 3182
3  7556 3164 7555
3  6932 7560 6935
3  7105 7104 6923
3  7561 3176 3173
3  7557 3167 7556
3  6929 7562 6932
3  7459 7563 7105
3  7459 7105 6922
3  6641 3170 7557
3  7106 7564 7459
3  7106 7459 6919
3  7565 3179 3176
3  7561 3173 6641
3  7559 7566 6925
3  7567 3184 6626
3  7457 7568 7106
3  7457 7106 6917
3  6629 7185 3181
3  7565 3176 7561
3  6633 7569 7185
3  7565 6629 3179
3  7107 7457 6915
3  7108 7107 2809
3  7570 3192 3189
3  6627 3183 7185
3  7109 7108 2814
3  7571 3195 3192
3  7435 3185 6627
3  7110 7109 6908
3  7572 3198 3195
3  7570 3189 7435
3  7111 7110 6905
3  7573 3201 3198
3  7571 3192 7570
3  7112 7111 6902
3  7574 3204 3201
3  7572 3195 7571
3  7113 7112 6899
3  7575 3207 3204
3  7573 3198 7572
3  7114 7113 6897
3  7576 3210 3207
3  7574 3201 7573
3  6904 7577 6907
3  7116 7114 6895
3  7578 6603 3223
3  7575 3204 7574
3  6901 7579 6904
3  7115 7116 6893
3  7580 3216 3213
3  7576 3207 7575
3  6898 7581 6901
3  7118 7115 6891
3  7582 3226 6600
3  6610 3210 7576
3  7455 7583 7118
3  7455 7118 6889
3  7584 3222 3219
3  7580 3213 6610
3  7578 7585 6894
3  7119 7586 7455
3  7119 7455 6886
3  7587 3225 3222
3  6605 3216 7580
3  7453 7588 7119
3  7453 7119 6883
3  7589 3227 3225
3  7584 3219 6605
3  7120 7453 6880
3  7587 3222 7584
3  7121 7120 2854
3  7589 3225 7587
3  6598 3228 3227
3  7122 7121 2857
3  6595 7189 3232
3  7590 7591 7189
3  6598 3227 7589
3  7592 7590 7593
3  7123 7122 6876
3  7125 7123 6873
3  7594 3244 3241
3  6590 3235 7189
3  7124 7125 6870
3  7595 3247 3244
3  7434 3238 6590
3  7127 7124 6867
3  7596 3250 3247
3  7594 3241 7434
3  6875 7597 7188
3  7128 7127 6865
3  7598 6574 3263
3  7595 3244 7594
3  6872 7599 6875
3  7129 7128 6862
3  7600 3256 3253
3  7596 3247 7595
3  6869 7601 6872
3  7130 7129 6861
3  7602 3267 6571
3  6581 3250 7596
3  7131 7130 6858
3  7603 3262 3259
3  7600 3253 6581
3  7598 7604 6864
3  7451 7605 7131
3  7451 7131 6856
3  7606 3266 3262
3  6577 3256 7600
3  7132 7607 7451
3  7132 7451 6853
3  7608 3269 3266
3  7603 3259 6577
3  7449 7609 7132
3  7449 7132 6851
3  7610 3270 3269
3  7606 3262 7603
3  7133 7449 6848
3  7611 3271 3270
3  7608 3266 7606
3  7134 7133 2894
3  7612 3275 3271
3  7610 3269 7608
3  7136 7134 2898
3  7611 3270 7610
3  7137 7136 6841
3  7613 3278 3275
3  7612 3271 7611
3  7138 7137 6838
3  7190 3281 3278
3  7613 3275 7612
3  7614 6554 6551
3  7613 7190 3278
3  7139 7138 6836
3  7140 7139 6834
3  7615 6545 3303
3  6555 3284 6562
3  6840 7616 7614
3  7141 7140 6831
3  7617 3296 3293
3  7433 3287 6555
3  7191 7618 6840
3  7142 7141 6829
3  7619 3307 6541
3  6552 3290 7433
3  7143 7142 6827
3  7620 3302 3299
3  7617 3293 6552
3  7615 7621 6833
3  7144 7143 6824
3  7622 3306 3302
3  6548 3296 7617
3  7447 7623 7144
3  7447 7144 6822
3  7624 3310 3306
3  7620 3299 6548
3  7145 7625 7447
3  7145 7447 6819
3  7626 3312 3310
3  7622 3302 7620
3  7445 7627 7145
3  7445 7145 6816
3  7628 3313 3312
3  7624 3306 7622
3  7146 7445 6813
3  7629 3314 3313
3  7626 3310 7624
3  7147 7146 2934
3  7630 3318 3314
3  7628 3312 7626
3  7148 7147 2938
3  7631 3321 3318
3  7629 3313 7628
3  7150 7148 6807
3  7632 3324 3321
3  7630 3314 7629
3  7149 7150 6804
3  7633 3327 3324
3  7631 3318 7630
3  7152 7149 6801
3  6528 3330 3327
3  7632 3321 7631
3  6809 7634 6810
3  7153 7152 6798
3  7633 3324 7632
3  6806 7635 6809
3  7154 7153 6795
3  6525 6520 3333
3  7636 6518 6520
3  6803 7637 6806
3  6528 3327 7633
3  7155 7154 6793
3  7156 7155 6791
3  7638 3346 3342
3  6519 3336 6520
3  7639 3347 6513
3  7157 7156 6788
3  7640 3350 3346
3  7432 3339 6519
3  7443 7641 7157
3  7443 7157 6786
3  7642 3353 3350
3  7638 3342 7432
3  7158 7643 7443
3  7158 7443 6783
3  7644 3356 3353
3  7640 3346 7638
3  7441 7645 7158
3  7441 7158 6780
3  7646 3357 3356
3  7642 3350 7640
3  7159 7441 6777
3  7647 3358 3357
3  7644 3353 7642
3  7160 7159 2975
3  7648 3362 3358
3  7646 3356 7644
3  7161 7160 2979
3  7649 3365 3362
3  7647 3357 7646
3  7163 7161 6771
3  7650 3368 3365
3  7648 3358 7647
3  7162 7163 6768
3  7651 3371 3368
3  7649 3362 7648
3  7165 7162 6766
3  7652 6490 3384
3  7650 3365 7649
3  6773 7653 6774
3  7166 7165 6763
3  7654 3377 3374
3  7651 3368 7650
3  6770 7655 6773
3  7167 7166 6761
3  6500 3371 7651
3  6765 7656 6770
3  7168 7167 6758
3  7657 3380 3377
3  7654 3374 6500
3  7652 7658 6765
3  7659 3388 6484
3  7170 7168 6756
3  6488 7196 3383
3  7657 3377 7654
3  6492 7660 7196
3  7657 6488 3380
3  7171 7170 6754
3  7661 6755 6757
3  7169 7171 6751
3  7662 3397 3394
3  6485 3387 7196
3  7663 7439 6755
3  7172 7169 6749
3  7664 3399 3397
3  7431 3391 6485
3  7665 6752 7439
3  7055 7172 6746
3  7666 3400 3399
3  7662 3394 7431
3  7667 7477 6752
3  7475 7055 6744
3  7668 3401 3400
3  7664 3397 7662
3  7054 7475 3015
3  7669 3405 3401
3  7666 3399 7664
3  7670 6747 7477
3  7479 7054 3019
3  7671 3408 3405
3  7668 3400 7666
3  7672 6742 6747
3  7052 7479 6738
3  7673 3411 3408
3  7669 3401 7668
3  7173 7052 6736
3  7674 6463 3424
3  7671 3405 7669
3  6741 7675 6743
3  7174 7173 6734
3  7676 3417 3414
3  7673 3408 7671
3  6739 7677 6741
3  7485 6737 7176
3  7175 7174 6733
3  7678 3428 6458
3  6471 3411 7673
3  6735 7679 6739
3  7680 7438 6737
3  7047 7175 6731
3  7681 3423 3420
3  7676 3414 6471
3  7674 7682 6735
3  7683 7487 7438
3  7044 7047 6729
3  7684 3427 3423
3  6466 3417 7676
3  7685 7489 7487
3  7041 7044 6727
3  7681 3420 6466
3  7686 7490 7489
3  7038 7041 6725
3  7684 3423 7681
3  6459 3431 3427
3  7687 7492 7491
3  7036 7038 6723
3  6456 7200 3434
3  7688 7689 7200
3  6459 3427 7684
3  7690 7688 7691
3  7692 7494 7492
3  7033 7036 6722
3  7693 6724 7494
3  7029 7033 6719
3  7694 3441 3440
3  6452 3437 7200
3  7695 7499 6724
3  7496 7029 6717
3  7696 3445 3441
3  7430 3439 6452
3  7024 7496 3056
3  7697 3448 3445
3  7694 3440 7430
3  7698 6720 7499
3  7501 7024 3060
3  7699 3451 3448
3  7696 3441 7694
3  6718 7700 6721
3  7701 7503 6720
3  7021 7501 6713
3  7702 3454 3451
3  7697 3445 7696
3  6716 7703 6718
3  7704 7505 7503
3  7018 7021 6712
3  7705 6433 3467
3  7699 3448 7697
3  6715 7706 6716
3  7707 7506 7505
3  7015 7018 6710
3  7708 3460 3457
3  7702 3451 7699
3  7709 7508 7506
3  7012 7015 6708
3  7710 3471 6429
3  6441 3454 7702
3  7711 7509 7508
3  7010 7012 6705
3  7712 3466 3463
3  7708 3457 6441
3  7705 7713 6711
3  7714 6709 7509
3  7008 7010 6703
3  7715 3470 3466
3  6436 3460 7708
3  7177 7008 6700
3  7716 3474 3470
3  7712 3463 6436
3  7178 7177 6698
3  7717 3477 3474
3  7715 3466 7712
3  7718 7437 6701
3  7179 7178 6696
3  7716 3470 7715
3  7719 7513 7437
3  7002 7179 6693
3  6425 3480 3477
3  7717 3474 7716
3  7720 7515 7513
3  6999 7002 6691
3  6423 6421 3482
3  6425 3477 7717
3  6995 6999 6689
3  7721 7521 6694
3  7518 6995 6687
3  7722 3491 3488
3  6417 3483 6421
3  6692 7723 7201
3  6990 7518 3099
3  7724 3494 3491
3  7429 3484 6417
3  7202 7725 6692
3  7726 6690 7521
3  7523 6990 3103
3  7727 6402 3507
3  7722 3488 7429
3  6688 7728 7202
3  7729 7524 6690
3  6987 7523 6684
3  7730 3500 3497
3  7724 3491 7722
3  7731 7526 7524
3  6984 6987 6683
3  7732 3511 6398
3  6410 3494 7724
3  7733 7527 7526
3  6981 6984 6681
3  7734 3506 3503
3  7730 3497 6410
3  7727 7735 6685
3  7736 7529 7527
3  6978 6981 6679
3  7737 3510 3506
3  6405 3500 7730
3  7738 7530 7529
3  6976 6978 6677
3  7739 3514 3510
3  7734 3503 6405
3  7732 7740 6682
3  7741 7531 7530
3  6974 6976 6675
3  7742 3517 3514
3  7737 3506 7734
3  7743 7532 7531
3  6971 6974 6673
3  7744 3520 3517
3  7739 3510 7737
3  7745 7534 7533
3  6968 6971 6671
3  7746 3522 3520
3  7742 3514 7739
3  6966 7747 6968
3  6966 6968 6669
3  7744 3517 7742
3  7536 7748 6966
3  7536 6966 6664
3  7746 3520 7744
3  6392 3523 3522
3  6963 7536 6662
3  6389 7206 3524
3  7749 7750 7206
3  6392 3522 7746
3  7751 7749 7752
3  7753 7436 6666
3  7544 6963 6661
3  6957 7544 3138
3  7754 6374 6372
3  7205 3528 7206
3  7755 6663 7436
3  7543 6957 3143
3  7756 3540 3537
3  6384 3531 7205
3  6660 7757 7204
3  7758 7545 6663
3  6954 7543 6657
3  7759 3543 3540
3  6381 3534 6384
3  6659 7760 6660
3  7761 7547 7545
3  6951 6954 6655
3  7762 3546 3543
3  7756 3537 6381
3  7754 7763 6659
3  7764 7548 7547
3  6948 6951 6653
3  7765 3549 3546
3  7759 3540 7756
3  6658 7766 7754
3  7767 7550 7548
3  6945 6948 6651
3  7768 3552 3549
3  7762 3543 7759
3  7769 7551 7550
3  6943 6945 6649
3  7770 3555 3552
3  7765 3546 7762
3  7771 7552 7551
3  6941 6943 6647
3  7772 3558 3555
3  7768 3549 7765
3  7773 7553 7552
3  6938 6941 6645
3  7774 3560 3558
3  7770 3552 7768
3  7775 7555 7554
3  6935 6938 6643
3  7776 3561 3560
3  7772 3555 7770
3  7777 7556 7555
3  6932 6935 6640
3  7778 3562 3561
3  7774 3558 7772
3  7779 7557 7556
3  6929 6932 6638
3  7780 3566 3562
3  7776 3560 7774
3  6925 6929 6636
3  7778 3561 7776
3  7781 7561 6641
3  7559 6925 6631
3  7782 3569 3566
3  7780 3562 7778
3  6921 7559 3182
3  6354 7209 3572
3  7782 3566 7780
3  7783 7784 7209
3  7782 6354 3569
3  7785 7565 7561
3  7567 6921 3184
3  7182 7567 6626
3  7786 3586 3583
3  6350 3575 7209
3  7183 7182 6624
3  7787 3589 3586
3  7428 3579 6350
3  7569 6627 7185
3  7184 7183 6622
3  7788 3592 3589
3  7786 3583 7428
3  7789 7435 6627
3  6914 7184 6620
3  7790 3595 3592
3  7787 3586 7786
3  7791 7570 7435
3  6912 6914 6618
3  7792 3598 3595
3  7788 3589 7787
3  7793 7571 7570
3  6910 6912 6616
3  7794 3601 3598
3  7790 3592 7788
3  7795 7572 7571
3  6907 6910 6614
3  7796 3603 3601
3  7792 3595 7790
3  7797 7574 7573
3  6904 6907 6612
3  7798 3604 3603
3  7794 3598 7792
3  7799 7575 7574
3  6901 6904 6609
3  7800 3605 3604
3  7796 3601 7794
3  7801 7576 7575
3  6898 6901 6607
3  7802 3609 3605
3  7798 3603 7796
3  6894 6898 6604
3  7803 3612 3609
3  7800 3604 7798
3  7804 7580 6610
3  7578 6894 6603
3  7805 6321 6318
3  6329 3615 3612
3  7802 3605 7800
3  6890 7578 3223
3  7803 3609 7802
3  7806 6605 7580
3  7582 6890 3226
3  6324 7212 3618
3  6329 3612 7803
3  6602 7807 6606
3  7808 7584 6605
3  6888 7582 6600
3  7809 7587 7584
3  6885 6888 6597
3  7810 3630 3627
3  6319 3621 7212
3  6601 7811 7210
3  7812 7589 7587
3  6882 6885 6594
3  7813 3633 3630
3  7427 3624 6319
3  7814 6598 7589
3  6879 6882 6592
3  7815 3636 3633
3  7810 3627 7427
3  7186 6879 6589
3  7816 3639 3636
3  7813 3630 7810
3  7187 7186 6587
3  7817 3641 3639
3  7815 3633 7813
3  7591 6590 7189
3  7188 7187 6585
3  7818 3642 3641
3  7816 3636 7815
3  7819 7594 7434
3  6875 7188 6583
3  7820 3643 3642
3  7817 3639 7816
3  7821 7595 7594
3  6872 6875 6580
3  7822 3647 3643
3  7818 3641 7817
3  7823 7596 7595
3  6869 6872 6579
3  7824 3658 6295
3  7820 3642 7818
3  6864 6869 6576
3  7825 3653 3650
3  7822 3643 7820
3  7826 7600 6581
3  7598 6864 6574
3  7827 3657 3653
3  6303 3647 7822
3  6860 7598 3263
3  7825 3650 6303
3  7828 6577 7600
3  7602 6860 3267
3  7827 3653 7825
3  6296 3661 3657
3  6575 7829 7824
3  7830 7603 6577
3  6857 7602 6571
3  6293 7216 3664
3  7831 7832 7216
3  6296 3657 7827
3  7833 7831 7834
3  7835 7606 7603
3  6855 6857 6570
3  7836 7608 7606
3  6852 6855 6568
3  7837 3676 3673
3  6289 3667 7216
3  7838 7610 7608
3  6850 6852 6566
3  7839 3678 3676
3  7426 3670 6289
3  7840 7611 7610
3  6847 6850 6564
3  7841 3679 3678
3  7837 3673 7426
3  7842 7612 7611
3  6845 6847 6559
3  7843 3680 3679
3  7839 3676 7837
3  7844 7613 7612
3  6843 6845 6557
3  7845 3684 3680
3  7841 3678 7839
3  7614 7846 6843
3  7614 6843 6554
3  7847 3687 3684
3  7843 3679 7841
3  6561 6555 6562
3  6840 7614 6551
3  7848 3690 3687
3  7845 3680 7843
3  7849 7433 6555
3  7191 6840 6550
3  7847 3684 7845
3  6833 7191 6547
3  7850 6265 6262
3  7848 3687 7847
3  7851 7617 6552
3  7615 6833 6545
3  7852 3699 3696
3  6274 3690 7848
3  6549 7853 6553
3  6828 7615 3303
3  7854 3702 3699
3  6271 3693 6274
3  6546 7855 6549
3  7856 6548 7617
3  7619 6828 3307
3  7852 3696 6271
3  7850 7857 6546
3  7858 7620 6548
3  6826 7619 6541
3  7854 3699 7852
3  6263 3705 3702
3  6544 7859 7850
3  7860 7622 7620
3  6823 6826 6540
3  6260 7220 3708
3  7861 7862 7220
3  6263 3702 7854
3  7863 7861 7864
3  7865 7624 7622
3  6821 6823 6539
3  7866 7626 7624
3  6818 6821 6537
3  7867 3718 3717
3  6255 3711 7220
3  7868 7628 7626
3  6815 6818 6535
3  7869 3719 3718
3  7425 3714 6255
3  7870 7629 7628
3  6812 6815 6533
3  7871 3723 3719
3  7867 3717 7425
3  7872 7630 7629
3  6810 6812 6531
3  7873 3726 3723
3  7869 3718 7867
3  7874 7632 7631
3  6809 6810 6530
3  7875 3737 6240
3  7871 3719 7869
3  7876 7633 7632
3  6806 6809 6527
3  7877 3732 3729
3  7873 3723 7871
3  7878 6528 7633
3  6803 6806 6524
3  7879 3736 3732
3  6246 3726 7873
3  6800 6803 6522
3  7880 3740 3736
3  7877 3729 6246
3  7192 7881 6800
3  7192 6800 6517
3  7882 3743 3740
3  7879 3732 7877
3  6526 7883 7875
3  6797 7192 3343
3  7884 3746 3743
3  7880 3736 7879
3  7639 6797 3347
3  7885 3749 3746
3  7882 3740 7880
3  7886 7432 6519
3  6792 7639 6513
3  7884 3743 7882
3  7887 7638 7432
3  6790 6792 6511
3  7885 3746 7884
3  6233 3752 3749
3  7888 7640 7638
3  6787 6790 6510
3  6230 7224 3755
3  7889 7890 7224
3  6233 3749 7885
3  7891 7889 7892
3  7893 7642 7640
3  6785 6787 6509
3  7894 7644 7642
3  6782 6785 6507
3  7895 3764 3760
3  6227 3758 7224
3  7896 7646 7644
3  6779 6782 6505
3  7897 3767 3764
3  7424 3759 6227
3  7898 7647 7646
3  6776 6779 6503
3  7899 3770 3767
3  7895 3760 7424
3  7900 7648 7647
3  6774 6776 6502
3  7897 3764 7895
3  7901 7650 7649
3  6773 6774 6499
3  7902 3784 6209
3  7899 3767 7897
3  7903 7651 7650
3  6770 6773 6497
3  7904 3779 3776
3  6218 3770 7899
3  7905 6500 7651
3  6765 6770 6495
3  7906 3783 3779
3  6215 3773 6218
3  6498 7907 6501
3  7908 7654 6500
3  7652 6765 6490
3  7909 3787 3783
3  7904 3776 6215
3  7902 7910 6498
3  6760 7652 3384
3  7911 3790 3787
3  7906 3779 7904
3  7912 7657 7654
3  7659 6760 3388
3  7913 3793 3790
3  7909 3783 7906
3  7193 7659 6484
3  7914 3796 3793
3  7911 3787 7909
3  7194 7193 6482
3  7913 3790 7911
3  7660 6485 7196
3  7195 7194 6480
3  7914 3793 7913
3  6202 3798 3796
3  7915 7431 6485
3  6753 7195 6479
3  6200 7228 3799
3  7916 7917 7228
3  6202 3796 7914
3  7918 7916 7919
3  7920 7662 7431
3  6750 6753 6478
3  7921 7664 7662
3  6748 6750 6476
3  7922 3810 3807
3  6195 3800 7228
3  7923 7666 7664
3  6745 6748 6475
3  7924 3821 6184
3  7423 3804 6195
3  7925 7668 7666
3  6743 6745 6473
3  7926 3816 3813
3  7922 3807 7423
3  7927 7671 7669
3  6741 6743 6470
3  7928 3820 3816
3  6190 3810 7922
3  7929 7673 7671
3  6739 6741 6468
3  7930 3824 3820
3  7926 3813 6190
3  7931 6471 7673
3  6735 6739 6465
3  7932 3827 3824
3  7928 3816 7926
3  6472 7933 7924
3  7934 7676 6471
3  7674 6735 6463
3  7935 3830 3827
3  7930 3820 7928
3  6732 7674 3424
3  7936 3833 3830
3  7932 3824 7930
3  7937 6466 7676
3  7678 6732 3428
3  7938 3835 3833
3  7935 3827 7932
3  7939 7681 6466
3  6730 7678 6458
3  7940 3836 3835
3  7936 3830 7935
3  7941 7684 7681
3  6728 6730 6455
3  7938 3833 7936
3  7942 6459 7684
3  6726 6728 6453
3  7940 3835 7938
3  6174 3837 3836
3  7197 6726 6451
3  6171 7232 3841
3  7943 7944 7232
3  6174 3836 7940
3  7945 7943 7946
3  7198 7197 6450
3  7689 6452 7200
3  7199 7198 6449
3  6166 3844 7232
3  7947 7430 6452
3  6721 7199 6447
3  7948 6154 6152
3  7422 3847 6166
3  7949 7696 7694
3  6718 6721 6445
3  7950 3859 3856
3  6164 3850 7422
3  6448 7951 7231
3  7952 7697 7696
3  6716 6718 6443
3  7953 3862 3859
3  6161 3853 6164
3  6446 7954 6448
3  7955 7699 7697
3  6715 6716 6440
3  7956 3865 3862
3  7950 3856 6161
3  7948 7957 6446
3  6714 6715 6438
3  7958 3868 3865
3  7953 3859 7950
3  6444 7959 7948
3  7960 7702 7699
3  6711 6714 6435
3  7961 3871 3868
3  7956 3862 7953
3  7962 7708 6441
3  7705 6711 6433
3  7963 3873 3871
3  7958 3865 7956
3  6707 7705 3467
3  7964 3874 3873
3  7961 3868 7958
3  7965 6436 7708
3  7710 6707 3471
3  7966 3875 3874
3  7963 3871 7961
3  7967 7712 6436
3  6704 7710 6429
3  7968 3879 3875
3  7964 3873 7963
3  7969 7715 7712
3  6702 6704 6427
3  7966 3874 7964
3  7970 7716 7715
3  6699 6702 6424
3  7971 3882 3879
3  7968 3875 7966
3  7972 7717 7716
3  6697 6699 6422
3  6418 3885 3882
3  7971 3879 7968
3  7973 6131 3895
3  7971 6418 3882
3  7974 6139 7975
3  7976 6425 7717
3  6695 6697 6420
3  7201 6695 6416
3  7977 3898 3894
3  6133 3888 6134
3  7978 3899 6127
3  7979 6417 6421
3  6692 7201 6414
3  7980 3902 3898
3  7421 3891 6133
3  7981 7429 6417
3  7202 6692 6412
3  7982 3905 3902
3  7977 3894 7421
3  6419 7983 7978
3  7984 7722 7429
3  6688 7202 6409
3  7985 3908 3905
3  7980 3898 7977
3  6686 6688 6407
3  7986 3910 3908
3  7982 3902 7980
3  7987 7724 7722
3  6685 6686 6404
3  7988 3911 3910
3  7985 3905 7982
3  7989 7730 6410
3  7727 6685 6402
3  7990 3912 3911
3  7986 3908 7985
3  6682 7727 3507
3  7991 3916 3912
3  7988 3910 7986
3  7992 7734 6405
3  7732 6682 3511
3  7993 3919 3916
3  7990 3911 7988
3  6680 7732 6398
3  7994 3922 3919
3  7991 3912 7990
3  7995 7737 7734
3  6678 6680 6396
3  6112 3925 3922
3  7993 3916 7991
3  7996 7739 7737
3  6676 6678 6394
3  7994 3919 7993
3  7997 7742 7739
3  6674 6676 6393
3  6109 7237 3928
3  6112 3922 7994
3  7998 7999 8000
3  8001 7744 7742
3  6672 6674 6391
3  8002 7746 7744
3  6670 6672 6388
3  8003 3940 3937
3  6104 3931 7237
3  7235 8004 7234
3  8005 6392 7746
3  6668 6670 6386
3  8006 3943 3940
3  7420 3934 6104
3  7236 8007 7235
3  7203 6668 6383
3  8008 3945 3943
3  8003 3937 7420
3  7204 7203 6380
3  8009 3946 3945
3  8006 3940 8003
3  8010 6384 7205
3  6660 7204 6378
3  8011 3947 3946
3  8008 3943 8006
3  8012 6381 6384
3  6659 6660 6376
3  8013 3951 3947
3  8009 3945 8008
3  8014 7756 6381
3  7754 6659 6374
3  8015 3954 3951
3  8011 3946 8009
3  8016 7759 7756
3  6658 7754 6372
3  8017 3957 3954
3  8013 3947 8011
3  6656 6658 6370
3  8018 3960 3957
3  8015 3951 8013
3  8019 7762 7759
3  6654 6656 6369
3  8020 6076 3973
3  8017 3954 8015
3  8021 7765 7762
3  6652 6654 6367
3  8022 6077 8023
3  8018 3957 8017
3  8024 7768 7765
3  6650 6652 6365
3  6086 3960 8018
3  8025 3966 3963
3  8026 7770 7768
3  6648 6650 6364
3  6361 3969 3966
3  8025 3963 6086
3  8027 6072 3980
3  8025 6361 3966
3  8020 8028 6368
3  8029 7772 7770
3  6646 6648 6363
3  8030 7774 7772
3  6644 6646 6360
3  8031 3982 3979
3  6073 3972 6079
3  7238 8032 8027
3  8033 7776 7774
3  6642 6644 6358
3  8034 3983 3982
3  7419 3976 6073
3  7239 8035 7238
3  8036 7778 7776
3  6639 6642 6356
3  8037 3984 3983
3  8031 3979 7419
3  8038 7780 7778
3  6637 6639 6353
3  8039 3988 3984
3  8034 3982 8031
3  8040 7782 7780
3  6635 6637 3576
3  8041 3991 3988
3  8037 3983 8034
3  7207 6635 3580
3  8042 3994 3991
3  8039 3984 8037
3  6630 7207 6348
3  8043 3997 3994
3  8041 3988 8039
3  7784 6350 7209
3  7208 6630 6346
3  8044 4000 3997
3  8042 3991 8041
3  8045 7428 6350
3  6628 7208 6344
3  8046 4003 4000
3  8043 3994 8042
3  8047 7786 7428
3  6625 6628 6342
3  8048 4006 4003
3  8044 3997 8043
3  8049 7787 7786
3  6623 6625 6341
3  8046 4000 8044
3  8050 7788 7787
3  6621 6623 6339
3  8048 4003 8046
3  8051 7790 7788
3  6619 6621 6337
3  8052 4012 4009
3  6054 4006 8048
3  6340 8053 6343
3  8054 6044 6042
3  8055 7792 7790
3  6617 6619 6336
3  6047 7243 4015
3  8052 4009 6054
3  8056 8057 7243
3  6338 8058 6340
3  8052 6047 4012
3  8059 7794 7792
3  6615 6617 6335
3  8060 7796 7794
3  6613 6615 6333
3  8061 4022 4021
3  6043 4018 7243
3  8062 7798 7796
3  6611 6613 6331
3  8063 4026 4022
3  7418 4020 6043
3  8064 7800 7798
3  6608 6611 6328
3  8065 4029 4026
3  8061 4021 7418
3  8066 7802 7800
3  6606 6608 6326
3  8067 4032 4029
3  8063 4022 8061
3  8068 6329 7803
3  6602 6606 6323
3  8069 4035 4032
3  8065 4026 8063
3  7805 8070 6602
3  7805 6602 6321
3  8071 4038 4035
3  8067 4029 8065
3  7210 8072 7805
3  7210 7805 6318
3  8073 4041 4038
3  8069 4032 8067
3  8074 6319 7212
3  6601 7210 6316
3  8075 4044 4041
3  8071 4035 8069
3  7211 6601 6315
3  8076 4055 6018
3  8073 4038 8071
3  8077 7427 6319
3  6599 7211 6313
3  8078 4050 4047
3  8075 4041 8073
3  8079 7810 7427
3  6596 6599 6311
3  6020 4054 4050
3  6026 4044 8075
3  8080 7813 7810
3  6593 6596 6309
3  8078 4047 6026
3  8081 7815 7813
3  6591 6593 6308
3  6019 7247 4057
3  8082 8083 7247
3  6312 8084 8076
3  6020 4050 8078
3  8085 8082 8086
3  8087 7816 7815
3  6588 6591 6307
3  8088 7817 7816
3  6586 6588 6305
3  8089 4066 4063
3  6015 4058 7247
3  8090 7818 7817
3  6584 6586 6302
3  8091 4069 4066
3  7417 4059 6015
3  8092 7820 7818
3  6582 6584 6300
3  8093 4072 4069
3  8089 4063 7417
3  8094 7822 7820
3  6578 6582 3654
3  8095 4075 4072
3  8091 4066 8089
3  8096 6303 7822
3  7824 6578 3658
3  8097 4078 4075
3  8093 4069 8091
3  8098 7827 7825
3  6575 7824 6295
3  8099 4081 4078
3  8095 4072 8093
3  6573 6575 6292
3  8100 4084 4081
3  8097 4075 8095
3  8101 6296 7827
3  6572 6573 6291
3  8099 4078 8097
3  7213 6572 6288
3  8102 5989 5987
3  8100 4081 8099
3  7214 7213 6286
3  8103 8104 8105
3  5992 4092 4090
3  5999 4084 8100
3  6290 8106 6294
3  7832 6289 7216
3  7215 7214 6284
3  5996 4087 5999
3  6287 8107 6290
3  8108 7426 6289
3  6569 7215 6283
3  5990 7251 4093
3  8104 8109 7251
3  5992 4090 5996
3  8102 8110 6287
3  8111 7837 7426
3  6567 6569 6282
3  8112 7839 7837
3  6565 6567 6280
3  8113 4104 4101
3  5985 4094 7251
3  8114 7841 7839
3  6563 6565 6278
3  8115 4107 4104
3  7416 4098 5985
3  8116 7843 7841
3  6558 6563 6276
3  8117 4110 4107
3  8113 4101 7416
3  8118 7845 7843
3  6556 6558 6273
3  8119 4113 4110
3  8115 4104 8113
3  8120 7847 7845
3  6553 6556 6270
3  8121 4116 4113
3  8117 4107 8115
3  8122 6274 7848
3  6549 6553 6268
3  8123 4119 4116
3  8119 4110 8117
3  8124 6271 6274
3  6546 6549 6266
3  8125 4122 4119
3  8121 4113 8119
3  8126 7852 6271
3  7850 6546 6265
3  8127 4131 5963
3  8123 4116 8121
3  8128 7854 7852
3  6544 7850 6262
3  8129 4128 4125
3  8125 4119 8123
3  6543 6544 6259
3  8130 4130 4128
3  5969 4122 8125
3  8131 6263 7854
3  6542 6543 6257
3  8129 4125 5969
3  7217 6542 6254
3  8130 4128 8129
3  5964 4132 4130
3  6261 8132 8127
3  7218 7217 6253
3  5961 7255 4136
3  8133 8134 7255
3  5964 4130 8130
3  8135 8133 8136
3  7862 6255 7220
3  7219 7218 6252
3  8137 7425 6255
3  6538 7219 6250
3  8138 4148 4145
3  5957 4139 7255
3  8139 7867 7425
3  6536 6538 6248
3  8140 4151 4148
3  7415 4142 5957
3  8141 7869 7867
3  6534 6536 6245
3  8142 4154 4151
3  8138 4145 7415
3  8143 7871 7869
3  6532 6534 6243
3  8144 4157 4154
3  8140 4148 8138
3  8145 7873 7871
3  6529 6532 3733
3  8146 5939 4167
3  8142 4151 8140
3  8147 6246 7873
3  7875 6529 3737
3  8148 4163 4160
3  8144 4154 8142
3  8149 7879 7877
3  6526 7875 6240
3  8150 4165 4163
3  5946 4157 8144
3  6523 6526 6239
3  8151 4173 5933
3  8148 4160 5946
3  8146 8152 6242
3  8153 7880 7879
3  6521 6523 6237
3  8154 4168 4166
3  8150 4163 8148
3  6241 8155 8146
3  8156 7882 7880
3  6516 6521 6235
3  8157 4172 4168
3  5940 4165 8150
3  8158 7884 7882
3  6515 6516 6232
3  8154 4166 5940
3  8151 8159 6238
3  8160 7885 7884
3  6514 6515 6229
3  8157 4168 8154
3  5934 4176 4172
3  6236 8161 8151
3  8162 6233 7885
3  6512 6514 6228
3  5932 7259 4179
3  8163 8164 7259
3  5934 4172 8157
3  8165 8163 8166
3  7221 6512 6226
3  7222 7221 6224
3  8167 4191 4188
3  5927 4182 7259
3  7890 6227 7224
3  7223 7222 6222
3  8168 4194 4191
3  7414 4185 5927
3  8169 7424 6227
3  6508 7223 6220
3  8170 4197 4194
3  8167 4188 7414
3  8171 7895 7424
3  6506 6508 6217
3  8172 4200 4197
3  8168 4191 8167
3  8173 7897 7895
3  6504 6506 6214
3  8174 4201 4200
3  8170 4194 8168
3  8175 7899 7897
3  6501 6504 6212
3  8176 4202 4201
3  8172 4197 8170
3  8177 6215 6218
3  6498 6501 3780
3  8178 4214 5908
3  8174 4200 8172
3  8179 7904 6215
3  7902 6498 3784
3  8180 4209 4206
3  8176 4201 8174
3  6496 7902 6209
3  8181 4213 4209
3  5914 4202 8176
3  8182 7906 7904
3  6494 6496 6207
3  8183 4217 4213
3  8180 4206 5914
3  8184 7909 7906
3  6489 6494 6205
3  8181 4209 8180
3  6210 8185 8178
3  8186 7911 7909
3  6487 6489 6203
3  8183 4213 8181
3  5906 4220 4217
3  8187 7913 7911
3  6486 6487 6201
3  5903 7263 4223
3  8188 8189 7263
3  5906 4217 8183
3  8190 8188 8191
3  8192 7914 7913
3  6483 6486 6199
3  8193 6202 7914
3  6481 6483 6197
3  8194 4235 4232
3  5898 4226 7263
3  7225 6481 6194
3  8195 4237 4235
3  7413 4229 5898
3  7226 7225 6192
3  8196 4238 4237
3  8194 4232 7413
3  7917 6195 7228
3  7227 7226 6189
3  8197 4239 4238
3  8195 4235 8194
3  8198 7423 6195
3  6477 7227 6188
3  8196 4237 8195
3  8199 7922 7423
3  6474 6477 3817
3  8200 5879 5878
3  8197 4238 8196
3  8201 6190 7922
3  7924 6474 3821
3  8202 4249 4246
3  5889 4239 8197
3  6187 8203 6191
3  8204 7928 7926
3  6472 7924 6184
3  8205 4252 4249
3  5886 4243 5889
3  6186 8206 6187
3  6469 6472 6182
3  8207 4255 4252
3  8202 4246 5886
3  8200 8208 6186
3  8209 7930 7928
3  6467 6469 6180
3  8205 4249 8202
3  6185 8210 8200
3  8211 7932 7930
3  6464 6467 6178
3  8207 4252 8205
3  5876 4258 4255
3  8212 7935 7932
3  6462 6464 6177
3  5873 7267 4261
3  8213 8214 7267
3  5876 4255 8207
3  8215 8213 8216
3  8217 7936 7935
3  6461 6462 6176
3  8218 7938 7936
3  6460 6461 6173
3  8219 4272 4270
3  5868 4264 7267
3  8220 7940 7938
3  6457 6460 6170
3  8221 4273 4272
3  7412 4267 5868
3  8222 6174 7940
3  6454 6457 6168
3  8223 4274 4273
3  8219 4270 7412
3  7229 6454 6165
3  8224 4278 4274
3  8221 4272 8219
3  7230 7229 6163
3  8225 4289 5853
3  8223 4273 8221
3  7944 6166 7232
3  7231 7230 6160
3  8226 4284 4281
3  8224 4274 8223
3  8227 6164 7422
3  6448 7231 6158
3  8228 4288 4284
3  5859 4278 8224
3  8229 6161 6164
3  6446 6448 6156
3  8230 4292 4288
3  8226 4281 5859
3  8231 7950 6161
3  7948 6446 6154
3  8232 4295 4292
3  8228 4284 8226
3  6159 8233 8225
3  8234 7953 7950
3  6444 7948 6152
3  8235 4298 4295
3  8230 4288 8228
3  6442 6444 6150
3  8232 4292 8230
3  8236 7956 7953
3  6439 6442 6148
3  8235 4295 8232
3  5847 4301 4298
3  8237 7958 7956
3  6437 6439 6147
3  5844 7271 4304
3  8238 8239 7271
3  5847 4298 8235
3  8240 8238 8241
3  8242 7961 7958
3  6434 6437 6146
3  8243 7963 7961
3  6432 6434 6144
3  8244 4312 4308
3  5841 4306 7271
3  8245 7964 7963
3  6431 6432 6142
3  8246 4315 4312
3  7411 4307 5841
3  8247 7966 7964
3  6430 6431 6140
3  8248 4318 4315
3  8244 4308 7411
3  8249 7968 7966
3  6428 6430 6138
3  8246 4312 8244
3  8250 7971 7968
3  6426 6428 6136
3  8251 5823 5821
3  8248 4315 8246
3  7973 6426 6131
3  8252 4327 4324
3  5832 4318 8248
3  6137 8253 6141
3  7233 7973 3895
3  8254 4330 4327
3  5829 4321 5832
3  6135 8255 6137
3  7978 7233 3899
3  8256 4333 4330
3  8252 4324 5829
3  8251 8257 6135
3  8258 7977 7421
3  6419 7978 6127
3  8259 4336 4333
3  8254 4327 8252
3  6130 8260 8251
3  6415 6419 6125
3  8256 4330 8254
3  8261 7980 7977
3  6413 6415 6123
3  8259 4333 8256
3  5817 4339 4336
3  8262 7982 7980
3  6411 6413 6122
3  5815 7275 4341
3  8263 8264 7275
3  5817 4336 8259
3  8265 8263 8266
3  8267 7985 7982
3  6408 6411 6121
3  8268 7986 7985
3  6406 6408 6119
3  8269 4350 4347
3  5811 4342 7275
3  8270 7988 7986
3  6403 6406 6118
3  7410 4343 5811
3  8271 7990 7988
3  6401 6403 6116
3  8272 4363 4367
3  8269 4347 7410
3  8273 7991 7990
3  6400 6401 6114
3  8274 4359 4356
3  5806 4350 8269
3  8275 7993 7991
3  6399 6400 6111
3  8276 4362 4359
3  5803 4353 5806
3  8277 7994 7993
3  6397 6399 6108
3  8278 4366 4362
3  8274 4356 5803
3  8272 8279 6115
3  6395 8280 6397
3  6395 6397 6106
3  8281 4370 4366
3  8276 4359 8274
3  6113 8282 8272
3  7234 8283 6395
3  7234 6395 6103
3  8284 4373 4370
3  8278 4362 8276
3  8285 6104 7237
3  7235 7234 6101
3  8286 4376 4373
3  8281 4366 8278
3  8287 7420 6104
3  7236 7235 6099
3  8284 4370 8281
3  6390 7236 6097
3  8286 4373 8284
3  5790 4379 4376
3  8288 8003 7420
3  6387 6390 6096
3  5788 7279 4380
3  8289 8290 7279
3  5790 4376 8286
3  8291 8289 8292
3  8293 8006 8003
3  6385 6387 6095
3  8294 8008 8006
3  6382 6385 6093
3  8295 4391 4388
3  5783 4381 7279
3  8296 8009 8008
3  6379 6382 6091
3  8297 4394 4391
3  7409 4385 5783
3  8298 8011 8009
3  6377 6379 6089
3  8299 4397 4394
3  8295 4388 7409
3  8300 8013 8011
3  6375 6377 6087
3  8301 4400 4397
3  8297 4391 8295
3  8302 8015 8013
3  6373 6375 6085
3  8299 4394 8297
3  8303 8017 8015
3  6371 6373 6083
3  8304 5764 5763
3  8301 4397 8299
3  8305 8018 8017
3  6368 6371 6081
3  8306 4409 4406
3  5772 4400 8301
3  6084 8307 6088
3  8308 8025 6086
3  8020 6368 6076
3  8309 4411 4409
3  5770 4403 5772
3  6082 8310 6084
3  6366 8311 8020
3  6366 8020 3973
3  8312 4412 4411
3  8306 4406 5770
3  8304 8313 6082
3  8027 6366 6072
3  8309 4409 8306
3  6080 8314 8304
3  6078 6073 6079
3  7238 8027 3980
3  8312 4411 8309
3  5761 4413 4412
3  8315 7419 6073
3  7239 7238 6070
3  5758 7283 4417
3  8316 8317 7283
3  5761 4412 8312
3  8318 8316 8319
3  6362 7239 6069
3  8320 8031 7419
3  6359 6362 6067
3  8321 4429 4426
3  5753 4420 7283
3  8322 8034 8031
3  6357 6359 6065
3  8323 4432 4429
3  7408 4423 5753
3  8324 8037 8034
3  6355 6357 6063
3  8325 4435 4432
3  8321 4426 7408
3  8326 8039 8037
3  6352 6355 6062
3  8327 4445 5740
3  8323 4429 8321
3  8328 8041 8039
3  6351 6352 6060
3  8329 4441 4438
3  8325 4432 8323
3  8330 8042 8041
3  6349 6351 6058
3  8331 4444 4441
3  5745 4435 8325
3  8332 8043 8042
3  6347 6349 6056
3  8333 4446 4444
3  8329 4438 5745
3  8334 8044 8043
3  6345 6347 6053
3  8335 4447 4446
3  8331 4441 8329
3  6059 8336 8327
3  8337 8046 8044
3  6343 6345 6051
3  8338 4451 4447
3  8333 4444 8331
3  8339 6054 8048
3  6340 6343 6049
3  8340 4454 4451
3  8335 4446 8333
3  8341 8052 6054
3  6338 6340 6046
3  8338 4447 8335
3  8054 8342 6338
3  8054 6338 6044
3  8340 4451 8338
3  5732 4457 4454
3  7240 8343 8054
3  7240 8054 6042
3  5729 7287 4460
3  8344 8345 7287
3  5732 4454 8340
3  8346 8344 8347
3  7241 7240 6041
3  8057 6043 7243
3  7242 7241 6039
3  8348 4472 4469
3  5724 4463 7287
3  8349 7418 6043
3  6334 7242 6037
3  8350 4475 4472
3  7407 4466 5724
3  8351 8061 7418
3  6332 6334 6035
3  8352 4478 4475
3  8348 4469 7407
3  8353 8063 8061
3  6330 6332 6034
3  8350 4472 8348
3  8354 8065 8063
3  6327 6330 6032
3  8355 5707 5705
3  8352 4475 8350
3  8356 8067 8065
3  6325 6327 6030
3  8357 4482 4481
3  5716 4478 8352
3  6033 8358 6036
3  8359 8069 8067
3  6322 6325 6028
3  8360 4486 4482
3  5713 4480 5716
3  6031 8361 6033
3  8362 8071 8069
3  6320 6322 6025
3  8363 4489 4486
3  8357 4481 5713
3  8355 8364 6031
3  8365 8073 8071
3  6317 6320 6023
3  8366 4492 4489
3  8360 4482 8357
3  6029 8367 8355
3  8368 8075 8073
3  6314 6317 4051
3  8363 4486 8360
3  8369 6026 8075
3  8076 6314 4055
3  8366 4489 8363
3  5701 4495 4492
3  8370 6020 8078
3  6312 8076 6018
3  5698 7291 4498
3  8371 8372 7291
3  5701 4492 8366
3  8373 8371 8374
3  6310 6312 6017
3  7244 6310 6014
3  8375 4510 4507
3  5694 4501 7291
3  7245 7244 6012
3  8376 4513 4510
3  7406 4504 5694
3  8083 6015 7247
3  7246 7245 6011
3  8377 4521 5682
3  8375 4507 7406
3  8378 7417 6015
3  6306 7246 6009
3  8379 4515 4514
3  8376 4510 8375
3  8380 8089 7417
3  6304 6306 6007
3  8381 4520 4515
3  5688 4513 8376
3  8382 8091 8089
3  6301 6304 6005
3  8383 4524 4520
3  8379 4514 5688
3  8384 8093 8091
3  6299 6301 6003
3  8385 4527 4524
3  8381 4515 8379
3  6008 8386 8377
3  8387 8095 8093
3  6298 6299 6001
3  8388 4530 4527
3  8383 4520 8381
3  8389 8097 8095
3  6297 6298 5998
3  8390 4533 4530
3  8385 4524 8383
3  8391 8099 8097
3  6294 6297 5995
3  8388 4527 8385
3  8392 5999 8100
3  6290 6294 5993
3  8390 4530 8388
3  5674 4536 4533
3  8393 5996 5999
3  6287 6290 5991
3  5671 7295 4539
3  8394 8395 7295
3  5674 4533 8390
3  8396 8394 8397
3  8398 5992 5996
3  8102 6287 5989
3  6285 8399 8102
3  6285 8102 5987
3  8400 4548 4547
3  5666 4542 7295
3  7248 6285 5984
3  8401 4549 4548
3  7405 4545 5666
3  7249 7248 5982
3  8402 4553 4549
3  8400 4547 7405
3  8109 5985 7251
3  7250 7249 5981
3  8401 4548 8400
3  8403 7416 5985
3  6281 7250 5979
3  8404 5648 5646
3  8402 4549 8401
3  8405 8113 7416
3  6279 6281 5977
3  8406 4562 4559
3  5658 4553 8402
3  5980 8407 5983
3  8408 8115 8113
3  6277 6279 5975
3  8409 4565 4562
3  5655 4556 5658
3  5978 8410 5980
3  8411 8117 8115
3  6275 6277 5973
3  8412 4568 4565
3  8406 4559 5655
3  8404 8413 5978
3  8414 8119 8117
3  6272 6275 5971
3  8415 4571 4568
3  8409 4562 8406
3  5976 8416 8404
3  8417 8121 8119
3  6269 6272 5968
3  8412 4565 8409
3  8418 8123 8121
3  6267 6269 5966
3  8415 4568 8412
3  5642 4574 4571
3  8419 8125 8123
3  6264 6267 4129
3  5640 7299 4577
3  8420 8421 7299
3  5642 4571 8415
3  8422 8420 8423
3  8424 5969 8125
3  8127 6264 4131
3  8425 8130 8129
3  6261 8127 5963
3  8426 4585 4584
3  5636 4580 7299
3  6258 6261 5960
3  8427 4589 4585
3  7404 4583 5636
3  8428 5964 8130
3  6256 6258 5958
3  8429 4592 4589
3  8426 4584 7404
3  7252 6256 5956
3  8430 4603 5621
3  8427 4585 8426
3  7253 7252 5954
3  8431 4598 4595
3  8429 4589 8427
3  8134 5957 7255
3  7254 7253 5952
3  8432 4602 4598
3  5628 4592 8429
3  8433 7415 5957
3  6251 7254 5950
3  8434 4606 4602
3  8431 4595 5628
3  8435 8138 7415
3  6249 6251 5948
3  8436 4609 4606
3  8432 4598 8431
3  5953 8437 8430
3  8438 8140 8138
3  6247 6249 5945
3  8439 4612 4609
3  8434 4602 8432
3  8440 8142 8140
3  6244 6247 5943
3  8436 4606 8434
3  8441 8144 8142
3  6242 6244 5941
3  8439 4609 8436
3  5615 4615 4612
3  8442 8148 5946
3  8146 6242 5939
3  5612 7303 4617
3  8443 8444 7303
3  5615 4612 8439
3  8445 8443 8446
3  8447 8150 8148
3  6241 8146 4167
3  6238 6241 5937
3  8448 4626 4623
3  5608 4618 7303
3  8449 8154 5940
3  8151 6238 4173
3  8450 4629 4626
3  7403 4619 5608
3  8451 8157 8154
3  6236 8151 5933
3  8452 4632 4629
3  8448 4623 7403
3  6234 6236 5931
3  8450 4626 8448
3  8453 5934 8157
3  6231 6234 5929
3  8454 5589 5587
3  8452 4629 8450
3  7256 6231 5926
3  8455 4641 4638
3  5599 4632 8452
3  5930 8456 5935
3  7257 7256 5924
3  8457 4644 4641
3  5596 4635 5599
3  5928 8458 5930
3  8164 5927 7259
3  7258 7257 5922
3  8459 4647 4644
3  8455 4638 5596
3  8454 8460 5928
3  8461 7414 5927
3  6225 7258 5920
3  8457 4641 8455
3  5925 8462 8454
3  8463 8167 7414
3  6223 6225 5918
3  8459 4644 8457
3  5586 4649 4647
3  8464 8168 8167
3  6221 6223 5917
3  5584 7307 4650
3  8465 8466 7307
3  5586 4647 8459
3  8467 8465 8468
3  8469 8170 8168
3  6219 6221 5916
3  8470 8172 8170
3  6216 6219 5913
3  8471 4661 4658
3  5578 4651 7307
3  8472 8174 8172
3  6213 6216 5911
3  8473 4664 4661
3  7402 4655 5578
3  8474 8176 8174
3  6211 6213 4210
3  8475 4667 4664
3  8471 4658 7402
3  8476 5914 8176
3  8178 6211 4214
3  8477 4670 4667
3  8473 4661 8471
3  8478 8181 8180
3  6210 8178 5908
3  8479 4681 5561
3  8475 4664 8473
3  6208 6210 5905
3  8480 4676 4673
3  8477 4667 8475
3  8481 8183 8181
3  6206 6208 5902
3  8482 4680 4676
3  5567 4670 8477
3  8483 5906 8183
3  6204 6206 5900
3  8484 4683 4680
3  8480 4673 5567
3  7260 6204 5897
3  8485 4684 4683
3  8482 4676 8480
3  5904 8486 8479
3  7261 7260 5895
3  8484 4680 8482
3  8189 5898 7263
3  7262 7261 5893
3  8485 4683 8484
3  5559 4685 4684
3  8487 7413 5898
3  6198 7262 5892
3  5556 7311 4689
3  8488 8489 7311
3  5559 4684 8485
3  8490 8488 8491
3  8492 8194 7413
3  6196 6198 5891
3  8493 8195 8194
3  6193 6196 5888
3  8494 4701 4698
3  5551 4692 7311
3  8495 8196 8195
3  6191 6193 5885
3  8496 4704 4701
3  7401 4695 5551
3  8497 5889 8197
3  6187 6191 5883
3  8498 4707 4704
3  8494 4698 7401
3  8499 5886 5889
3  6186 6187 5881
3  8500 4710 4707
3  8496 4701 8494
3  8501 8202 5886
3  8200 6186 5879
3  8502 4713 4710
3  8498 4704 8496
3  8503 8205 8202
3  6185 8200 5878
3  8500 4707 8498
3  6183 6185 5875
3  8504 5529 5526
3  8502 4710 8500
3  8505 8207 8205
3  6181 6183 5872
3  8506 4718 4717
3  5538 4713 8502
3  5877 8507 5880
3  8508 5876 8207
3  6179 6181 5870
3  8509 4722 4718
3  5535 4716 5538
3  5874 8510 5877
3  7264 6179 5867
3  8506 4717 5535
3  8504 8511 5874
3  7265 7264 5865
3  8509 4718 8506
3  5527 4725 4722
3  5871 8512 8504
3  8214 5868 7267
3  7266 7265 5864
3  5524 7315 4728
3  8513 8514 7315
3  5527 4722 8509
3  8515 8513 8516
3  8517 7412 5868
3  6175 7266 5863
3  8518 8219 7412
3  6172 6175 5861
3  8519 4740 4737
3  5519 4731 7315
3  8520 8221 8219
3  6169 6172 5858
3  8521 4743 4740
3  7400 4734 5519
3  8522 8223 8221
3  6167 6169 5856
3  8523 4746 4743
3  8519 4737 7400
3  8524 8224 8223
3  6162 6167 4285
3  8525 4753 5505
3  8521 4740 8519
3  8526 5859 8224
3  8225 6162 4289
3  8527 4750 4749
3  8523 4743 8521
3  8528 8228 8226
3  6159 8225 5853
3  8529 4752 4750
3  5510 4746 8523
3  6157 6159 5851
3  8530 4757 4752
3  8527 4749 5510
3  8531 8230 8228
3  6155 6157 5849
3  8532 4760 4757
3  8529 4750 8527
3  5854 8533 8525
3  8534 8232 8230
3  6153 6155 5846
3  8530 4752 8529
3  8535 8235 8232
3  6151 6153 5843
3  8532 4757 8530
3  5502 4763 4760
3  8536 5847 8235
3  6149 6151 5842
3  5499 7319 4766
3  8537 8538 7319
3  5502 4760 8532
3  8539 8537 8540
3  7268 6149 5840
3  7269 7268 5838
3  8541 4778 4775
3  5494 4769 7319
3  8239 5841 7271
3  7270 7269 5836
3  8542 4781 4778
3  7399 4772 5494
3  8543 7411 5841
3  6145 7270 5834
3  8544 4783 4781
3  8541 4775 7399
3  8545 8244 7411
3  6143 6145 5831
3  8546 4784 4783
3  8542 4778 8541
3  8547 8246 8244
3  6141 6143 5828
3  8548 4785 4784
3  8544 4781 8542
3  8549 5832 8248
3  6137 6141 5826
3  8550 4789 4785
3  8546 4783 8544
3  8551 5829 5832
3  6135 6137 5824
3  8552 4792 4789
3  8548 4784 8546
3  8553 8252 5829
3  8251 6135 5823
3  8550 4785 8548
3  8554 8254 8252
3  6130 8251 5821
3  8555 5468 5466
3  8552 4789 8550
3  6129 6130 5819
3  8556 8557 8558
3  5472 4801 4798
3  5480 4792 8552
3  5822 8559 5825
3  8560 8256 8254
3  6128 6129 5816
3  5477 4795 5480
3  5820 8561 5822
3  8562 8259 8256
3  6126 6128 5814
3  5469 7323 4804
3  8557 8563 7323
3  5472 4798 5477
3  8555 8564 5820
3  8565 5817 8259
3  6124 6126 5813
3  7272 6124 5810
3  8566 4815 4813
3  5464 4807 7323
3  7273 7272 5808
3  8567 4816 4815
3  7398 4810 5464
3  8264 5811 7275
3  7274 7273 5805
3  8568 4817 4816
3  8566 4813 7398
3  8569 7410 5811
3  6120 7274 5802
3  8570 4821 4817
3  8567 4815 8566
3  8571 8269 7410
3  6117 6120 5801
3  8572 4832 5448
3  8568 4816 8567
3  8573 5806 8269
3  6115 6117 5799
3  8574 4827 4824
3  8570 4817 8568
3  8575 8274 5803
3  8272 6115 4363
3  8576 4831 4827
3  5455 4821 8570
3  8577 8276 8274
3  6113 8272 4367
3  8578 4835 4831
3  8574 4824 5455
3  6110 6113 5795
3  8579 4838 4835
3  8576 4827 8574
3  5798 8580 8572
3  8581 8278 8276
3  6107 6110 5793
3  8578 4831 8576
3  8582 8281 8278
3  6105 6107 5791
3  8579 4835 8578
3  5445 4841 4838
3  8583 8284 8281
3  6102 6105 5789
3  5442 7327 4844
3  8584 8585 7327
3  5445 4838 8579
3  8586 8584 8587
3  8588 8286 8284
3  6100 6102 5787
3  8589 5790 8286
3  6098 6100 5785
3  8590 4851 4850
3  5438 4847 7327
3  7276 6098 5782
3  8591 4855 4851
3  7397 4849 5438
3  7277 7276 5780
3  8592 4858 4855
3  8590 4850 7397
3  8290 5783 7279
3  7278 7277 5778
3  8593 4861 4858
3  8591 4851 8590
3  8594 7409 5783
3  6094 7278 5776
3  8595 4864 4861
3  8592 4855 8591
3  8596 8295 7409
3  6092 6094 5774
3  8597 4867 4864
3  8593 4858 8592
3  8598 8297 8295
3  6090 6092 5771
3  8599 4870 4867
3  8595 4861 8593
3  8600 8299 8297
3  6088 6090 5769
3  8597 4864 8595
3  8601 5772 8301
3  6084 6088 5767
3  8599 4867 8597
3  8602 5770 5772
3  6082 6084 5765
3  8603 4876 4873
3  5423 4870 8599
3  5768 8604 5773
3  8605 5414 5412
3  8606 8306 5770
3  8304 6082 5764
3  5416 7331 4879
3  8603 4873 5423
3  8607 8608 7331
3  5766 8609 5768
3  8603 5416 4876
3  8610 8309 8306
3  6080 8304 5763
3  6075 6080 5760
3  8611 4887 4883
3  5413 4881 7331
3  8612 8312 8309
3  6074 6075 5757
3  8613 4890 4887
3  7396 4882 5413
3  8614 5761 8312
3  6071 6074 5755
3  8615 4893 4890
3  8611 4883 7396
3  7280 6071 5752
3  8616 4896 4893
3  8613 4887 8611
3  7281 7280 5750
3  8617 4899 4896
3  8615 4890 8613
3  8317 5753 7283
3  7282 7281 5749
3  8618 4910 5393
3  8616 4893 8615
3  8619 7408 5753
3  6068 7282 5747
3  8620 4905 4902
3  8617 4896 8616
3  8621 8321 7408
3  6066 6068 5744
3  8622 4909 4905
3  5400 4899 8617
3  8623 8323 8321
3  6064 6066 5742
3  8620 4902 5400
3  8624 8325 8323
3  6061 6064 4442
3  8622 4905 8620
3  5394 4913 4909
3  5746 8625 8618
3  8626 5745 8325
3  8327 6061 4445
3  5391 7335 4915
3  8627 8628 7335
3  5394 4909 8622
3  8629 8627 8630
3  8631 8331 8329
3  6059 8327 5740
3  6057 6059 5738
3  8632 4924 4921
3  5387 4916 7335
3  8633 8333 8331
3  6055 6057 5736
3  8634 4927 4924
3  7395 4917 5387
3  8635 8335 8333
3  6052 6055 5734
3  8636 4928 4927
3  8632 4921 7395
3  8637 8338 8335
3  6050 6052 5731
3  8638 4929 4928
3  8634 4924 8632
3  8639 8340 8338
3  6048 6050 5728
3  8640 4932 4929
3  8636 4927 8634
3  8641 5732 8340
3  6045 6048 5726
3  8642 4935 4932
3  8638 4928 8636
3  7284 6045 5723
3  8643 4936 4935
3  8640 4929 8638
3  7285 7284 5721
3  8644 4937 4936
3  8642 4932 8640
3  8345 5724 7287
3  7286 7285 5719
3  8645 4938 4937
3  8643 4935 8642
3  8646 7407 5724
3  6040 7286 5718
3  8647 5367 5365
3  5372 4939 4938
3  8644 4936 8643
3  8648 8348 7407
3  6038 6040 5715
3  8645 4937 8644
3  8649 8350 8348
3  6036 6038 5712
3  5369 7338 4940
3  5372 4938 8645
3  5717 8650 5720
3  8651 5716 8352
3  6033 6036 5711
3  8652 5713 5716
3  6031 6033 5709
3  8653 4944 4943
3  5366 4941 7338
3  5714 8654 7336
3  8655 8357 5713
3  8355 6031 5707
3  8656 4945 4944
3  7394 4942 5366
3  8657 8360 8357
3  6029 8355 5705
3  8658 4946 4945
3  8653 4943 7394
3  6027 6029 5703
3  8659 4947 4946
3  8656 4944 8653
3  8660 8363 8360
3  6024 6027 5700
3  8661 4948 4947
3  8658 4945 8656
3  8662 8366 8363
3  6022 6024 5697
3  8663 4949 4948
3  8659 4946 8658
3  8664 5701 8366
3  6021 6022 5696
3  8665 4954 5353
3  8661 4947 8659
3  7288 6021 5693
3  8666 4951 4950
3  8663 4948 8661
3  7289 7288 5691
3  5355 4953 4951
3  5358 4949 8663
3  8372 5694 7291
3  7290 7289 5689
3  8666 4950 5358
3  8667 7406 5694
3  6016 7290 5687
3  5354 7342 4955
3  8668 8669 7342
3  5692 8670 8665
3  5355 4951 8666
3  8671 8668 8672
3  8673 8375 7406
3  6013 6016 5686
3  8674 8376 8375
3  6010 6013 4516
3  8675 4959 4958
3  5351 4956 7342
3  8676 5688 8376
3  8377 6010 4521
3  8677 4960 4959
3  7393 4957 5351
3  8678 8381 8379
3  6008 8377 5682
3  8679 4961 4960
3  8675 4958 7393
3  6006 6008 5680
3  8680 4962 4961
3  8677 4959 8675
3  8681 8383 8381
3  6004 6006 5678
3  8682 4963 4962
3  8679 4960 8677
3  8683 8385 8383
3  6002 6004 5676
3  8684 4964 4963
3  8680 4961 8679
3  8685 8388 8385
3  6000 6002 5673
3  8686 4965 4964
3  8682 4962 8680
3  8687 8390 8388
3  5997 6000 5670
3  8688 4966 4965
3  8684 4963 8682
3  8689 5674 8390
3  5994 5997 5668
3  8686 4964 8684
3  7292 5994 5665
3  8690 4967 4966
3  8688 4965 8686
3  7293 7292 5663
3  7343 4968 4967
3  8690 4966 8688
3  8691 5333 5332
3  8690 7343 4967
3  8692 5339 8693
3  8395 5666 7295
3  7294 7293 5662
3  8694 7405 5666
3  5988 7294 5660
3  8695 4972 4971
3  5335 4969 5336
3  8696 5331 5330
3  8697 8400 7405
3  5986 5988 5657
3  8698 4973 4972
3  7392 4970 5335
3  8696 8699 5664
3  8700 8401 8400
3  5983 5986 5654
3  8701 4974 4973
3  8695 4971 7392
3  5661 8702 8696
3  8703 5658 8402
3  5980 5983 5652
3  8704 4975 4974
3  8698 4972 8695
3  8705 5655 5658
3  5978 5980 5650
3  8706 4976 4975
3  8701 4973 8698
3  8707 8406 5655
3  8404 5978 5648
3  8708 4977 4976
3  8704 4974 8701
3  8709 8409 8406
3  5976 8404 5646
3  8710 4978 4977
3  8706 4975 8704
3  5974 5976 5644
3  8711 4979 4978
3  8708 4976 8706
3  8712 8412 8409
3  5972 5974 5641
3  8713 4980 4979
3  8710 4977 8708
3  8714 8415 8412
3  5970 5972 5639
3  8711 4978 8710
3  8715 5642 8415
3  5967 5970 5637
3  8716 4981 4980
3  8713 4979 8711
3  8717 4985 5316
3  7296 5967 5635
3  5318 7347 4982
3  8716 4980 8713
3  5321 8718 7347
3  8716 5318 4981
3  7297 7296 5634
3  8421 5636 7299
3  7298 7297 5632
3  8719 4988 4987
3  5317 4984 7347
3  8720 7404 5636
3  5965 7298 5630
3  8721 4989 4988
3  7391 4986 5317
3  8722 8426 7404
3  5962 5965 5627
3  8723 4990 4989
3  8719 4987 7391
3  8724 8427 8426
3  5959 5962 5625
3  8725 4991 4990
3  8721 4988 8719
3  8726 8429 8427
3  5955 5959 4599
3  8727 4992 4991
3  8723 4989 8721
3  8728 5628 8429
3  8430 5955 4603
3  8729 4993 4992
3  8725 4990 8723
3  8730 8432 8431
3  5953 8430 5621
3  8731 4994 4993
3  8727 4991 8725
3  5951 5953 5619
3  8732 4995 4994
3  8729 4992 8727
3  8733 8434 8432
3  5949 5951 5617
3  8731 4993 8729
3  8734 8436 8434
3  5947 5949 5614
3  5306 4996 4995
3  8732 4994 8731
3  8735 8439 8436
3  5944 5947 5611
3  5304 7349 4997
3  5306 4995 8732
3  8736 8737 8738
3  8739 5615 8439
3  5942 5944 5610
3  7300 5942 5607
3  8740 5001 5000
3  5302 4998 7349
3  7301 7300 5605
3  8741 5002 5001
3  5300 4999 5302
3  5609 8742 5613
3  8444 5608 7303
3  7302 7301 5603
3  8743 5003 5002
3  8740 5000 5300
3  7390 8744 5609
3  8745 7403 5608
3  5938 7302 5601
3  8746 5004 5003
3  8741 5001 8740
3  5606 8747 7390
3  8748 8448 7403
3  5936 5938 5598
3  8749 5005 5004
3  8743 5002 8741
3  8750 8450 8448
3  5935 5936 5595
3  8751 5006 5005
3  8746 5003 8743
3  8752 5599 8452
3  5930 5935 5593
3  8753 5007 5006
3  8749 5004 8746
3  8754 5596 5599
3  5928 5930 5591
3  8755 5008 5007
3  8751 5005 8749
3  8756 8455 5596
3  8454 5928 5589
3  5288 5009 5008
3  8753 5006 8751
3  8757 8457 8455
3  5925 8454 5587
3  8755 5007 8753
3  5923 5925 5585
3  5289 5010 5009
3  8758 5013 5015
3  5288 5008 8755
3  8759 8459 8457
3  5921 5923 5583
3  8760 5586 8459
3  5919 5921 5580
3  8761 5016 5014
3  5284 5011 5581
3  7304 5919 5577
3  8762 5017 5016
3  7389 5012 5284
3  7351 8763 7350
3  7305 7304 5575
3  8764 5018 5017
3  8761 5014 7389
3  8466 5578 7307
3  7306 7305 5573
3  8765 5019 5018
3  8762 5016 8761
3  8766 7402 5578
3  5915 7306 5571
3  8767 5020 5019
3  8764 5017 8762
3  8768 8471 7402
3  5912 5915 5569
3  8769 5021 5020
3  8765 5018 8764
3  8770 8473 8471
3  5910 5912 5566
3  8771 5022 5021
3  8767 5019 8765
3  8772 8475 8473
3  5909 5910 5564
3  8773 5023 5022
3  8769 5020 8767
3  8774 8477 8475
3  5907 5909 4677
3  8771 5021 8769
3  8775 5567 8477
3  8479 5907 4681
3  8773 5022 8771
3  5275 5024 5023
3  8776 8482 8480
3  5904 8479 5561
3  5273 7355 5025
3  8777 8778 7355
3  5275 5023 8773
3  8779 8777 8780
3  5901 5904 5560
3  8781 8484 8482
3  5899 5901 5558
3  5270 5026 7355
3  8782 8485 8484
3  5896 5899 5555
3  8783 5262 5261
3  7388 5027 5270
3  8784 5559 8485
3  5894 5896 5553
3  8785 5031 5030
3  5268 5028 7388
3  5557 8786 7354
3  7308 5894 5550
3  8787 5032 5031
3  5266 5029 5268
3  5554 8788 5557
3  7309 7308 5548
3  8789 5033 5032
3  8785 5030 5266
3  8783 8790 5554
3  8489 5551 7311
3  7310 7309 5546
3  8791 5034 5033
3  8787 5031 8785
3  5552 8792 8783
3  8793 7401 5551
3  5890 7310 5544
3  8794 5035 5034
3  8789 5032 8787
3  8795 8494 7401
3  5887 5890 5542
3  8796 5036 5035
3  8791 5033 8789
3  8797 8496 8494
3  5884 5887 5540
3  8794 5034 8791
3  8798 8498 8496
3  5882 5884 5537
3  5257 5037 5036
3  8796 5035 8794
3  8799 8500 8498
3  5880 5882 5534
3  5255 5253 5038
3  5257 5036 8796
3  8800 8801 8802
3  8803 5538 8502
3  5877 5880 5533
3  8804 5535 5538
3  5874 5877 5531
3  8805 5042 5041
3  7357 5039 5253
3  8806 8506 5535
3  8504 5874 5529
3  8807 5044 5042
3  5251 5040 7357
3  8808 8509 8506
3  5871 8504 5526
3  8809 5046 5044
3  8805 5041 5251
3  5869 5871 5523
3  8810 5047 5046
3  8807 5042 8805
3  5530 8811 7387
3  8812 5527 8509
3  5866 5869 5521
3  8813 5048 5047
3  8809 5044 8807
3  7312 5866 5518
3  8814 5049 5048
3  8810 5046 8809
3  7313 7312 5516
3  8815 5050 5049
3  8813 5047 8810
3  8514 5519 7315
3  7314 7313 5514
3  8816 5051 5050
3  8814 5048 8813
3  8817 7400 5519
3  5862 7314 5512
3  8815 5049 8814
3  8818 8519 7400
3  5860 5862 5509
3  8816 5050 8815
3  5242 5052 5051
3  8819 8521 8519
3  5857 5860 5508
3  5240 7361 5053
3  8820 8821 7361
3  5242 5051 8816
3  8822 8820 8823
3  8824 8523 8521
3  5855 5857 4751
3  8825 5510 8523
3  8525 5855 4753
3  8826 5057 5056
3  5237 5054 7361
3  8827 8529 8527
3  5854 8525 5505
3  8828 5058 5057
3  7386 5055 5237
3  5852 5854 5504
3  8826 5056 7386
3  8829 8530 8529
3  5850 5852 5501
3  8830 5227 5226
3  8828 5057 8826
3  8831 8532 8530
3  5848 5850 5498
3  8832 5061 5060
3  5233 5058 8828
3  5503 8833 5506
3  8834 5502 8532
3  5845 5848 5496
3  8835 5062 5061
3  5231 5059 5233
3  5500 8836 5503
3  7316 5845 5493
3  8837 5063 5062
3  8832 5060 5231
3  8830 8838 5500
3  7317 7316 5491
3  8839 5064 5063
3  8835 5061 8832
3  5497 8840 8830
3  8538 5494 7319
3  7318 7317 5489
3  8837 5062 8835
3  8841 7399 5494
3  5839 7318 5487
3  8839 5063 8837
3  5224 5065 5064
3  8842 8541 7399
3  5837 5839 5486
3  5222 7365 5066
3  8843 8844 7365
3  5224 5064 8839
3  8845 8843 8846
3  8847 8542 8541
3  5835 5837 5485
3  8848 8544 8542
3  5833 5835 5483
3  8849 5070 5069
3  5219 5067 7365
3  8850 8546 8544
3  5830 5833 5482
3  8851 5075 5213
3  7385 5068 5219
3  8852 8548 8546
3  5827 5830 5479
3  8853 5072 5071
3  8849 5069 7385
3  8854 8550 8548
3  5825 5827 5476
3  8855 5074 5072
3  5216 5070 8849
3  8856 5480 8552
3  5822 5825 5474
3  8857 5076 5074
3  8853 5071 5216
3  8858 5477 5480
3  5820 5822 5471
3  8859 5077 5076
3  8855 5072 8853
3  5478 8860 8851
3  8861 5472 5477
3  8555 5820 5468
3  8862 5078 5077
3  8857 5074 8855
3  5818 8863 8555
3  5818 8555 5466
3  8864 5079 5078
3  8859 5076 8857
3  7320 5818 5463
3  8862 5077 8859
3  7321 7320 5461
3  8864 5078 8862
3  5209 5080 5079
3  8563 5464 7323
3  7322 7321 5460
3  5207 7369 5081
3  8865 8866 7369
3  5209 5079 8864
3  8867 8865 8868
3  8869 7398 5464
3  5812 7322 5459
3  8870 8566 7398
3  5809 5812 5457
3  8871 5085 5084
3  5204 5082 7369
3  8872 8567 8566
3  5807 5809 5454
3  8873 5086 5085
3  7384 5083 5204
3  8874 8568 8567
3  5804 5807 5452
3  8875 5087 5086
3  8871 5084 7384
3  8876 8570 8568
3  5800 5804 4828
3  8877 5088 5087
3  8873 5085 8871
3  8878 5455 8570
3  8572 5800 4832
3  8879 5089 5088
3  8875 5086 8873
3  8880 8576 8574
3  5798 8572 5448
3  8881 5090 5089
3  8877 5087 8875
3  5797 5798 5447
3  8879 5088 8877
3  8882 8578 8576
3  5796 5797 5444
3  8883 5188 5187
3  8881 5089 8879
3  8884 8579 8578
3  5794 5796 5441
3  8885 8886 8887
3  5191 5093 5092
3  5196 5090 8881
3  5446 8888 5449
3  8889 5445 8579
3  5792 5794 5439
3  5194 5091 5196
3  5443 8890 5446
3  7324 5792 5437
3  5189 7373 5094
3  8886 8891 7373
3  5191 5092 5194
3  8883 8892 5443
3  7325 7324 5436
3  8585 5438 7327
3  7326 7325 5434
3  8893 5098 5097
3  5186 5095 7373
3  8894 7397 5438
3  5786 7326 5433
3  8895 5103 5180
3  7383 5096 5186
3  8896 8590 7397
3  5784 5786 5431
3  8897 5100 5099
3  8893 5097 7383
3  8898 8591 8590
3  5781 5784 5429
3  8899 5102 5100
3  5183 5098 8893
3  8900 8592 8591
3  5779 5781 5427
3  8901 5104 5102
3  8897 5099 5183
3  8902 8593 8592
3  5777 5779 5425
3  8903 5105 5104
3  8899 5100 8897
3  5430 8904 8895
3  8905 8595 8593
3  5775 5777 5422
3  8906 5106 5105
3  8901 5102 8899
3  8907 8597 8595
3  5773 5775 5420
3  8908 5107 5106
3  8903 5104 8901
3  8909 5423 8599
3  5768 5773 5418
3  8906 5105 8903
3  8910 8603 5423
3  5766 5768 5415
3  8908 5106 8906
3  5176 5108 5107
3  8605 8911 5766
3  8605 5766 5414
3  5174 7377 5109
3  8912 8913 7377
3  5176 5107 8908
3  8914 8912 8915
3  7328 8916 8605
3  7328 8605 5412
3  7329 7328 5410
3  8917 5113 5112
3  5171 5110 7377
3  8608 5413 7331
3  7330 7329 5408
3  8918 5114 5113
3  7382 5111 5171
3  8919 7396 5413
3  5762 7330 5406
3  8920 5115 5114
3  8917 5112 7382
3  8921 8611 7396
3  5759 5762 5404
3  8922 5116 5115
3  8918 5113 8917
3  8923 8613 8611
3  5756 5759 5402
3  8924 5117 5116
3  8920 5114 8918
3  8925 8615 8613
3  5754 5756 5399
3  8926 5118 5117
3  8922 5115 8920
3  8927 8616 8615
3  5751 5754 5397
3  8928 5119 5118
3  8924 5116 8922
3  8929 8617 8616
3  5748 5751 4906
3  8930 5120 5119
3  8926 5117 8924
3  8931 5400 8617
3  8618 5748 4910
3  8932 5156 5154
3  5161 5121 5120
3  8928 5118 8926
3  8933 8622 8620
3  5746 8618 5393
3  8930 5119 8928
3  5743 5746 5390
3  5158 7380 5122
3  5161 5120 8930
3  5395 8934 5396
3  8935 5394 8622
3  5741 5743 5389
3  7332 5741 5386
3  8936 5126 5125
3  5155 5123 7380
3  5392 8937 7378
3  7333 7332 5384
3  8938 5127 5126
3  7381 5124 5155
3  8628 5387 7335
3  7334 7333 5382
3  8936 5125 7381
3  8939 5137 5127
3  8940 7395 5387
3  5739 7334 5381
3  8938 5126 8936
3  8941 8632 7395
3  5737 5739 5379
3  8939 5127 8938
3  5144 5135 5137
3  5147 8942 5148
3  8943 8634 8632
3  5735 5737 5377
3  5144 5137 8939
3  8944 8636 8634
3  5733 5735 5376
3  5140 5138 2536
3  5380 5378 5139
3  8945 8638 8636
3  5730 5733 5375
3  8946 8640 8638
3  5727 5730 5374
3  8947 8642 8640
3  5725 5727 5373
3  8948 8643 8642
3  5722 5725 5371
3  8949 8644 8643
3  5720 5722 5370
3  8950 5372 8645
3  5717 5720 5368
3  8647 8951 5717
3  8647 5717 5367
3  7336 8952 8647
3  7336 8647 5365
3  8953 5366 7338
3  5714 7336 5364
3  7337 5714 5363
3  8954 7394 5366
3  5710 7337 5362
3  8955 8653 7394
3  5708 5710 5361
3  8956 8656 8653
3  5706 5708 5360
3  8957 8658 8656
3  5704 5706 5359
3  8958 8659 8658
3  5702 5704 5357
3  8959 8661 8659
3  5699 5702 5356
3  8960 8663 8661
3  5695 5699 4952
3  8961 5358 8663
3  8665 5695 4954
3  8962 5355 8666
3  5692 8665 5353
3  5690 5692 5352
3  7339 5690 5350
3  7340 7339 5349
3  8669 5351 7342
3  7341 7340 5348
3  8963 7393 5351
3  5685 7341 5347
3  8964 8675 7393
3  5684 5685 5346
3  8965 8677 8675
3  5683 5684 5345
3  8966 8679 8677
3  5681 5683 5344
3  8967 8680 8679
3  5679 5681 5343
3  8968 8682 8680
3  5677 5679 5342
3  8969 8684 8682
3  5675 5677 5341
3  8970 8686 8684
3  5672 5675 5340
3  8971 8688 8686
3  5669 5672 5338
3  8972 8690 8688
3  5667 5669 5337
3  8691 5667 5333
3  5664 8973 8691
3  5664 8691 5332
3  8974 7392 5335
3  8696 5664 5331
3  8975 8695 7392
3  5661 8696 5330
3  5659 5661 5329
3  8976 8698 8695
3  5656 5659 5328
3  8977 8701 8698
3  5653 5656 5327
3  8978 8704 8701
3  5651 5653 5326
3  8979 8706 8704
3  5649 5651 5325
3  8980 8708 8706
3  5647 5649 5324
3  8981 8710 8708
3  5645 5647 5323
3  8982 8711 8710
3  5643 5645 5319
3  8983 8713 8711
3  5638 5643 4983
3  8984 8716 8713
3  8717 5638 4985
3  7344 8717 5316
3  7345 7344 5315
3  8718 5317 7347
3  7346 7345 5314
3  8985 7391 5317
3  5633 7346 5313
3  8986 8719 7391
3  5631 5633 5312
3  8987 8721 8719
3  5629 5631 5311
3  8988 8723 8721
3  5626 5629 5310
3  8989 8725 8723
3  5624 5626 5309
3  8990 8727 8725
3  5623 5624 5308
3  8991 8729 8727
3  5622 5623 5307
3  8992 8731 8729
3  5620 5622 5305
3  8993 8732 8731
3  5618 5620 5303
3  8994 5306 8732
3  5616 5618 5301
3  7348 5616 5299
3  5613 7348 5298
3  8995 5300 5302
3  5609 5613 5297
3  8996 8740 5300
3  7390 5609 5296
3  8997 8741 8740
3  5606 7390 5295
3  5604 5606 5294
3  8998 8743 8741
3  5602 5604 5293
3  8999 8746 8743
3  5600 5602 5292
3  9000 8749 8746
3  5597 5600 5291
3  9001 8751 8749
3  5594 5597 5290
3  9002 8753 8751
3  5592 5594 5287
3  9003 8755 8753
3  5590 5592 5286
3  9004 5288 8755
3  5588 5590 5285
3  8758 5588 5013
3  7350 8758 5015
3  9005 7389 5284
3  7351 7350 5283
3  5582 7351 5282
3  9006 8761 7389
3  5579 5582 5281
3  9007 8762 8761
3  5576 5579 5280
3  9008 8764 8762
3  5574 5576 5279
3  9009 8765 8764
3  5572 5574 5278
3  9010 8767 8765
3  5570 5572 5277
3  9011 8769 8767
3  5568 5570 5276
3  9012 8771 8769
3  5565 5568 5274
3  9013 8773 8771
3  5563 5565 5272
3  9014 5275 8773
3  5562 5563 5271
3  7352 5562 5269
3  7353 7352 5267
3  8778 5270 7355
3  7354 7353 5265
3  9015 5268 7388
3  5557 7354 5264
3  9016 5266 5268
3  5554 5557 5263
3  9017 8785 5266
3  8783 5554 5262
3  9018 8787 8785
3  5552 8783 5261
3  5549 5552 5260
3  9019 8789 8787
3  5547 5549 5259
3  9020 8791 8789
3  5545 5547 5258
3  9021 8794 8791
3  5543 5545 5256
3  9022 8796 8794
3  5541 5543 5254
3  9023 5257 8796
3  5539 5541 5252
3  7356 5539 5250
3  5536 7356 5249
3  9024 7357 5253
3  5532 5536 5043
3  9025 5251 7357
3  7387 5532 5045
3  9026 8807 8805
3  5530 7387 5248
3  5528 5530 5247
3  9027 8809 8807
3  5525 5528 5246
3  9028 8810 8809
3  5522 5525 5245
3  9029 8813 8810
3  5520 5522 5244
3  9030 8814 8813
3  5517 5520 5243
3  9031 8815 8814
3  5515 5517 5241
3  9032 8816 8815
3  5513 5515 5239
3  9033 5242 8816
3  5511 5513 5238
3  7358 5511 5236
3  7359 7358 5235
3  8821 5237 7361
3  7360 7359 5234
3  9034 7386 5237
3  5507 7360 5232
3  9035 8826 7386
3  5506 5507 5230
3  9036 5233 8828
3  5503 5506 5229
3  9037 5231 5233
3  5500 5503 5228
3  9038 8832 5231
3  8830 5500 5227
3  9039 8835 8832
3  5497 8830 5226
3  5495 5497 5225
3  9040 8837 8835
3  5492 5495 5223
3  9041 8839 8837
3  5490 5492 5221
3  9042 5224 8839
3  5488 5490 5220
3  7362 5488 5218
3  7363 7362 5217
3  8844 5219 7365
3  7364 7363 5215
3  9043 7385 5219
3  5484 7364 5214
3  9044 8849 7385
3  5481 5484 5073
3  9045 5216 8849
3  8851 5481 5075
3  9046 8855 8853
3  5478 8851 5213
3  5475 5478 5212
3  9047 8857 8855
3  5473 5475 5211
3  9048 8859 8857
3  5470 5473 5210
3  9049 8862 8859
3  5467 5470 5208
3  9050 8864 8862
3  5465 5467 5206
3  9051 5209 8864
3  5462 5465 5205
3  7366 5462 5203
3  7367 7366 5202
3  8866 5204 7369
3  7368 7367 5201
3  9052 7384 5204
3  5458 7368 5200
3  9053 8871 7384
3  5456 5458 5199
3  9054 8873 8871
3  5453 5456 5198
3  9055 8875 8873
3  5451 5453 5197
3  9056 8877 8875
3  5450 5451 5195
3  9057 8879 8877
3  5449 5450 5193
3  9058 5196 8881
3  5446 5449 5192
3  9059 5194 5196
3  5443 5446 5190
3  9060 5191 5194
3  8883 5443 5188
3  5440 9061 8883
3  5440 8883 5187
3  7370 5440 5185
3  7371 7370 5184
3  8891 5186 7373
3  7372 7371 5182
3  9062 7383 5186
3  5435 7372 5181
3  9063 8893 7383
3  5432 5435 5101
3  9064 5183 8893
3  8895 5432 5103
3  9065 8899 8897
3  5430 8895 5180
3  5428 5430 5179
3  9066 8901 8899
3  5426 5428 5178
3  9067 8903 8901
3  5424 5426 5177
3  9068 8906 8903
3  5421 5424 5175
3  9069 8908 8906
3  5419 5421 5173
3  9070 5176 8908
3  5417 5419 5172
3  7374 5417 5170
3  7375 7374 5169
3  8913 5171 7377
3  7376 7375 5168
3  9071 7382 5171
3  5411 7376 5167
3  9072 8917 7382
3  5409 5411 5166
3  9073 8918 8917
3  5407 5409 5165
3  9074 8920 8918
3  5405 5407 5164
3  9075 8922 8920
3  5403 5405 5163
3  9076 8924 8922
3  5401 5403 5162
3  9077 8926 8924
3  5398 5401 5160
3  9078 8928 8926
3  5396 5398 5159
3  9079 5161 8930
3  5395 5396 5157
3  8932 9080 5395
3  8932 5395 5156
3  7378 9081 8932
3  7378 8932 5154
3  9082 5155 7380
3  5392 7378 5153
3  7379 5392 5152
3  9083 7381 5155
3  5388 7379 5151
3  9084 8936 7381
3  5385 5388 5150
3  9085 5146 5134
3  5383 5385 5149
3  9086 8938 8936
3  9085 5383 5146
3  5133 5130 5129
3  9087 8939 8938
3  5133 9085 5134
3  5133 8942 9085
3  5129 2531 5145
3  5129 5148 5133
3  5148 5129 5145
3  9088 5144 8939
3  5147 5148 5136
3  5378 9088 9089
3  5380 5140 5144
3  5378 5147 2533
3  9089 8942 5147
3  5380 9088 5378
3  5380 5138 5140
3  8942 5133 5148
3  9090 5383 9085
3  9091 9090 8942
3  9088 5380 5144
3  9092 7060 7057
3  7474 7473 7056
3  9092 7057 7474
3  9093 9094 7472
3  7062 7059 7061
3  9089 5147 5378
3  9095 9088 9087
3  9096 5385 5383
3  9090 9085 8942
3  9096 5383 9090
3  9097 5388 5385
3  9097 5385 9096
3  9098 7379 5388
3  9098 5388 9097
3  9099 5392 7379
3  9099 7379 9098
3  8937 5392 9099
3  9100 7380 5158
3  9081 7378 8937
3  9101 5158 5161
3  9080 8932 9081
3  9102 9103 9101
3  9104 8930 8928
3  8934 5395 9080
3  9105 5398 5396
3  9105 5396 8934
3  9106 5401 5398
3  9106 5398 9105
3  9107 5403 5401
3  9107 5401 9106
3  9108 5405 5403
3  9108 5403 9107
3  9109 5407 5405
3  9109 5405 9108
3  9110 5409 5407
3  9110 5407 9109
3  9111 5411 5409
3  9111 5409 9110
3  9112 7376 5411
3  9112 5411 9111
3  9113 7375 7376
3  9113 7376 9112
3  9114 7374 7375
3  9114 7375 9113
3  8912 7377 5174
3  9115 5417 7374
3  9115 7374 9114
3  8915 5174 5176
3  9116 5419 5417
3  9116 5417 9115
3  9117 5421 5419
3  9117 5419 9116
3  9118 5424 5421
3  9118 5421 9117
3  9119 5426 5424
3  9119 5424 9118
3  9120 5428 5426
3  9120 5426 9119
3  9121 5430 5428
3  9121 5428 9120
3  9122 8897 5183
3  8904 5430 9121
3  9123 5432 8895
3  9123 8895 8904
3  9124 5435 5432
3  9124 5432 9123
3  9125 7372 5435
3  9125 5435 9124
3  9126 7371 7372
3  9126 7372 9125
3  9127 7370 7371
3  9127 7371 9126
3  8886 7373 5189
3  9128 5440 7370
3  9128 7370 9127
3  8887 5189 5191
3  9061 5440 9128
3  9129 8885 8887
3  8892 8883 9061
3  8890 5443 8892
3  9130 8881 8879
3  8888 5446 8890
3  9131 5450 5449
3  9131 5449 8888
3  9132 5451 5450
3  9132 5450 9131
3  9133 5453 5451
3  9133 5451 9132
3  9134 5456 5453
3  9134 5453 9133
3  9135 5458 5456
3  9135 5456 9134
3  9136 7368 5458
3  9136 5458 9135
3  9137 7367 7368
3  9137 7368 9136
3  9138 7366 7367
3  9138 7367 9137
3  8865 7369 5207
3  9139 5462 7366
3  9139 7366 9138
3  8868 5207 5209
3  9140 5465 5462
3  9140 5462 9139
3  9141 5467 5465
3  9141 5465 9140
3  9142 5470 5467
3  9142 5467 9141
3  9143 5473 5470
3  9143 5470 9142
3  9144 5475 5473
3  9144 5473 9143
3  9145 5478 5475
3  9145 5475 9144
3  9146 8853 5216
3  8860 5478 9145
3  9147 5481 8851
3  9147 8851 8860
3  9148 5484 5481
3  9148 5481 9147
3  9149 7364 5484
3  9149 5484 9148
3  9150 7363 7364
3  9150 7364 9149
3  9151 7362 7363
3  9151 7363 9150
3  8843 7365 5222
3  9152 5488 7362
3  9152 7362 9151
3  8846 5222 5224
3  9153 5490 5488
3  9153 5488 9152
3  9154 5492 5490
3  9154 5490 9153
3  9155 5495 5492
3  9155 5492 9154
3  9156 5497 5495
3  9156 5495 9155
3  8840 5497 9156
3  8838 8830 8840
3  8836 5500 8838
3  9157 8828 8826
3  8833 5503 8836
3  9158 5507 5506
3  9158 5506 8833
3  9159 7360 5507
3  9159 5507 9158
3  9160 7359 7360
3  9160 7360 9159
3  9161 7358 7359
3  9161 7359 9160
3  8820 7361 5240
3  9162 5511 7358
3  9162 7358 9161
3  8823 5240 5242
3  9163 5513 5511
3  9163 5511 9162
3  9164 5515 5513
3  9164 5513 9163
3  9165 5517 5515
3  9165 5515 9164
3  9166 5520 5517
3  9166 5517 9165
3  9167 5522 5520
3  9167 5520 9166
3  9168 5525 5522
3  9168 5522 9167
3  9169 5528 5525
3  9169 5525 9168
3  9170 5530 5528
3  9170 5528 9169
3  9171 8805 5251
3  8811 5530 9170
3  9172 5532 7387
3  9172 7387 8811
3  9173 5536 5532
3  9173 5532 9172
3  9174 7356 5536
3  9174 5536 9173
3  8801 5253 5255
3  9175 5539 7356
3  9175 7356 9174
3  8802 5255 5257
3  9176 5541 5539
3  9176 5539 9175
3  9177 9178 8800
3  9179 5543 5541
3  9179 5541 9176
3  9180 5545 5543
3  9180 5543 9179
3  9181 5547 5545
3  9181 5545 9180
3  9182 5549 5547
3  9182 5547 9181
3  9183 5552 5549
3  9183 5549 9182
3  8792 5552 9183
3  8790 8783 8792
3  8788 5554 8790
3  9184 7388 5270
3  8786 5557 8788
3  9185 7353 7354
3  9185 7354 8786
3  9186 7352 7353
3  9186 7353 9185
3  8777 7355 5273
3  9187 5562 7352
3  9187 7352 9186
3  8780 5273 5275
3  9188 5563 5562
3  9188 5562 9187
3  9189 5565 5563
3  9189 5563 9188
3  9190 5568 5565
3  9190 5565 9189
3  9191 5570 5568
3  9191 5568 9190
3  9192 5572 5570
3  9192 5570 9191
3  9193 5574 5572
3  9193 5572 9192
3  9194 5576 5574
3  9194 5574 9193
3  9195 5579 5576
3  9195 5576 9194
3  9196 5582 5579
3  9196 5579 9195
3  9197 7351 5582
3  9197 5582 9196
3  9198 5284 5581
3  8763 7351 9197
3  9199 8758 7350
3  9199 7350 8763
3  9200 5581 5289
3  9201 5588 8758
3  9201 8758 9199
3  9202 5289 5288
3  9203 5590 5588
3  9203 5588 9201
3  9204 9205 9202
3  9206 5592 5590
3  9206 5590 9203
3  9207 5594 5592
3  9207 5592 9206
3  9208 5597 5594
3  9208 5594 9207
3  9209 5600 5597
3  9209 5597 9208
3  9210 5602 5600
3  9210 5600 9209
3  9211 5604 5602
3  9211 5602 9210
3  9212 5606 5604
3  9212 5604 9211
3  8747 5606 9212
3  8744 7390 8747
3  9213 5302 7349
3  8742 5609 8744
3  9214 7348 5613
3  9214 5613 8742
3  8737 7349 5304
3  9215 5616 7348
3  9215 7348 9214
3  8738 5304 5306
3  9216 5618 5616
3  9216 5616 9215
3  9217 5620 5618
3  9217 5618 9216
3  9218 5622 5620
3  9218 5620 9217
3  9219 5623 5622
3  9219 5622 9218
3  9220 5624 5623
3  9220 5623 9219
3  9221 5626 5624
3  9221 5624 9220
3  9222 5629 5626
3  9222 5626 9221
3  9223 5631 5629
3  9223 5629 9222
3  9224 5633 5631
3  9224 5631 9223
3  9225 7346 5633
3  9225 5633 9224
3  9226 7345 7346
3  9226 7346 9225
3  9227 7344 7345
3  9227 7345 9226
3  5321 7347 5318
3  9228 8717 7344
3  9228 7344 9227
3  5322 5318 8716
3  9229 5638 8717
3  9229 8717 9228
3  9230 9231 5320
3  9232 5643 5638
3  9232 5638 9229
3  9233 5645 5643
3  9233 5643 9232
3  9234 5647 5645
3  9234 5645 9233
3  9235 5649 5647
3  9235 5647 9234
3  9236 5651 5649
3  9236 5649 9235
3  9237 5653 5651
3  9237 5651 9236
3  9238 5656 5653
3  9238 5653 9237
3  9239 5659 5656
3  9239 5656 9238
3  9240 5661 5659
3  9240 5659 9239
3  8702 5661 9240
3  8699 8696 8702
3  8973 5664 8699
3  5339 5336 7343
3  9241 5667 8691
3  9241 8691 8973
3  8693 7343 8690
3  9242 5669 5667
3  9242 5667 9241
3  9243 5672 5669
3  9243 5669 9242
3  9244 5675 5672
3  9244 5672 9243
3  9245 5677 5675
3  9245 5675 9244
3  9246 5679 5677
3  9246 5677 9245
3  9247 5681 5679
3  9247 5679 9246
3  9248 5683 5681
3  9248 5681 9247
3  9249 5684 5683
3  9249 5683 9248
3  9250 5685 5684
3  9250 5684 9249
3  9251 7341 5685
3  9251 5685 9250
3  9252 7340 7341
3  9252 7341 9251
3  9253 7339 7340
3  9253 7340 9252
3  8668 7342 5354
3  9254 5690 7339
3  9254 7339 9253
3  8672 5354 5355
3  9255 5692 5690
3  9255 5690 9254
3  9256 8666 5358
3  8670 5692 9255
3  9257 5695 8665
3  9257 8665 8670
3  9258 5699 5695
3  9258 5695 9257
3  9259 5702 5699
3  9259 5699 9258
3  9260 5704 5702
3  9260 5702 9259
3  9261 5706 5704
3  9261 5704 9260
3  9262 5708 5706
3  9262 5706 9261
3  9263 5710 5708
3  9263 5708 9262
3  9264 7337 5710
3  9264 5710 9263
3  9265 5714 7337
3  9265 7337 9264
3  8654 5714 9265
3  9266 7338 5369
3  8952 7336 8654
3  9267 5369 5372
3  8951 8647 8952
3  9268 9269 9267
3  9270 8645 8644
3  8650 5717 8951
3  9271 5722 5720
3  9271 5720 8650
3  9272 5725 5722
3  9272 5722 9271
3  9273 5727 5725
3  9273 5725 9272
3  9274 5730 5727
3  9274 5727 9273
3  9275 5733 5730
3  9275 5730 9274
3  9276 5735 5733
3  9276 5733 9275
3  9277 5737 5735
3  9277 5735 9276
3  9278 5739 5737
3  9087 9088 8939
3  9279 9097 9096
3  9278 5737 9277
3  9280 7334 5739
3  9086 9087 8938
3  9086 9281 9087
3  9282 9098 9097
3  9280 5739 9278
3  9283 7333 7334
3  9084 9086 8936
3  9084 9284 9086
3  9285 9099 9098
3  9283 7334 9280
3  9286 7332 7333
3  9083 9084 7381
3  9083 9287 9084
3  9288 8937 9099
3  9286 7333 9283
3  8627 7335 5391
3  9289 5741 7332
3  9289 7332 9286
3  8630 5391 5394
3  9290 5743 5741
3  9291 8934 9080
3  9082 9292 9083
3  9290 5741 9289
3  9293 5746 5743
3  9079 9101 5161
3  9079 9102 9101
3  9294 9105 8934
3  9293 5743 9290
3  9295 8620 5400
3  9104 9079 8930
3  9104 9296 9079
3  9297 9106 9105
3  8625 5746 9293
3  9298 5748 8618
3  9078 9104 8928
3  9078 9299 9104
3  9300 9107 9106
3  9298 8618 8625
3  9301 5751 5748
3  9077 9078 8926
3  9077 9302 9078
3  9303 9108 9107
3  9301 5748 9298
3  9304 5754 5751
3  9076 9077 8924
3  9076 9305 9077
3  9306 9109 9108
3  9304 5751 9301
3  9307 5756 5754
3  9075 9076 8922
3  9075 9308 9076
3  9309 9110 9109
3  9307 5754 9304
3  9310 5759 5756
3  9074 9075 8920
3  9074 9311 9075
3  9312 9111 9110
3  9310 5756 9307
3  9313 5762 5759
3  9073 9074 8918
3  9073 9314 9074
3  9315 9112 9111
3  9313 5759 9310
3  9316 7330 5762
3  9072 9073 8917
3  9072 9317 9073
3  9318 9113 9112
3  9316 5762 9313
3  9319 7329 7330
3  9071 9072 7382
3  9071 9320 9072
3  9321 9114 9113
3  9319 7330 9316
3  9322 7328 7329
3  9322 7329 9319
3  8607 7331 5416
3  9323 9117 9116
3  8912 9324 8913
3  8916 7328 9322
3  9325 5416 8603
3  9070 8915 5176
3  9326 8914 8915
3  9327 9118 9117
3  8911 8605 8916
3  9069 9070 8908
3  9069 9328 9070
3  9329 9119 9118
3  8609 5766 8911
3  9330 8599 8597
3  9068 9069 8906
3  9068 9331 9069
3  9332 9120 9119
3  8604 5768 8609
3  9333 5775 5773
3  9067 9068 8903
3  9067 9334 9068
3  9335 9121 9120
3  9333 5773 8604
3  9336 5777 5775
3  9066 9067 8901
3  9066 9337 9067
3  9338 8904 9121
3  9336 5775 9333
3  9339 5779 5777
3  9065 9066 8899
3  9065 9340 9066
3  9341 9123 8904
3  9339 5777 9336
3  9342 5781 5779
3  9122 9065 8897
3  9122 9343 9065
3  9344 9124 9123
3  9342 5779 9339
3  9345 5784 5781
3  9064 9122 5183
3  9346 9125 9124
3  9345 5781 9342
3  9347 5786 5784
3  9063 9064 8893
3  9348 9126 9125
3  9347 5784 9345
3  9349 7326 5786
3  9062 9063 7383
3  9062 9350 9063
3  9351 9127 9126
3  9349 5786 9347
3  9352 7325 7326
3  9352 7326 9349
3  9353 7324 7325
3  9354 8892 9061
3  8886 9355 8891
3  9353 7325 9352
3  8584 7327 5442
3  9356 5792 7324
3  9060 8887 5191
3  9357 8890 8892
3  9358 9061 9128
3  9356 7324 9353
3  8587 5442 5445
3  9359 5794 5792
3  9059 9060 5194
3  9360 8888 8890
3  9359 5792 9356
3  9361 5796 5794
3  9058 9059 5196
3  9058 9362 9059
3  9363 9131 8888
3  9361 5794 9359
3  9364 5797 5796
3  9130 9058 8881
3  9130 9365 9058
3  9366 9132 9131
3  9364 5796 9361
3  9367 5798 5797
3  9057 9130 8879
3  9057 9368 9130
3  9369 9133 9132
3  9367 5797 9364
3  9370 8574 5455
3  9056 9057 8877
3  9056 9371 9057
3  9372 9134 9133
3  8580 5798 9367
3  9373 5800 8572
3  9055 9056 8875
3  9055 9374 9056
3  9375 9135 9134
3  9373 8572 8580
3  9376 5804 5800
3  9054 9055 8873
3  9054 9377 9055
3  9378 9136 9135
3  9376 5800 9373
3  9379 5807 5804
3  9053 9054 8871
3  9053 9380 9054
3  9381 9137 9136
3  9379 5804 9376
3  9382 5809 5807
3  9052 9053 7384
3  9052 9383 9053
3  9384 9138 9137
3  9382 5807 9379
3  9385 5812 5809
3  9385 5809 9382
3  9386 7322 5812
3  9387 9141 9140
3  8865 9388 8866
3  9386 5812 9385
3  9389 7321 7322
3  9051 8868 5209
3  9390 8867 8868
3  9391 9142 9141
3  9389 7322 9386
3  9392 7320 7321
3  9050 9051 8864
3  9050 9393 9051
3  9394 9143 9142
3  9392 7321 9389
3  8557 7323 5469
3  9395 5818 7320
3  9049 9050 8862
3  9049 9396 9050
3  9397 9144 9143
3  9395 7320 9392
3  8558 5469 5472
3  9048 9049 8859
3  9048 9398 9049
3  9399 9145 9144
3  8863 5818 9395
3  9400 8556 8558
3  9047 9048 8857
3  9047 9401 9048
3  9402 8860 9145
3  8564 8555 8863
3  9046 9047 8855
3  9046 9403 9047
3  9404 9147 8860
3  8561 5820 8564
3  9405 8552 8550
3  9146 9046 8853
3  9146 9406 9046
3  9407 9148 9147
3  8559 5822 8561
3  9408 5827 5825
3  9045 9146 5216
3  9409 9149 9148
3  9408 5825 8559
3  9410 5830 5827
3  9044 9045 8849
3  9411 9150 9149
3  9410 5827 9408
3  9412 5833 5830
3  9043 9044 7385
3  9043 9413 9044
3  9414 9151 9150
3  9412 5830 9410
3  9415 5835 5833
3  9415 5833 9412
3  9416 5837 5835
3  9417 9154 9153
3  8843 9418 8844
3  9416 5835 9415
3  9419 5839 5837
3  9042 8846 5224
3  9420 8845 8846
3  9421 9155 9154
3  9419 5837 9416
3  9422 7318 5839
3  9041 9042 8839
3  9041 9423 9042
3  9424 9156 9155
3  9422 5839 9419
3  9425 7317 7318
3  9040 9041 8837
3  9040 9426 9041
3  9427 8840 9156
3  9425 7318 9422
3  9428 7316 7317
3  9039 9040 8835
3  9039 9429 9040
3  9430 8838 8840
3  9428 7317 9425
3  8537 7319 5499
3  9431 5845 7316
3  9038 9039 8832
3  9432 8836 8838
3  9431 7316 9428
3  8540 5499 5502
3  9433 5848 5845
3  9037 9038 5231
3  9434 8833 8836
3  9433 5845 9431
3  9435 5850 5848
3  9036 9037 5233
3  9036 9436 9037
3  9437 9158 8833
3  9435 5848 9433
3  9438 5852 5850
3  9157 9036 8828
3  9157 9439 9036
3  9440 9159 9158
3  9438 5850 9435
3  9441 5854 5852
3  9035 9157 8826
3  9035 9442 9157
3  9443 9160 9159
3  9441 5852 9438
3  9444 8527 5510
3  9034 9035 7386
3  9034 9445 9035
3  9446 9161 9160
3  8533 5854 9441
3  9447 5855 8525
3  9447 8525 8533
3  9448 5857 5855
3  9449 9164 9163
3  8820 9450 8821
3  9448 5855 9447
3  9451 5860 5857
3  9033 8823 5242
3  9452 8822 8823
3  9453 9165 9164
3  9451 5857 9448
3  9454 5862 5860
3  9032 9033 8816
3  9032 9455 9033
3  9456 9166 9165
3  9454 5860 9451
3  9457 7314 5862
3  9031 9032 8815
3  9031 9458 9032
3  9459 9167 9166
3  9457 5862 9454
3  9460 7313 7314
3  9030 9031 8814
3  9030 9461 9031
3  9462 9168 9167
3  9460 7314 9457
3  9463 7312 7313
3  9029 9030 8813
3  9029 9464 9030
3  9465 9169 9168
3  9463 7313 9460
3  8513 7315 5524
3  9466 5866 7312
3  9028 9029 8810
3  9028 9467 9029
3  9468 9170 9169
3  9466 7312 9463
3  8516 5524 5527
3  9469 5869 5866
3  9027 9028 8809
3  9027 9470 9028
3  9471 8811 9170
3  9469 5866 9466
3  9472 5871 5869
3  9026 9027 8807
3  9026 9473 9027
3  9474 9172 8811
3  9472 5869 9469
3  9171 9026 8805
3  9171 9475 9026
3  9476 9173 9172
3  8512 5871 9472
3  9025 9171 5251
3  9477 9174 9173
3  8511 8504 8512
3  8510 5874 8511
3  9478 8502 8500
3  9479 9179 9176
3  8507 5877 8510
3  9480 5882 5880
3  9023 8802 5257
3  9177 8800 8802
3  9481 9180 9179
3  9480 5880 8507
3  9482 5884 5882
3  9022 9023 8796
3  9022 9483 9023
3  9484 9181 9180
3  9482 5882 9480
3  9485 5887 5884
3  9021 9022 8794
3  9021 9486 9022
3  9487 9182 9181
3  9485 5884 9482
3  9488 5890 5887
3  9020 9021 8791
3  9020 9489 9021
3  9490 9183 9182
3  9488 5887 9485
3  9491 7310 5890
3  9019 9020 8789
3  9019 9492 9020
3  9493 8792 9183
3  9491 5890 9488
3  9494 7309 7310
3  9018 9019 8787
3  9018 9495 9019
3  9496 8790 8792
3  9494 7310 9491
3  9497 7308 7309
3  9017 9018 8785
3  9498 8788 8790
3  9497 7309 9494
3  8488 7311 5556
3  9499 5894 7308
3  9016 9017 5266
3  9500 8786 8788
3  9499 7308 9497
3  8491 5556 5559
3  9501 5896 5894
3  9015 9016 5268
3  9015 9502 9016
3  9503 9185 8786
3  9501 5894 9499
3  9504 5899 5896
3  9184 9015 7388
3  9184 9505 9015
3  9506 9186 9185
3  9504 5896 9501
3  9507 5901 5899
3  9507 5899 9504
3  9508 5904 5901
3  9509 9189 9188
3  8777 9510 8778
3  9508 5901 9507
3  9511 8480 5567
3  9014 8780 5275
3  9512 8779 8780
3  9513 9190 9189
3  8486 5904 9508
3  9514 5907 8479
3  9013 9014 8773
3  9013 9515 9014
3  9516 9191 9190
3  9514 8479 8486
3  9517 5909 5907
3  9012 9013 8771
3  9012 9518 9013
3  9519 9192 9191
3  9517 5907 9514
3  9520 5910 5909
3  9011 9012 8769
3  9011 9521 9012
3  9522 9193 9192
3  9520 5909 9517
3  9523 5912 5910
3  9010 9011 8767
3  9010 9524 9011
3  9525 9194 9193
3  9523 5910 9520
3  9526 5915 5912
3  9009 9010 8765
3  9009 9527 9010
3  9528 9195 9194
3  9526 5912 9523
3  9529 7306 5915
3  9008 9009 8764
3  9008 9530 9009
3  9531 9196 9195
3  9529 5915 9526
3  9532 7305 7306
3  9007 9008 8762
3  9007 9533 9008
3  9534 9197 9196
3  9532 7306 9529
3  9535 7304 7305
3  9006 9007 8761
3  9006 9536 9007
3  9537 8763 9197
3  9535 7305 9532
3  8465 7307 5584
3  9538 5919 7304
3  9005 9006 7389
3  9005 9539 9006
3  9540 9199 8763
3  9538 7304 9535
3  8468 5584 5586
3  9541 5921 5919
3  9541 5919 9538
3  9542 5923 5921
3  9543 9206 9203
3  9205 9544 9200
3  9542 5921 9541
3  9545 5925 5923
3  9004 9202 5288
3  9004 9204 9202
3  9546 9207 9206
3  9545 5923 9542
3  9003 9004 8755
3  9003 9547 9004
3  9548 9208 9207
3  8462 5925 9545
3  9002 9003 8753
3  9002 9549 9003
3  9550 9209 9208
3  8460 8454 8462
3  9001 9002 8751
3  9001 9551 9002
3  9552 9210 9209
3  8458 5928 8460
3  9553 8452 8450
3  9000 9001 8749
3  9000 9554 9001
3  9555 9211 9210
3  8456 5930 8458
3  9556 5936 5935
3  8999 9000 8746
3  8999 9557 9000
3  9558 9212 9211
3  9556 5935 8456
3  9559 5938 5936
3  8998 8999 8743
3  8998 9560 8999
3  9561 8747 9212
3  9559 5936 9556
3  9562 7302 5938
3  8997 8998 8741
3  8997 9563 8998
3  9564 8744 8747
3  9562 5938 9559
3  9565 7301 7302
3  8996 8997 8740
3  9566 8742 8744
3  9565 7302 9562
3  9567 7300 7301
3  8995 8996 5300
3  9568 9214 8742
3  9567 7301 9565
3  8443 7303 5612
3  9569 5942 7300
3  9569 7300 9567
3  8446 5612 5615
3  9570 5944 5942
3  9571 9217 9216
3  9213 9572 8995
3  9570 5942 9569
3  9573 5947 5944
3  8994 8738 5306
3  9574 8736 8738
3  9575 9218 9217
3  9573 5944 9570
3  9576 5949 5947
3  8993 8994 8732
3  8993 9577 8994
3  9578 9219 9218
3  9576 5947 9573
3  9579 5951 5949
3  8992 8993 8731
3  8992 9580 8993
3  9581 9220 9219
3  9579 5949 9576
3  9582 5953 5951
3  8991 8992 8729
3  8991 9583 8992
3  9584 9221 9220
3  9582 5951 9579
3  9585 8431 5628
3  8990 8991 8727
3  8990 9586 8991
3  9587 9222 9221
3  8437 5953 9582
3  9588 5955 8430
3  8989 8990 8725
3  8989 9589 8990
3  9590 9223 9222
3  9588 8430 8437
3  9591 5959 5955
3  8988 8989 8723
3  8988 9592 8989
3  9593 9224 9223
3  9591 5955 9588
3  9594 5962 5959
3  8987 8988 8721
3  8987 9595 8988
3  9596 9225 9224
3  9594 5959 9591
3  9597 5965 5962
3  8986 8987 8719
3  8986 9598 8987
3  9599 9226 9225
3  9597 5962 9594
3  9600 7298 5965
3  8985 8986 7391
3  8985 9601 8986
3  9602 9227 9226
3  9600 5965 9597
3  9603 7297 7298
3  9603 7298 9600
3  9604 7296 7297
3  9605 9232 9229
3  5321 9606 8718
3  9604 7297 9603
3  8420 7299 5640
3  9607 5967 7296
3  8984 5322 8716
3  9608 9233 9232
3  9609 9229 9228
3  9607 7296 9604
3  8423 5640 5642
3  9610 5970 5967
3  8983 8984 8713
3  9611 9234 9233
3  9610 5967 9607
3  9612 5972 5970
3  8982 8983 8711
3  8982 9613 8983
3  9614 9235 9234
3  9612 5970 9610
3  9615 5974 5972
3  8981 8982 8710
3  8981 9616 8982
3  9617 9236 9235
3  9615 5972 9612
3  9618 5976 5974
3  8980 8981 8708
3  8980 9619 8981
3  9620 9237 9236
3  9618 5974 9615
3  8979 8980 8706
3  8979 9621 8980
3  9622 9238 9237
3  8416 5976 9618
3  8978 8979 8704
3  8978 9623 8979
3  9624 9239 9238
3  8413 8404 8416
3  8977 8978 8701
3  8977 9625 8978
3  9626 9240 9239
3  8410 5978 8413
3  9627 8402 8401
3  8976 8977 8698
3  8976 9628 8977
3  9629 8702 9240
3  8407 5980 8410
3  9630 5986 5983
3  8975 8976 8695
3  8975 9631 8976
3  9632 8699 8702
3  9630 5983 8407
3  9633 5988 5986
3  8974 8975 7392
3  9634 8973 8699
3  9633 5986 9630
3  9635 7294 5988
3  9635 5988 9633
3  9636 7293 7294
3  9637 9243 9242
3  9636 7294 9635
3  9638 7292 7293
3  8972 8693 8690
3  9639 8692 8693
3  9640 9244 9243
3  9638 7293 9636
3  8394 7295 5671
3  9641 5994 7292
3  8971 8972 8688
3  8971 9642 8972
3  9643 9245 9244
3  9641 7292 9638
3  8397 5671 5674
3  9644 5997 5994
3  8970 8971 8686
3  8970 9645 8971
3  9646 9246 9245
3  9644 5994 9641
3  9647 6000 5997
3  8969 8970 8684
3  8969 9648 8970
3  9649 9247 9246
3  9647 5997 9644
3  9650 6002 6000
3  8968 8969 8682
3  8968 9651 8969
3  9652 9248 9247
3  9650 6000 9647
3  9653 6004 6002
3  8967 8968 8680
3  8967 9654 8968
3  9655 9249 9248
3  9653 6002 9650
3  9656 6006 6004
3  8966 8967 8679
3  8966 9657 8967
3  9658 9250 9249
3  9656 6004 9653
3  9659 6008 6006
3  8965 8966 8677
3  8965 9660 8966
3  9661 9251 9250
3  9659 6006 9656
3  9662 8379 5688
3  8964 8965 8675
3  8964 9663 8965
3  9664 9252 9251
3  8386 6008 9659
3  9665 6010 8377
3  8963 8964 7393
3  8963 9666 8964
3  9667 9253 9252
3  9665 8377 8386
3  9668 6013 6010
3  9668 6010 9665
3  9669 6016 6013
3  9670 8670 9255
3  8668 9671 8669
3  9669 6013 9668
3  9672 7290 6016
3  8962 8672 5355
3  9673 8671 8672
3  9674 9257 8670
3  9672 6016 9669
3  9675 7289 7290
3  9256 8962 8666
3  9256 9676 8962
3  9677 9258 9257
3  9675 7290 9672
3  9678 7288 7289
3  8961 9256 5358
3  9679 9259 9258
3  9678 7289 9675
3  8371 7291 5698
3  9680 6021 7288
3  8960 8961 8663
3  9681 9260 9259
3  9680 7288 9678
3  8374 5698 5701
3  9682 6022 6021
3  8959 8960 8661
3  8959 9683 8960
3  9684 9261 9260
3  9682 6021 9680
3  9685 6024 6022
3  8958 8959 8659
3  8958 9686 8959
3  9687 9262 9261
3  9685 6022 9682
3  9688 6027 6024
3  8957 8958 8658
3  8957 9689 8958
3  9690 9263 9262
3  9688 6024 9685
3  9691 6029 6027
3  8956 8957 8656
3  8956 9692 8957
3  9693 9264 9263
3  9691 6027 9688
3  8955 8956 8653
3  8955 9694 8956
3  9695 9265 9264
3  8367 6029 9691
3  8954 8955 7394
3  8954 9696 8955
3  9697 8654 9265
3  8364 8355 8367
3  8361 6031 8364
3  9698 8352 8350
3  9699 8650 8951
3  8953 9700 8954
3  8358 6033 8361
3  9701 6038 6036
3  8950 9267 5372
3  8950 9268 9267
3  9702 9271 8650
3  9701 6036 8358
3  9703 6040 6038
3  9270 8950 8645
3  9270 9704 8950
3  9705 9272 9271
3  9703 6038 9701
3  9706 7286 6040
3  8949 9270 8644
3  8949 9707 9270
3  9708 9273 9272
3  9706 6040 9703
3  9709 7285 7286
3  8948 8949 8643
3  8948 9710 8949
3  9711 9274 9273
3  9709 7286 9706
3  9712 7284 7285
3  8947 8948 8642
3  8947 9713 8948
3  9714 9275 9274
3  9712 7285 9709
3  8344 7287 5729
3  9715 6045 7284
3  8946 8947 8640
3  8946 9716 8947
3  9717 9276 9275
3  9715 7284 9712
3  8347 5729 5732
3  9718 6048 6045
3  8945 8946 8638
3  8945 9719 8946
3  9720 9277 9276
3  9718 6045 9715
3  9721 6050 6048
3  8944 8945 8636
3  8944 9722 8945
3  9723 9278 9277
3  9721 6048 9718
3  9724 6052 6050
3  8943 8944 8634
3  8943 9725 8944
3  9726 9280 9278
3  9724 6050 9721
3  9727 6055 6052
3  8941 8943 8632
3  8941 9728 8943
3  9729 9283 9280
3  9727 6052 9724
3  9730 6057 6055
3  8940 8941 7395
3  8940 9731 8941
3  9732 9286 9283
3  9730 6055 9727
3  9733 6059 6057
3  9733 6057 9730
3  9734 8329 5745
3  9735 9293 9290
3  8627 9736 8628
3  8336 6059 9733
3  9737 6061 8327
3  8935 8630 5394
3  9738 8629 8630
3  9739 8625 9293
3  9737 8327 8336
3  9740 6064 6061
3  8933 8935 8622
3  8933 9741 8935
3  9742 9298 8625
3  9740 6061 9737
3  9743 6066 6064
3  9295 8933 8620
3  9295 9744 8933
3  9745 9301 9298
3  9743 6064 9740
3  9746 6068 6066
3  8931 9295 5400
3  9747 9304 9301
3  9746 6066 9743
3  9748 7282 6068
3  8929 8931 8617
3  9749 9307 9304
3  9748 6068 9746
3  9750 7281 7282
3  8927 8929 8616
3  8927 9751 8929
3  9752 9310 9307
3  9750 7282 9748
3  9753 7280 7281
3  8925 8927 8615
3  8925 9754 8927
3  9755 9313 9310
3  9753 7281 9750
3  8316 7283 5758
3  9756 6071 7280
3  8923 8925 8613
3  8923 9757 8925
3  9758 9316 9313
3  9756 7280 9753
3  8319 5758 5761
3  9759 6074 6071
3  8921 8923 8611
3  8921 9760 8923
3  9761 9319 9316
3  9759 6071 9756
3  9762 6075 6074
3  8919 8921 7396
3  8919 9763 8921
3  9764 9322 9319
3  9762 6074 9759
3  9765 6080 6075
3  9765 6075 9762
3  9766 8609 8911
3  8608 9767 8919
3  8314 6080 9765
3  8910 9325 8603
3  9768 8604 8609
3  9769 8911 8916
3  8313 8304 8314
3  8909 8910 5423
3  8909 9770 8910
3  9771 9333 8604
3  8310 6082 8313
3  9772 8301 8299
3  9330 8909 8599
3  9330 9773 8909
3  9774 9336 9333
3  8307 6084 8310
3  9775 6090 6088
3  8907 9330 8597
3  8907 9776 9330
3  9777 9339 9336
3  9775 6088 8307
3  9778 6092 6090
3  8905 8907 8595
3  8905 9779 8907
3  9780 9342 9339
3  9778 6090 9775
3  9781 6094 6092
3  8902 8905 8593
3  8902 9782 8905
3  9783 9345 9342
3  9781 6092 9778
3  9784 7278 6094
3  8900 8902 8592
3  8900 9785 8902
3  9786 9347 9345
3  9784 6094 9781
3  9787 7277 7278
3  8898 8900 8591
3  8898 9788 8900
3  9789 9349 9347
3  9787 7278 9784
3  9790 7276 7277
3  8896 8898 8590
3  8896 9791 8898
3  9792 9352 9349
3  9790 7277 9787
3  8289 7279 5788
3  9793 6098 7276
3  8894 8896 7397
3  8894 9794 8896
3  9795 9353 9352
3  9793 7276 9790
3  8292 5788 5790
3  9796 6100 6098
3  9796 6098 9793
3  9797 6102 6100
3  9798 9361 9359
3  8584 9799 8585
3  9797 6100 9796
3  9800 6105 6102
3  8889 8587 5445
3  9801 8586 8587
3  9802 9364 9361
3  9800 6102 9797
3  9803 6107 6105
3  8884 8889 8579
3  8884 9804 8889
3  9805 9367 9364
3  9803 6105 9800
3  9806 6110 6107
3  8882 8884 8578
3  8882 9807 8884
3  9808 8580 9367
3  9806 6107 9803
3  9809 6113 6110
3  8880 8882 8576
3  8880 9810 8882
3  9811 9373 8580
3  9809 6110 9806
3  9370 8880 8574
3  9370 9812 8880
3  9813 9376 9373
3  8282 6113 9809
3  9814 5803 5806
3  8878 9370 5455
3  9815 9379 9376
3  8279 8272 8282
3  9816 6117 6115
3  8876 8878 8570
3  9817 9382 9379
3  9816 6115 8279
3  9818 6120 6117
3  8874 8876 8568
3  8874 9819 8876
3  9820 9385 9382
3  9818 6117 9816
3  9821 7274 6120
3  8872 8874 8567
3  8872 9822 8874
3  9823 9386 9385
3  9821 6120 9818
3  9824 7273 7274
3  8870 8872 8566
3  8870 9825 8872
3  9826 9389 9386
3  9824 7274 9821
3  9827 7272 7273
3  8869 8870 7398
3  8869 9828 8870
3  9829 9392 9389
3  9827 7273 9824
3  8263 7275 5815
3  9830 6124 7272
3  9830 7272 9827
3  8266 5815 5817
3  9831 6126 6124
3  9832 8564 8863
3  8557 9833 8563
3  9831 6124 9830
3  9834 6128 6126
3  8861 8558 5472
3  9835 8561 8564
3  9836 8863 9395
3  9834 6126 9831
3  9837 6129 6128
3  8858 8861 5477
3  9838 8559 8561
3  9837 6128 9834
3  9839 6130 6129
3  8856 8858 5480
3  8856 9840 8858
3  9841 9408 8559
3  9839 6129 9837
3  9405 8856 8552
3  9405 9842 8856
3  9843 9410 9408
3  8260 6130 9839
3  8854 9405 8550
3  8854 9844 9405
3  9845 9412 9410
3  8257 8251 8260
3  8852 8854 8548
3  8852 9846 8854
3  9847 9415 9412
3  8255 6135 8257
3  9848 8248 8246
3  8850 8852 8546
3  8850 9849 8852
3  9850 9416 9415
3  8253 6137 8255
3  9851 6143 6141
3  8848 8850 8544
3  8848 9852 8850
3  9853 9419 9416
3  9851 6141 8253
3  9854 6145 6143
3  8847 8848 8542
3  8847 9855 8848
3  9856 9422 9419
3  9854 6143 9851
3  9857 7270 6145
3  8842 8847 8541
3  8842 9858 8847
3  9859 9425 9422
3  9857 6145 9854
3  9860 7269 7270
3  8841 8842 7399
3  8841 9861 8842
3  9862 9428 9425
3  9860 7270 9857
3  9863 7268 7269
3  9863 7269 9860
3  8238 7271 5844
3  9864 6149 7268
3  9865 9435 9433
3  8537 9866 8538
3  9864 7268 9863
3  8241 5844 5847
3  9867 6151 6149
3  8834 8540 5502
3  9868 8539 8540
3  9869 9438 9435
3  9867 6149 9864
3  9870 6153 6151
3  8831 8834 8532
3  8831 9871 8834
3  9872 9441 9438
3  9870 6151 9867
3  9873 6155 6153
3  8829 8831 8530
3  8829 9874 8831
3  9875 8533 9441
3  9873 6153 9870
3  9876 6157 6155
3  8827 8829 8529
3  8827 9877 8829
3  9878 9447 8533
3  9876 6155 9873
3  9879 6159 6157
3  9444 8827 8527
3  9444 9880 8827
3  9881 9448 9447
3  9879 6157 9876
3  9882 8226 5859
3  8825 9444 5510
3  9883 9451 9448
3  8233 6159 9879
3  9884 6162 8225
3  8824 8825 8523
3  9885 9454 9451
3  9884 8225 8233
3  9886 6167 6162
3  8819 8824 8521
3  8819 9887 8824
3  9888 9457 9454
3  9886 6162 9884
3  9889 6169 6167
3  8818 8819 8519
3  8818 9890 8819
3  9891 9460 9457
3  9889 6167 9886
3  9892 6172 6169
3  8817 8818 7400
3  8817 9893 8818
3  9894 9463 9460
3  9892 6169 9889
3  9895 6175 6172
3  9895 6172 9892
3  9896 7266 6175
3  9897 9472 9469
3  8513 9898 8514
3  9896 6175 9895
3  9899 7265 7266
3  8812 8516 5527
3  9900 8515 8516
3  9901 8512 9472
3  9899 7266 9896
3  9902 7264 7265
3  8808 8812 8509
3  8808 9903 8812
3  9904 8511 8512
3  9902 7265 9899
3  8213 7267 5873
3  9905 6179 7264
3  8806 8808 8506
3  9906 8510 8511
3  9905 7264 9902
3  8216 5873 5876
3  9907 6181 6179
3  8804 8806 5535
3  9908 8507 8510
3  9907 6179 9905
3  9909 6183 6181
3  8803 8804 5538
3  8803 9910 8804
3  9911 9480 8507
3  9909 6181 9907
3  9912 6185 6183
3  9478 8803 8502
3  9478 9913 8803
3  9914 9482 9480
3  9912 6183 9909
3  8799 9478 8500
3  8799 9915 9478
3  9916 9485 9482
3  8210 6185 9912
3  8798 8799 8498
3  8798 9917 8799
3  9918 9488 9485
3  8208 8200 8210
3  8797 8798 8496
3  8797 9919 8798
3  9920 9491 9488
3  8206 6186 8208
3  9921 8197 8196
3  8795 8797 8494
3  8795 9922 8797
3  9923 9494 9491
3  8203 6187 8206
3  9924 6193 6191
3  8793 8795 7401
3  8793 9925 8795
3  9926 9497 9494
3  9924 6191 8203
3  9927 6196 6193
3  9927 6193 9924
3  9928 6198 6196
3  9929 9504 9501
3  8488 9930 8489
3  9928 6196 9927
3  9931 7262 6198
3  8784 8491 5559
3  9932 8490 8491
3  9933 9507 9504
3  9931 6198 9928
3  9934 7261 7262
3  8782 8784 8485
3  8782 9935 8784
3  9936 9508 9507
3  9934 7262 9931
3  9937 7260 7261
3  8781 8782 8484
3  8781 9938 8782
3  9939 8486 9508
3  9937 7261 9934
3  8188 7263 5903
3  9940 6204 7260
3  8776 8781 8482
3  8776 9941 8781
3  9942 9514 8486
3  9940 7260 9937
3  8191 5903 5906
3  9943 6206 6204
3  9511 8776 8480
3  9511 9944 8776
3  9945 9517 9514
3  9943 6204 9940
3  9946 6208 6206
3  8775 9511 5567
3  9947 9520 9517
3  9946 6206 9943
3  9948 6210 6208
3  8774 8775 8477
3  9949 9523 9520
3  9948 6208 9946
3  9950 8180 5914
3  8772 8774 8475
3  8772 9951 8774
3  9952 9526 9523
3  8185 6210 9948
3  9953 6211 8178
3  8770 8772 8473
3  8770 9954 8772
3  9955 9529 9526
3  9953 8178 8185
3  9956 6213 6211
3  8768 8770 8471
3  8768 9957 8770
3  9958 9532 9529
3  9956 6211 9953
3  9959 6216 6213
3  8766 8768 7402
3  8766 9960 8768
3  9961 9535 9532
3  9959 6213 9956
3  9962 6219 6216
3  9962 6216 9959
3  9963 6221 6219
3  9964 9542 9541
3  8465 9965 8466
3  9963 6219 9962
3  9966 6223 6221
3  8760 8468 5586
3  9967 8467 8468
3  9968 9545 9542
3  9966 6221 9963
3  9969 6225 6223
3  8759 8760 8459
3  8759 9970 8760
3  9971 8462 9545
3  9969 6223 9966
3  9972 7258 6225
3  8757 8759 8457
3  8757 9973 8759
3  9974 8460 8462
3  9972 6225 9969
3  9975 7257 7258
3  8756 8757 8455
3  9976 8458 8460
3  9975 7258 9972
3  9977 7256 7257
3  8754 8756 5596
3  9978 8456 8458
3  9977 7257 9975
3  8163 7259 5932
3  9979 6231 7256
3  8752 8754 5599
3  8752 9980 8754
3  9981 9556 8456
3  9979 7256 9977
3  8166 5932 5934
3  9982 6234 6231
3  9553 8752 8452
3  9553 9983 8752
3  9984 9559 9556
3  9982 6231 9979
3  9985 6236 6234
3  8750 9553 8450
3  8750 9986 9553
3  9987 9562 9559
3  9985 6234 9982
3  8748 8750 8448
3  8748 9988 8750
3  9989 9565 9562
3  8161 6236 9985
3  9990 5940 8150
3  8745 8748 7403
3  8745 9991 8748
3  9992 9567 9565
3  8159 8151 8161
3  9993 6241 6238
3  9993 6238 8159
3  9994 9573 9570
3  8443 9995 8444
3  8155 6241 9993
3  9996 5946 8144
3  8739 8446 5615
3  9997 8445 8446
3  9998 9576 9573
3  8152 8146 8155
3  9999 6244 6242
3  8735 8739 8439
3  8735 10000 8739
3  10001 9579 9576
3  9999 6242 8152
3  10002 6247 6244
3  8734 8735 8436
3  8734 10003 8735
3  10004 9582 9579
3  10002 6244 9999
3  10005 6249 6247
3  8733 8734 8434
3  8733 10006 8734
3  10007 8437 9582
3  10005 6247 10002
3  10008 6251 6249
3  8730 8733 8432
3  8730 10009 8733
3  10010 9588 8437
3  10008 6249 10005
3  10011 7254 6251
3  9585 8730 8431
3  9585 10012 8730
3  10013 9591 9588
3  10011 6251 10008
3  10014 7253 7254
3  8728 9585 5628
3  10015 9594 9591
3  10014 7254 10011
3  10016 7252 7253
3  8726 8728 8429
3  10017 9597 9594
3  10016 7253 10014
3  8133 7255 5961
3  10018 6256 7252
3  8724 8726 8427
3  8724 10019 8726
3  10020 9600 9597
3  10018 7252 10016
3  8136 5961 5964
3  10021 6258 6256
3  8722 8724 8426
3  8722 10022 8724
3  10023 9603 9600
3  10021 6256 10018
3  10024 6261 6258
3  8720 8722 7404
3  8720 10025 8722
3  10026 9604 9603
3  10024 6258 10021
3  10027 8129 5969
3  8132 6261 10024
3  10028 6264 8127
3  10029 9612 9610
3  8420 10030 8421
3  10028 8127 8132
3  10031 6267 6264
3  8715 8423 5642
3  10032 8422 8423
3  10033 9615 9612
3  10031 6264 10028
3  10034 6269 6267
3  8714 8715 8415
3  8714 10035 8715
3  10036 9618 9615
3  10034 6267 10031
3  10037 6272 6269
3  8712 8714 8412
3  8712 10038 8714
3  10039 8416 9618
3  10037 6269 10034
3  10040 6275 6272
3  8709 8712 8409
3  8709 10041 8712
3  10042 8413 8416
3  10040 6272 10037
3  10043 6277 6275
3  8707 8709 8406
3  10044 8410 8413
3  10043 6275 10040
3  10045 6279 6277
3  8705 8707 5655
3  10046 8407 8410
3  10045 6277 10043
3  10047 6281 6279
3  8703 8705 5658
3  8703 10048 8705
3  10049 9630 8407
3  10047 6279 10045
3  10050 7250 6281
3  9627 8703 8402
3  9627 10051 8703
3  10052 9633 9630
3  10050 6281 10047
3  10053 7249 7250
3  8700 9627 8401
3  8700 10054 9627
3  10055 9635 9633
3  10053 7250 10050
3  10056 7248 7249
3  8697 8700 8400
3  8697 10057 8700
3  10058 9636 9635
3  10056 7249 10053
3  8104 7251 5990
3  10059 6285 7248
3  8694 8697 7405
3  8694 10060 8697
3  10061 9638 9636
3  10059 7248 10056
3  8105 5990 5992
3  8399 6285 10059
3  10062 8103 8105
3  10063 9647 9644
3  8394 10064 8395
3  8110 8102 8399
3  8689 8397 5674
3  10065 8396 8397
3  10066 9650 9647
3  8107 6287 8110
3  10067 8100 8099
3  8687 8689 8390
3  8687 10068 8689
3  10069 9653 9650
3  8106 6290 8107
3  10070 6297 6294
3  8685 8687 8388
3  8685 10071 8687
3  10072 9656 9653
3  10070 6294 8106
3  10073 6298 6297
3  8683 8685 8385
3  8683 10074 8685
3  10075 9659 9656
3  10073 6297 10070
3  10076 6299 6298
3  8681 8683 8383
3  8681 10077 8683
3  10078 8386 9659
3  10076 6298 10073
3  10079 6301 6299
3  8678 8681 8381
3  8678 10080 8681
3  10081 9665 8386
3  10079 6299 10076
3  10082 6304 6301
3  9662 8678 8379
3  9662 10083 8678
3  10084 9668 9665
3  10082 6301 10079
3  10085 6306 6304
3  8676 9662 5688
3  10086 9669 9668
3  10085 6304 10082
3  10087 7246 6306
3  8674 8676 8376
3  10088 9672 9669
3  10087 6306 10085
3  10089 7245 7246
3  8673 8674 8375
3  8673 10090 8674
3  10091 9675 9672
3  10089 7246 10087
3  10092 7244 7245
3  8667 8673 7406
3  8667 10093 8673
3  10094 9678 9675
3  10092 7245 10089
3  8082 7247 6019
3  10095 6310 7244
3  10095 7244 10092
3  8086 6019 6020
3  10096 6312 6310
3  10097 9685 9682
3  8371 10098 8372
3  10096 6310 10095
3  10099 8078 6026
3  8664 8374 5701
3  10100 8373 8374
3  10101 9688 9685
3  8084 6312 10096
3  10102 6314 8076
3  8662 8664 8366
3  8662 10103 8664
3  10104 9691 9688
3  10102 8076 8084
3  10105 6317 6314
3  8660 8662 8363
3  8660 10106 8662
3  10107 8367 9691
3  10105 6314 10102
3  10108 6320 6317
3  8657 8660 8360
3  8657 10109 8660
3  10110 8364 8367
3  10108 6317 10105
3  10111 6322 6320
3  8655 8657 8357
3  10112 8361 8364
3  10111 6320 10108
3  10113 6325 6322
3  8652 8655 5713
3  10114 8358 8361
3  10113 6322 10111
3  10115 6327 6325
3  8651 8652 5716
3  8651 10116 8652
3  10117 9701 8358
3  10115 6325 10113
3  10118 6330 6327
3  9698 8651 8352
3  9698 10119 8651
3  10120 9703 9701
3  10118 6327 10115
3  10121 6332 6330
3  8649 9698 8350
3  8649 10122 9698
3  10123 9706 9703
3  10121 6330 10118
3  10124 6334 6332
3  8648 8649 8348
3  8648 10125 8649
3  10126 9709 9706
3  10124 6332 10121
3  10127 7242 6334
3  8646 8648 7407
3  8646 10128 8648
3  10129 9712 9709
3  10127 6334 10124
3  10130 7241 7242
3  10130 7242 10127
3  10131 7240 7241
3  10132 9721 9718
3  8344 10133 8345
3  10131 7241 10130
3  8056 7243 6047
3  8641 8347 5732
3  10134 8346 8347
3  10135 9724 9721
3  8343 7240 10131
3  10136 6047 8052
3  8639 8641 8340
3  8639 10137 8641
3  10138 9727 9724
3  8342 8054 8343
3  8637 8639 8338
3  8637 10139 8639
3  10140 9730 9727
3  8058 6338 8342
3  10141 8048 8046
3  8635 8637 8335
3  8635 10142 8637
3  10143 9733 9730
3  8053 6340 8058
3  10144 6345 6343
3  8633 8635 8333
3  8633 10145 8635
3  10146 8336 9733
3  10144 6343 8053
3  10147 6347 6345
3  8631 8633 8331
3  8631 10148 8633
3  10149 9737 8336
3  10147 6345 10144
3  10150 6349 6347
3  9734 8631 8329
3  9734 10151 8631
3  10152 9740 9737
3  10150 6347 10147
3  10153 6351 6349
3  8626 9734 5745
3  10154 9743 9740
3  10153 6349 10150
3  10155 6352 6351
3  8624 8626 8325
3  10156 9746 9743
3  10155 6351 10153
3  10157 6355 6352
3  8623 8624 8323
3  8623 10158 8624
3  10159 9748 9746
3  10157 6352 10155
3  10160 6357 6355
3  8621 8623 8321
3  8621 10161 8623
3  10162 9750 9748
3  10160 6355 10157
3  10163 6359 6357
3  8619 8621 7408
3  8619 10164 8621
3  10165 9753 9750
3  10163 6357 10160
3  10166 6362 6359
3  10166 6359 10163
3  10167 7239 6362
3  10168 9762 9759
3  8316 10169 8317
3  10167 6362 10166
3  8614 8319 5761
3  10170 8318 8319
3  10171 9765 9762
3  8035 7239 10167
3  8612 8614 8312
3  8612 10172 8614
3  10173 8314 9765
3  8032 7238 8035
3  6077 6079 6361
3  10174 6366 8027
3  8610 8612 8309
3  8610 10175 8612
3  10176 8313 8314
3  10174 8027 8032
3  8023 6361 8025
3  8606 8610 8306
3  10177 8310 8313
3  8311 6366 10174
3  10178 10179 8022
3  10180 6086 8018
3  8602 8606 5770
3  10181 8307 8310
3  8028 8020 8311
3  10182 6371 6368
3  8601 8602 5772
3  8601 10183 8602
3  10184 9775 8307
3  10182 6368 8028
3  10185 6373 6371
3  9772 8601 8301
3  9772 10186 8601
3  10187 9778 9775
3  10185 6371 10182
3  10188 6375 6373
3  8600 9772 8299
3  8600 10189 9772
3  10190 9781 9778
3  10188 6373 10185
3  10191 6377 6375
3  8598 8600 8297
3  8598 10192 8600
3  10193 9784 9781
3  10191 6375 10188
3  10194 6379 6377
3  8596 8598 8295
3  8596 10195 8598
3  10196 9787 9784
3  10194 6377 10191
3  10197 6382 6379
3  8594 8596 7409
3  8594 10198 8596
3  10199 9790 9787
3  10197 6379 10194
3  10200 6385 6382
3  10200 6382 10197
3  10201 6387 6385
3  10202 9797 9796
3  8289 10203 8290
3  10201 6385 10200
3  10204 6390 6387
3  8589 8292 5790
3  10205 8291 8292
3  10206 9800 9797
3  10204 6387 10201
3  10207 7236 6390
3  8588 8589 8286
3  8588 10208 8589
3  10209 9803 9800
3  10207 6390 10204
3  8583 8588 8284
3  8583 10210 8588
3  10211 9806 9803
3  8007 7236 10207
3  8582 8583 8281
3  8582 10212 8583
3  10213 9809 9806
3  8004 7235 8007
3  7999 7237 6109
3  8581 8582 8278
3  8581 10214 8582
3  10215 8282 9809
3  8283 7234 8004
3  8000 6109 6112
3  10216 6112 7994
3  8577 8581 8276
3  10217 8279 8282
3  8280 6395 8283
3  10218 7998 8000
3  10219 6399 6397
3  8575 8577 8274
3  10220 9816 8279
3  10219 6397 8280
3  10221 6400 6399
3  9814 8575 5803
3  9814 10222 8575
3  10223 9818 9816
3  10221 6399 10219
3  10224 6401 6400
3  8573 9814 5806
3  8573 10225 9814
3  10226 9821 9818
3  10224 6400 10221
3  10227 6403 6401
3  8571 8573 8269
3  10228 9824 9821
3  10227 6401 10224
3  10229 6406 6403
3  8569 8571 7410
3  8569 10230 8571
3  10231 9827 9824
3  10229 6403 10227
3  10232 6408 6406
3  10232 6406 10229
3  10233 6411 6408
3  10234 9834 9831
3  8263 10235 8264
3  10233 6408 10232
3  10236 6413 6411
3  8565 8266 5817
3  10237 8265 8266
3  10238 9837 9834
3  10236 6411 10233
3  10239 6415 6413
3  8562 8565 8259
3  8562 10240 8565
3  10241 9839 9837
3  10239 6413 10236
3  10242 6419 6415
3  8560 8562 8256
3  8560 10243 8562
3  10244 8260 9839
3  10242 6415 10239
3  10245 7421 6133
3  8554 8560 8254
3  8554 10246 8560
3  10247 8257 8260
3  7983 6419 10242
3  10248 7233 7978
3  8553 8554 8252
3  10249 8255 8257
3  10248 7978 7983
3  10250 7973 7233
3  8551 8553 5829
3  10251 8253 8255
3  10250 7233 10248
3  6139 6134 6418
3  10252 6426 7973
3  8549 8551 5832
3  8549 10253 8551
3  10254 9851 8253
3  10252 7973 10250
3  7975 6418 7971
3  10255 6428 6426
3  9848 8549 8248
3  9848 10256 8549
3  10257 9854 9851
3  10255 6426 10252
3  10258 6430 6428
3  8547 9848 8246
3  8547 10259 9848
3  10260 9857 9854
3  10258 6428 10255
3  10261 6431 6430
3  8545 8547 8244
3  8545 10262 8547
3  10263 9860 9857
3  10261 6430 10258
3  10264 6432 6431
3  8543 8545 7411
3  8543 10265 8545
3  10266 9863 9860
3  10264 6431 10261
3  10267 6434 6432
3  10267 6432 10264
3  10268 6437 6434
3  10269 9870 9867
3  8238 10270 8239
3  10268 6434 10267
3  10271 6439 6437
3  8536 8241 5847
3  10272 8240 8241
3  10273 9873 9870
3  10271 6437 10268
3  10274 6442 6439
3  8535 8536 8235
3  8535 10275 8536
3  10276 9876 9873
3  10274 6439 10271
3  10277 6444 6442
3  8534 8535 8232
3  8534 10278 8535
3  10279 9879 9876
3  10277 6442 10274
3  8531 8534 8230
3  8531 10280 8534
3  10281 8233 9879
3  7959 6444 10277
3  8528 8531 8228
3  8528 10282 8531
3  10283 9884 8233
3  7957 7948 7959
3  9882 8528 8226
3  9882 10284 8528
3  10285 9886 9884
3  7954 6446 7957
3  10286 7422 6166
3  8526 9882 5859
3  10287 9889 9886
3  7951 6448 7954
3  10288 7230 7231
3  8524 8526 8224
3  10289 9892 9889
3  10288 7231 7951
3  10290 7229 7230
3  8522 8524 8223
3  8522 10291 8524
3  10292 9895 9892
3  10290 7230 10288
3  7943 7232 6171
3  10293 6454 7229
3  8520 8522 8221
3  8520 10294 8522
3  10295 9896 9895
3  10293 7229 10290
3  7946 6171 6174
3  10296 6457 6454
3  8518 8520 8219
3  8518 10297 8520
3  10298 9899 9896
3  10296 6454 10293
3  10299 6460 6457
3  8517 8518 7412
3  8517 10300 8518
3  10301 9902 9899
3  10299 6457 10296
3  10302 6461 6460
3  10302 6460 10299
3  10303 6462 6461
3  10304 9909 9907
3  8213 10305 8214
3  10303 6461 10302
3  10306 6464 6462
3  8508 8216 5876
3  10307 8215 8216
3  10308 9912 9909
3  10306 6462 10303
3  10309 6467 6464
3  8505 8508 8207
3  8505 10310 8508
3  10311 8210 9912
3  10309 6464 10306
3  10312 6469 6467
3  8503 8505 8205
3  8503 10313 8505
3  10314 8208 8210
3  10312 6467 10309
3  10315 6472 6469
3  8501 8503 8202
3  10316 8206 8208
3  10315 6469 10312
3  10317 7926 6190
3  8499 8501 5886
3  10318 8203 8206
3  7933 6472 10315
3  10319 6474 7924
3  8497 8499 5889
3  8497 10320 8499
3  10321 9924 8203
3  10319 7924 7933
3  10322 6477 6474
3  9921 8497 8197
3  9921 10323 8497
3  10324 9927 9924
3  10322 6474 10319
3  10325 7227 6477
3  8495 9921 8196
3  8495 10326 9921
3  10327 9928 9927
3  10325 6477 10322
3  10328 7226 7227
3  8493 8495 8195
3  8493 10329 8495
3  10330 9931 9928
3  10328 7227 10325
3  10331 7225 7226
3  8492 8493 8194
3  8492 10332 8493
3  10333 9934 9931
3  10331 7226 10328
3  7916 7228 6200
3  10334 6481 7225
3  8487 8492 7413
3  8487 10335 8492
3  10336 9937 9934
3  10334 7225 10331
3  7919 6200 6202
3  10337 6483 6481
3  10337 6481 10334
3  10338 6486 6483
3  10339 9946 9943
3  8188 10340 8189
3  10338 6483 10337
3  10341 6487 6486
3  8483 8191 5906
3  10342 8190 8191
3  10343 9948 9946
3  10341 6486 10338
3  10344 6489 6487
3  8481 8483 8183
3  8481 10345 8483
3  10346 8185 9948
3  10344 6487 10341
3  10347 6494 6489
3  8478 8481 8181
3  8478 10348 8481
3  10349 9953 8185
3  10347 6489 10344
3  10350 6496 6494
3  9950 8478 8180
3  9950 10351 8478
3  10352 9956 9953
3  10350 6494 10347
3  10353 7902 6496
3  8476 9950 5914
3  10354 9959 9956
3  10353 6496 10350
3  8474 8476 8176
3  10355 9962 9959
3  7910 7902 10353
3  10356 6218 7899
3  8472 8474 8174
3  8472 10357 8474
3  10358 9963 9962
3  7907 6498 7910
3  10359 6504 6501
3  8470 8472 8172
3  8470 10360 8472
3  10361 9966 9963
3  10359 6501 7907
3  10362 6506 6504
3  8469 8470 8170
3  8469 10363 8470
3  10364 9969 9966
3  10362 6504 10359
3  10365 6508 6506
3  8464 8469 8168
3  8464 10366 8469
3  10367 9972 9969
3  10365 6506 10362
3  10368 7223 6508
3  8463 8464 8167
3  8463 10369 8464
3  10370 9975 9972
3  10368 6508 10365
3  10371 7222 7223
3  8461 8463 7414
3  8461 10372 8463
3  10373 9977 9975
3  10371 7223 10368
3  10374 7221 7222
3  10374 7222 10371
3  7889 7224 6230
3  10375 6512 7221
3  10376 9985 9982
3  8163 10377 8164
3  10375 7221 10374
3  7892 6230 6233
3  10378 6514 6512
3  8453 8166 5934
3  10379 8165 8166
3  10380 8161 9985
3  10378 6512 10375
3  10381 6515 6514
3  8451 8453 8157
3  8451 10382 8453
3  10383 8159 8161
3  10381 6514 10378
3  10384 6516 6515
3  8449 8451 8154
3  10385 9993 8159
3  10384 6515 10381
3  10386 6521 6516
3  9990 8449 5940
3  9990 10387 8449
3  10388 8155 9993
3  10386 6516 10384
3  10389 6523 6521
3  8447 9990 8150
3  10390 8152 8155
3  10389 6521 10386
3  10391 6526 6523
3  8442 8447 8148
3  8442 10392 8447
3  10393 9999 8152
3  10391 6523 10389
3  10394 7877 6246
3  9996 8442 5946
3  9996 10395 8442
3  10396 10002 9999
3  7883 6526 10391
3  10397 6529 7875
3  8441 9996 8144
3  8441 10398 9996
3  10399 10005 10002
3  10397 7875 7883
3  10400 6532 6529
3  8440 8441 8142
3  8440 10401 8441
3  10402 10008 10005
3  10400 6529 10397
3  10403 6534 6532
3  8438 8440 8140
3  8438 10404 8440
3  10405 10011 10008
3  10403 6532 10400
3  10406 6536 6534
3  8435 8438 8138
3  8435 10407 8438
3  10408 10014 10011
3  10406 6534 10403
3  10409 6538 6536
3  8433 8435 7415
3  8433 10410 8435
3  10411 10016 10014
3  10409 6536 10406
3  10412 7219 6538
3  10412 6538 10409
3  10413 7218 7219
3  10414 10024 10021
3  8133 10415 8134
3  10413 7219 10412
3  10416 7217 7218
3  8428 8136 5964
3  10417 8135 8136
3  10418 8132 10024
3  10416 7218 10413
3  7861 7220 6260
3  10419 6542 7217
3  8425 8428 8130
3  8425 10420 8428
3  10421 10028 8132
3  10419 7217 10416
3  7864 6260 6263
3  10422 6543 6542
3  10027 8425 8129
3  10027 10423 8425
3  10424 10031 10028
3  10422 6542 10419
3  10425 6544 6543
3  8424 10027 5969
3  10426 10034 10031
3  10425 6543 10422
3  8419 8424 8125
3  10427 10037 10034
3  7859 6544 10425
3  8418 8419 8123
3  8418 10428 8419
3  10429 10040 10037
3  7857 7850 7859
3  8417 8418 8121
3  8417 10430 8418
3  10431 10043 10040
3  7855 6546 7857
3  10432 7848 7847
3  8414 8417 8119
3  8414 10433 8417
3  10434 10045 10043
3  7853 6549 7855
3  10435 6556 6553
3  8411 8414 8117
3  8411 10436 8414
3  10437 10047 10045
3  10435 6553 7853
3  10438 6558 6556
3  8408 8411 8115
3  8408 10439 8411
3  10440 10050 10047
3  10438 6556 10435
3  10441 6563 6558
3  8405 8408 8113
3  8405 10442 8408
3  10443 10053 10050
3  10441 6558 10438
3  10444 6565 6563
3  8403 8405 7416
3  8403 10445 8405
3  10446 10056 10053
3  10444 6563 10441
3  10447 6567 6565
3  10447 6565 10444
3  10448 6569 6567
3  10449 8110 8399
3  8104 10450 8109
3  10448 6567 10447
3  10451 7215 6569
3  8398 8105 5992
3  10452 8107 8110
3  10453 8399 10059
3  10451 6569 10448
3  10454 7214 7215
3  8393 8398 5996
3  10455 8106 8107
3  10454 7215 10451
3  10456 7213 7214
3  8392 8393 5999
3  8392 10457 8393
3  10458 10070 8106
3  10456 7214 10454
3  7831 7216 6293
3  10459 6572 7213
3  10067 8392 8100
3  10067 10460 8392
3  10461 10073 10070
3  10459 7213 10456
3  7834 6293 6296
3  10462 6573 6572
3  8391 10067 8099
3  8391 10463 10067
3  10464 10076 10073
3  10462 6572 10459
3  10465 6575 6573
3  8389 8391 8097
3  8389 10466 8391
3  10467 10079 10076
3  10465 6573 10462
3  10468 7825 6303
3  8387 8389 8095
3  8387 10469 8389
3  10470 10082 10079
3  7829 6575 10465
3  10471 6578 7824
3  8384 8387 8093
3  8384 10472 8387
3  10473 10085 10082
3  10471 7824 7829
3  10474 6582 6578
3  8382 8384 8091
3  8382 10475 8384
3  10476 10087 10085
3  10474 6578 10471
3  10477 6584 6582
3  8380 8382 8089
3  8380 10478 8382
3  10479 10089 10087
3  10477 6582 10474
3  10480 6586 6584
3  8378 8380 7417
3  8378 10481 8380
3  10482 10092 10089
3  10480 6584 10477
3  10483 6588 6586
3  10483 6586 10480
3  10484 6591 6588
3  10485 8084 10096
3  8082 10486 8083
3  10484 6588 10483
3  10487 6593 6591
3  8370 8086 6020
3  10488 8085 8086
3  10489 10102 8084
3  10487 6591 10484
3  10490 6596 6593
3  10099 8370 8078
3  10099 10491 8370
3  10492 10105 10102
3  10490 6593 10487
3  10493 6599 6596
3  8369 10099 6026
3  10494 10108 10105
3  10493 6596 10490
3  10495 7211 6599
3  8368 8369 8075
3  10496 10111 10108
3  10495 6599 10493
3  10497 6601 7211
3  8365 8368 8073
3  8365 10498 8368
3  10499 10113 10111
3  10497 7211 10495
3  8362 8365 8071
3  8362 10500 8365
3  10501 10115 10113
3  7811 6601 10497
3  10502 7212 6324
3  8359 8362 8069
3  8359 10503 8362
3  10504 10118 10115
3  8072 7210 7811
3  10505 6324 6329
3  8356 8359 8067
3  8356 10506 8359
3  10507 10121 10118
3  8070 7805 8072
3  10508 10509 10505
3  10510 7803 7802
3  8354 8356 8065
3  8354 10511 8356
3  10512 10124 10121
3  7807 6602 8070
3  10513 6608 6606
3  8353 8354 8063
3  8353 10514 8354
3  10515 10127 10124
3  10513 6606 7807
3  10516 6611 6608
3  8351 8353 8061
3  8351 10517 8353
3  10518 10130 10127
3  10516 6608 10513
3  10519 6613 6611
3  8349 8351 7418
3  8349 10520 8351
3  10521 10131 10130
3  10519 6611 10516
3  10522 6615 6613
3  10522 6613 10519
3  10523 6617 6615
3  10524 8058 8342
3  8057 10525 8349
3  10523 6615 10522
3  10526 6619 6617
3  8341 10136 8052
3  10527 8053 8058
3  10528 8342 8343
3  10526 6617 10523
3  10529 6621 6619
3  8339 8341 6054
3  8339 10530 8341
3  10531 10144 8053
3  10529 6619 10526
3  10532 6623 6621
3  10141 8339 8048
3  10141 10533 8339
3  10534 10147 10144
3  10532 6621 10529
3  10535 6625 6623
3  8337 10141 8046
3  8337 10536 10141
3  10537 10150 10147
3  10535 6623 10532
3  10538 6628 6625
3  8334 8337 8044
3  8334 10539 8337
3  10540 10153 10150
3  10538 6625 10535
3  10541 7208 6628
3  8332 8334 8043
3  8332 10542 8334
3  10543 10155 10153
3  10541 6628 10538
3  10544 6630 7208
3  8330 8332 8042
3  8330 10545 8332
3  10546 10157 10155
3  10544 7208 10541
3  10547 7207 6630
3  8328 8330 8041
3  8328 10548 8330
3  10549 10160 10157
3  10547 6630 10544
3  7783 7209 6354
3  10550 6635 7207
3  8326 8328 8039
3  8326 10551 8328
3  10552 10163 10160
3  10550 7207 10547
3  10553 6354 7782
3  10554 6637 6635
3  8324 8326 8037
3  8324 10555 8326
3  10556 10166 10163
3  10554 6635 10550
3  10557 6639 6637
3  8322 8324 8034
3  8322 10558 8324
3  10559 10167 10166
3  10557 6637 10554
3  10560 6642 6639
3  8320 8322 8031
3  8320 10561 8322
3  10562 8035 10167
3  10560 6639 10557
3  10563 6644 6642
3  8315 8320 7419
3  8315 10564 8320
3  10565 8032 8035
3  10563 6642 10560
3  10566 6646 6644
3  10566 6644 10563
3  10567 6648 6646
3  10568 8028 8311
3  6077 10569 6078
3  10567 6646 10566
3  10570 6650 6648
3  8308 8023 8025
3  10571 10182 8028
3  10572 8311 10174
3  10570 6648 10567
3  10573 6652 6650
3  10180 8308 6086
3  10180 10574 8308
3  10575 10185 10182
3  10573 6650 10570
3  10576 6654 6652
3  8305 10180 8018
3  10577 10188 10185
3  10576 6652 10573
3  10578 6656 6654
3  8303 8305 8017
3  8303 10579 8305
3  10580 10191 10188
3  10578 6654 10576
3  10581 6658 6656
3  8302 8303 8015
3  8302 10582 8303
3  10583 10194 10191
3  10581 6656 10578
3  8300 8302 8013
3  8300 10584 8302
3  10585 10197 10194
3  7766 6658 10581
3  8298 8300 8011
3  8298 10586 8300
3  10587 10200 10197
3  7763 7754 7766
3  8296 8298 8009
3  8296 10588 8298
3  10589 10201 10200
3  7760 6659 7763
3  7750 7205 7206
3  8294 8296 8008
3  8294 10590 8296
3  10591 10204 10201
3  7757 6660 7760
3  10592 7203 7204
3  8293 8294 8006
3  8293 10593 8294
3  10594 10207 10204
3  10592 7204 7757
3  7749 7206 6389
3  10595 6668 7203
3  8288 8293 8003
3  8288 10596 8293
3  10597 8007 10207
3  10595 7203 10592
3  7752 6389 6392
3  10598 6670 6668
3  8287 8288 7420
3  8287 10599 8288
3  10600 8004 8007
3  10598 6668 10595
3  10601 6672 6670
3  10601 6670 10598
3  10602 6674 6672
3  10603 10219 8280
3  10602 6672 10601
3  10604 6676 6674
3  10216 8000 6112
3  10216 10218 8000
3  10605 10221 10219
3  10604 6674 10602
3  10606 6678 6676
3  8277 10216 7994
3  8277 10607 10216
3  10608 10224 10221
3  10606 6676 10604
3  10609 6680 6678
3  8275 8277 7993
3  8275 10610 8277
3  10611 10227 10224
3  10609 6678 10606
3  10612 7732 6680
3  8273 8275 7991
3  8273 10613 8275
3  10614 10229 10227
3  10612 6680 10609
3  10615 6405 7730
3  8271 8273 7990
3  8271 10616 8273
3  10617 10232 10229
3  7740 7732 10612
3  10618 7727 6682
3  8270 8271 7988
3  8270 10619 8271
3  10620 10233 10232
3  10618 6682 7740
3  10621 6410 7724
3  8268 8270 7986
3  8268 10622 8270
3  10623 10236 10233
3  7735 7727 10618
3  10624 6686 6685
3  8267 8268 7985
3  8267 10625 8268
3  10626 10239 10236
3  10624 6685 7735
3  10627 6688 6686
3  8262 8267 7982
3  8262 10628 8267
3  10629 10242 10239
3  10627 6686 10624
3  8261 8262 7980
3  8261 10630 8262
3  10631 7983 10242
3  7728 6688 10627
3  8258 8261 7977
3  8258 10632 8261
3  10633 10248 7983
3  7725 7202 7728
3  10245 8258 7421
3  10245 10634 8258
3  10635 10250 10248
3  7723 6692 7725
3  10636 6421 6423
3  10637 6695 7201
3  10637 7201 7723
3  10638 6423 6425
3  10639 6697 6695
3  10640 10258 10255
3  10639 6695 10637
3  10641 10642 10638
3  10643 6699 6697
3  8250 7975 7971
3  10644 7974 7975
3  10645 10261 10258
3  10643 6697 10639
3  10646 6702 6699
3  8249 8250 7968
3  8249 10647 8250
3  10648 10264 10261
3  10646 6699 10643
3  10649 6704 6702
3  8247 8249 7966
3  8247 10650 8249
3  10651 10267 10264
3  10649 6702 10646
3  10652 7710 6704
3  8245 8247 7964
3  8245 10653 8247
3  10654 10268 10267
3  10652 6704 10649
3  10655 6707 7710
3  8243 8245 7963
3  8243 10656 8245
3  10657 10271 10268
3  10655 7710 10652
3  10658 7705 6707
3  8242 8243 7961
3  8242 10659 8243
3  10660 10274 10271
3  10658 6707 10655
3  10661 6441 7702
3  8237 8242 7958
3  8237 10662 8242
3  10663 10277 10274
3  7713 7705 10658
3  10664 6714 6711
3  8236 8237 7956
3  8236 10665 8237
3  10666 7959 10277
3  10664 6711 7713
3  10667 6715 6714
3  8234 8236 7953
3  8234 10668 8236
3  10669 7957 7959
3  10667 6714 10664
3  8231 8234 7950
3  10670 7954 7957
3  7706 6715 10667
3  8229 8231 6161
3  10671 7951 7954
3  7703 6716 7706
3  10672 7694 7430
3  8227 8229 6164
3  8227 10673 8229
3  10674 10288 7951
3  7700 6718 7703
3  10675 7199 6721
3  10286 8227 7422
3  10286 10676 8227
3  10677 10290 10288
3  10675 6721 7700
3  10678 7198 7199
3  10678 7199 10675
3  10679 7197 7198
3  10680 10299 10296
3  7943 10681 7944
3  10679 7198 10678
3  7688 7200 6456
3  10682 6726 7197
3  8222 7946 6174
3  10683 7945 7946
3  10684 10302 10299
3  10682 7197 10679
3  7691 6456 6459
3  10685 6728 6726
3  8220 8222 7940
3  8220 10686 8222
3  10687 10303 10302
3  10685 6726 10682
3  10688 6730 6728
3  8218 8220 7938
3  8218 10689 8220
3  10690 10306 10303
3  10688 6728 10685
3  10691 7678 6730
3  8217 8218 7936
3  8217 10692 8218
3  10693 10309 10306
3  10691 6730 10688
3  10694 6732 7678
3  8212 8217 7935
3  8212 10695 8217
3  10696 10312 10309
3  10694 7678 10691
3  10697 7674 6732
3  8211 8212 7932
3  8211 10698 8212
3  10699 10315 10312
3  10697 6732 10694
3  8209 8211 7930
3  8209 10700 8211
3  10701 7933 10315
3  7682 7674 10697
3  8204 8209 7928
3  8204 10702 8209
3  10703 10319 7933
3  7679 6735 7682
3  10317 8204 7926
3  10317 10704 8204
3  10705 10322 10319
3  7677 6739 7679
3  10706 7669 7668
3  8201 10317 6190
3  10707 10325 10322
3  7675 6741 7677
3  10708 6745 6743
3  8199 8201 7922
3  10709 10328 10325
3  10708 6743 7675
3  10710 6748 6745
3  8198 8199 7423
3  8198 10711 8199
3  10712 10331 10328
3  10710 6745 10708
3  10713 6750 6748
3  10713 6748 10710
3  10714 6753 6750
3  10715 10338 10337
3  7916 10716 7917
3  10714 6750 10713
3  10717 7195 6753
3  8193 7919 6202
3  10718 7918 7919
3  10719 10341 10338
3  10717 6753 10714
3  10720 7194 7195
3  8192 8193 7914
3  8192 10721 8193
3  10722 10344 10341
3  10720 7195 10717
3  10723 7193 7194
3  8187 8192 7913
3  8187 10724 8192
3  10725 10347 10344
3  10723 7194 10720
3  6492 7196 6488
3  10726 7659 7193
3  8186 8187 7911
3  8186 10727 8187
3  10728 10350 10347
3  10726 7193 10723
3  6493 6488 7657
3  10729 6760 7659
3  8184 8186 7909
3  8184 10730 8186
3  10731 10353 10350
3  10729 7659 10726
3  10732 7652 6760
3  8182 8184 7906
3  8182 10733 8184
3  10734 7910 10353
3  10732 6760 10729
3  8179 8182 7904
3  10735 7907 7910
3  7658 7652 10732
3  8177 8179 6215
3  8177 10736 8179
3  10737 10359 7907
3  7656 6765 7658
3  10356 8177 6218
3  10356 10738 8177
3  10739 10362 10359
3  7655 6770 7656
3  10740 7649 7648
3  8175 10356 7899
3  10741 10365 10362
3  7653 6773 7655
3  10742 6776 6774
3  8173 8175 7897
3  10743 10368 10365
3  10742 6774 7653
3  10744 6779 6776
3  8171 8173 7895
3  8171 10745 8173
3  10746 10371 10368
3  10744 6776 10742
3  10747 6782 6779
3  8169 8171 7424
3  8169 10748 8171
3  10749 10374 10371
3  10747 6779 10744
3  10750 6785 6782
3  10750 6782 10747
3  10751 6787 6785
3  10752 10381 10378
3  7889 10753 7890
3  10751 6785 10750
3  10754 6790 6787
3  8162 7892 6233
3  10755 7891 7892
3  10756 10384 10381
3  10754 6787 10751
3  10757 6792 6790
3  8160 8162 7885
3  8160 10758 8162
3  10759 10386 10384
3  10757 6790 10754
3  10760 7639 6792
3  8158 8160 7884
3  8158 10761 8160
3  10762 10389 10386
3  10760 6792 10757
3  10763 6797 7639
3  8156 8158 7882
3  8156 10764 8158
3  10765 10391 10389
3  10763 7639 10760
3  10766 7192 6797
3  8153 8156 7880
3  8153 10767 8156
3  10768 7883 10391
3  10766 6797 10763
3  7636 6520 6525
3  8149 8153 7879
3  8149 10769 8153
3  10770 10397 7883
3  7881 7192 10766
3  10771 6525 6528
3  10772 6803 6800
3  10394 8149 7877
3  10394 10773 8149
3  10774 10400 10397
3  10772 6800 7881
3  10775 10776 10771
3  8147 10394 6246
3  10777 10403 10400
3  7637 6803 10772
3  8145 8147 7873
3  10778 10406 10403
3  7635 6806 7637
3  10779 7631 7630
3  8143 8145 7871
3  8143 10780 8145
3  10781 10409 10406
3  7634 6809 7635
3  10782 6812 6810
3  8141 8143 7869
3  8141 10783 8143
3  10784 10412 10409
3  10782 6810 7634
3  10785 6815 6812
3  8139 8141 7867
3  8139 10786 8141
3  10787 10413 10412
3  10785 6812 10782
3  10788 6818 6815
3  8137 8139 7425
3  8137 10789 8139
3  10790 10416 10413
3  10788 6815 10785
3  10791 6821 6818
3  10791 6818 10788
3  10792 6823 6821
3  10793 10425 10422
3  7861 10794 7862
3  10792 6821 10791
3  10795 6826 6823
3  8131 7864 6263
3  10796 7863 7864
3  10797 7859 10425
3  10795 6823 10792
3  10798 7619 6826
3  8128 8131 7854
3  8128 10799 8131
3  10800 7857 7859
3  10798 6826 10795
3  10801 6828 7619
3  8126 8128 7852
3  10802 7855 7857
3  10801 7619 10798
3  10803 7615 6828
3  8124 8126 6271
3  10804 7853 7855
3  10803 6828 10801
3  10805 6552 7433
3  8122 8124 6274
3  8122 10806 8124
3  10807 10435 7853
3  7621 7615 10803
3  10808 7191 6833
3  10432 8122 7848
3  10432 10809 8122
3  10810 10438 10435
3  10808 6833 7621
3  8120 10432 7847
3  8120 10811 10432
3  10812 10441 10438
3  7618 7191 10808
3  8118 8120 7845
3  8118 10813 8120
3  10814 10444 10441
3  7616 6840 7618
3  6560 6562 7190
3  8116 8118 7843
3  8116 10815 8118
3  10816 10447 10444
3  7846 7614 7616
3  10817 7190 7613
3  10818 6845 6843
3  8114 8116 7841
3  8114 10819 8116
3  10820 10448 10447
3  10818 6843 7846
3  10821 6847 6845
3  8112 8114 7839
3  8112 10822 8114
3  10823 10451 10448
3  10821 6845 10818
3  10824 6850 6847
3  8111 8112 7837
3  8111 10825 8112
3  10826 10454 10451
3  10824 6847 10821
3  10827 6852 6850
3  8108 8111 7426
3  8108 10828 8111
3  10829 10456 10454
3  10827 6850 10824
3  10830 6855 6852
3  10830 6852 10827
3  10831 6857 6855
3  10832 10465 10462
3  7831 10833 7832
3  10831 6855 10830
3  10834 7602 6857
3  8101 7834 6296
3  10835 7833 7834
3  10836 7829 10465
3  10834 6857 10831
3  10837 6860 7602
3  8098 8101 7827
3  8098 10838 8101
3  10839 10471 7829
3  10837 7602 10834
3  10840 7598 6860
3  10468 8098 7825
3  10468 10841 8098
3  10842 10474 10471
3  10840 6860 10837
3  10843 6581 7596
3  8096 10468 6303
3  10844 10477 10474
3  7604 7598 10840
3  10845 6869 6864
3  8094 8096 7822
3  10846 10480 10477
3  10845 6864 7604
3  8092 8094 7820
3  8092 10847 8094
3  10848 10483 10480
3  7601 6869 10845
3  8090 8092 7818
3  8090 10849 8092
3  10850 10484 10483
3  7599 6872 7601
3  10851 7434 6590
3  8088 8090 7817
3  8088 10852 8090
3  10853 10487 10484
3  7597 6875 7599
3  10854 7187 7188
3  8087 8088 7816
3  8087 10855 8088
3  10856 10490 10487
3  10854 7188 7597
3  10857 7186 7187
3  8081 8087 7815
3  8081 10858 8087
3  10859 10493 10490
3  10857 7187 10854
3  7590 7189 6595
3  10860 6879 7186
3  8080 8081 7813
3  8080 10861 8081
3  10862 10495 10493
3  10860 7186 10857
3  7593 6595 6598
3  10863 6882 6879
3  8079 8080 7810
3  8079 10864 8080
3  10865 10497 10495
3  10863 6879 10860
3  10866 6885 6882
3  8077 8079 7427
3  8077 10867 8079
3  10868 7811 10497
3  10866 6882 10863
3  10869 6888 6885
3  10869 6885 10866
3  10870 7582 6888
3  10871 7807 8070
3  8074 10872 8077
3  10870 6888 10869
3  10873 6890 7582
3  8068 10505 6329
3  8068 10508 10505
3  10874 10513 7807
3  10873 7582 10870
3  10875 7578 6890
3  10510 8068 7803
3  10510 10876 8068
3  10877 10516 10513
3  10875 6890 10873
3  10878 6610 7576
3  8066 10510 7802
3  8066 10879 10510
3  10880 10519 10516
3  7585 7578 10875
3  10881 6898 6894
3  8064 8066 7800
3  8064 10882 8066
3  10883 10522 10519
3  10881 6894 7585
3  8062 8064 7798
3  8062 10884 8064
3  10885 10523 10522
3  7581 6898 10881
3  8060 8062 7796
3  8060 10886 8062
3  10887 10526 10523
3  7579 6901 7581
3  10888 7573 7572
3  8059 8060 7794
3  8059 10889 8060
3  10890 10529 10526
3  7577 6904 7579
3  10891 6910 6907
3  8055 8059 7792
3  8055 10892 8059
3  10893 10532 10529
3  10891 6907 7577
3  10894 6912 6910
3  8051 8055 7790
3  8051 10895 8055
3  10896 10535 10532
3  10894 6910 10891
3  10897 6914 6912
3  8050 8051 7788
3  8050 10898 8051
3  10899 10538 10535
3  10897 6912 10894
3  10900 7184 6914
3  8049 8050 7787
3  8049 10901 8050
3  10902 10541 10538
3  10900 6914 10897
3  10903 7183 7184
3  8047 8049 7786
3  8047 10904 8049
3  10905 10544 10541
3  10903 7184 10900
3  10906 7182 7183
3  8045 8047 7428
3  8045 10907 8047
3  10908 10547 10544
3  10906 7183 10903
3  6633 7185 6629
3  10909 7567 7182
3  10909 7182 10906
3  6634 6629 7565
3  10910 6921 7567
3  10911 10557 10554
3  7784 10912 8045
3  10910 7567 10909
3  10913 7559 6921
3  8040 10553 7782
3  10914 10560 10557
3  10915 10554 10550
3  10913 6921 10910
3  10916 6641 7557
3  8038 8040 7780
3  8038 10917 8040
3  10918 10563 10560
3  7566 7559 10913
3  10919 6929 6925
3  8036 8038 7778
3  8036 10920 8038
3  10921 10566 10563
3  10919 6925 7566
3  8033 8036 7776
3  8033 10922 8036
3  10923 10567 10566
3  7562 6929 10919
3  8030 8033 7774
3  8030 10924 8033
3  10925 10570 10567
3  7560 6932 7562
3  10926 7554 7553
3  8029 8030 7772
3  8029 10927 8030
3  10928 10573 10570
3  7558 6935 7560
3  10929 6941 6938
3  8026 8029 7770
3  8026 10930 8029
3  10931 10576 10573
3  10929 6938 7558
3  10932 6943 6941
3  8024 8026 7768
3  8024 10933 8026
3  10934 10578 10576
3  10932 6941 10929
3  10935 6945 6943
3  8021 8024 7765
3  8021 10936 8024
3  10937 10581 10578
3  10935 6943 10932
3  10938 6948 6945
3  8019 8021 7762
3  8019 10939 8021
3  10940 7766 10581
3  10938 6945 10935
3  10941 6951 6948
3  8016 8019 7759
3  8016 10942 8019
3  10943 7763 7766
3  10941 6948 10938
3  10944 6954 6951
3  8014 8016 7756
3  10945 7760 7763
3  10944 6951 10941
3  10946 7543 6954
3  8012 8014 6381
3  10947 7757 7760
3  10946 6954 10944
3  10948 6957 7543
3  8010 8012 6384
3  8010 10949 8012
3  10950 10592 7757
3  10948 7543 10946
3  10951 7544 6957
3  10951 6957 10948
3  10952 10601 10598
3  7749 10953 7750
3  7546 7544 10951
3  10954 7536 6963
3  8005 7752 6392
3  10955 7751 7752
3  10956 10602 10601
3  10954 6963 7546
3  7539 6667 7181
3  8002 8005 7746
3  8002 10957 8005
3  10958 10604 10602
3  7748 7536 10954
3  7540 7181 7534
3  8001 8002 7744
3  8001 10959 8002
3  10960 10606 10604
3  7747 6966 7748
3  10961 7538 7540
3  10962 7533 7532
3  7997 8001 7742
3  7997 10963 8001
3  10964 10609 10606
3  7537 6968 7747
3  10965 6974 6971
3  7996 7997 7739
3  7996 10966 7997
3  10967 10612 10609
3  10965 6971 7537
3  10968 6976 6974
3  7995 7996 7737
3  7995 10969 7996
3  10970 7740 10612
3  10968 6974 10965
3  10971 6978 6976
3  7992 7995 7734
3  7992 10972 7995
3  10973 10618 7740
3  10971 6976 10968
3  10974 6981 6978
3  10615 7992 6405
3  10975 7735 10618
3  10974 6978 10971
3  10976 6984 6981
3  7989 10615 7730
3  7989 10977 10615
3  10978 10624 7735
3  10976 6981 10974
3  10979 6987 6984
3  10621 7989 6410
3  10980 10627 10624
3  10979 6984 10976
3  10981 7523 6987
3  7987 10621 7724
3  10982 7728 10627
3  10981 6987 10979
3  10983 6990 7523
3  7984 7987 7722
3  10984 7725 7728
3  10983 7523 10981
3  10985 7518 6990
3  7981 7984 7429
3  7981 10986 7984
3  10987 7723 7725
3  10985 6990 10983
3  10988 6694 7515
3  7525 7518 10985
3  10989 6999 6995
3  10990 10643 10639
3  7979 10991 7981
3  10989 6995 7525
3  7976 10638 6425
3  7976 10641 10638
3  10992 10646 10643
3  7522 6999 10989
3  7972 7976 7717
3  7972 10993 7976
3  10994 10649 10646
3  7519 7002 7522
3  10995 6701 7180
3  7970 7972 7716
3  7970 10996 7972
3  10997 10652 10649
3  7516 7179 7519
3  10998 7177 7178
3  7969 7970 7715
3  7969 10999 7970
3  11000 10655 10652
3  10998 7178 7516
3  7511 7180 6706
3  11001 7008 7177
3  7967 7969 7712
3  7967 11002 7969
3  11003 10658 10655
3  11001 7177 10998
3  7512 6706 6709
3  11004 7010 7008
3  7965 7967 6436
3  7965 11005 7967
3  11006 7713 10658
3  11004 7008 11001
3  11007 7012 7010
3  7962 7965 7708
3  11008 10664 7713
3  11007 7010 11004
3  11009 7015 7012
3  10661 7962 6441
3  11010 10667 10664
3  11009 7012 11007
3  11011 7018 7015
3  7960 10661 7702
3  11012 7706 10667
3  11011 7015 11009
3  11013 7021 7018
3  7955 7960 7699
3  11014 7703 7706
3  11013 7018 11011
3  11015 7501 7021
3  7952 7955 7697
3  7952 11016 7955
3  11017 7700 7703
3  11015 7021 11013
3  11018 7024 7501
3  7949 7952 7696
3  7949 11019 7952
3  11020 10675 7700
3  11018 7501 11015
3  11021 7496 7024
3  10672 7949 7694
3  11022 10678 10675
3  11021 7024 11018
3  7947 10672 7430
3  11023 10679 10678
3  7504 7496 11021
3  7502 7029 7504
3  11024 10688 10685
3  7688 11025 7689
3  7500 7033 7502
3  11026 7491 7490
3  7942 7691 6459
3  11027 7690 7691
3  11028 10691 10688
3  7497 7036 7500
3  11029 7041 7038
3  7941 7942 7684
3  7941 11030 7942
3  11031 10694 10691
3  11029 7038 7497
3  11032 7044 7041
3  7939 7941 7681
3  7939 11033 7941
3  11034 10697 10694
3  11032 7041 11029
3  11035 7047 7044
3  7937 7939 6466
3  7937 11036 7939
3  11037 7682 10697
3  11035 7044 11032
3  11038 7175 7047
3  7934 7937 7676
3  11039 7679 7682
3  11038 7047 11035
3  11040 7174 7175
3  7931 7934 6471
3  7931 11041 7934
3  11042 7677 7679
3  11040 7175 11038
3  11043 7173 7174
3  7929 7931 7673
3  11044 7675 7677
3  11043 7174 11040
3  7482 7176 6740
3  11045 7052 7173
3  7927 7929 7671
3  7927 11046 7929
3  11047 10708 7675
3  11045 7173 11043
3  7483 6740 6742
3  11048 7479 7052
3  10706 7927 7669
3  11049 10710 10708
3  11048 7052 11045
3  11050 7481 7483
3  11051 7054 7479
3  7925 10706 7668
3  11052 10713 10710
3  11051 7479 11048
3  11053 7475 7054
3  7923 7925 7666
3  7923 11054 7925
3  11055 10714 10713
3  11053 7054 11051
3  7921 7923 7664
3  7921 11056 7923
3  11057 10717 10714
3  7484 7475 11053
3  7920 7921 7662
3  7920 11058 7921
3  11059 10720 10717
3  7480 7055 7484
3  7915 7920 7431
3  7915 11060 7920
3  11061 10723 10720
3  7478 7172 7480
3  7476 7169 7478
3  11062 6757 6759
3  11063 7170 7171
3  11064 10732 10729
3  6492 11065 7660
3  11063 7171 7476
3  11066 6759 6762
3  11067 7168 7170
3  7912 6493 7657
3  11068 6491 6493
3  11069 7658 10732
3  11067 7170 11063
3  11070 6762 6764
3  11071 7167 7168
3  7908 7912 7654
3  11072 7656 7658
3  11071 7168 11067
3  11073 6764 6767
3  11074 7166 7167
3  7905 7908 6500
3  7905 11075 7908
3  11076 7655 7656
3  11074 7167 11071
3  11077 6767 6769
3  11078 7165 7166
3  7903 7905 7651
3  11079 7653 7655
3  11078 7166 11074
3  11080 6769 6772
3  11081 7162 7165
3  7901 7903 7650
3  7901 11082 7903
3  11083 10742 7653
3  11081 7165 11078
3  11084 6772 7164
3  11085 7163 7162
3  10740 7901 7649
3  11086 10744 10742
3  11085 7162 11081
3  11087 7164 6775
3  11088 7161 7163
3  7900 10740 7648
3  11089 10747 10744
3  11088 7163 11085
3  11090 6775 6778
3  11091 7160 7161
3  7898 7900 7647
3  7898 11092 7900
3  11093 10750 10747
3  11091 7161 11088
3  11094 6778 6781
3  11095 7159 7160
3  7896 7898 7646
3  7896 11096 7898
3  11097 10751 10750
3  11095 7160 11091
3  11098 6781 7440
3  11099 7441 7159
3  7894 7896 7644
3  7894 11100 7896
3  11101 10754 10751
3  11099 7159 11095
3  11102 7440 6784
3  7893 7894 7642
3  7893 11103 7894
3  11104 10757 10754
3  7645 7441 11099
3  11105 6784 7442
3  7888 7893 7640
3  7888 11106 7893
3  11107 10760 10757
3  7643 7158 7645
3  11108 7442 6789
3  7887 7888 7638
3  7887 11109 7888
3  11110 10763 10760
3  7641 7443 7643
3  11111 6789 6794
3  11112 7156 7157
3  7886 7887 7432
3  7886 11113 7887
3  11114 10766 10763
3  11112 7157 7641
3  11115 6794 6796
3  11116 7155 7156
3  11116 7156 11112
3  11117 6796 6799
3  11118 7154 7155
3  11119 7637 10772
3  10776 11120 7636
3  11118 7155 11116
3  11121 6799 6802
3  11122 7153 7154
3  7878 10771 6528
3  7878 10775 10771
3  11123 7635 7637
3  11122 7154 11118
3  11124 6802 6805
3  11125 7152 7153
3  7876 7878 7633
3  7876 11126 7878
3  11127 7634 7635
3  11125 7153 11122
3  11128 6805 6808
3  11129 7149 7152
3  7874 7876 7632
3  7874 11130 7876
3  11131 10782 7634
3  11129 7152 11125
3  11132 6808 7151
3  11133 7150 7149
3  10779 7874 7631
3  11134 10785 10782
3  11133 7149 11129
3  11135 7151 6811
3  11136 7148 7150
3  7872 10779 7630
3  11137 10788 10785
3  11136 7150 11133
3  11138 6811 6814
3  11139 7147 7148
3  7870 7872 7629
3  7870 11140 7872
3  11141 10791 10788
3  11139 7148 11136
3  11142 6814 6817
3  11143 7146 7147
3  7868 7870 7628
3  7868 11144 7870
3  11145 10792 10791
3  11143 7147 11139
3  11146 6817 7444
3  11147 7445 7146
3  7866 7868 7626
3  7866 11148 7868
3  11149 10795 10792
3  11147 7146 11143
3  11150 7444 6820
3  7865 7866 7624
3  7865 11151 7866
3  11152 10798 10795
3  7627 7445 11147
3  11153 6820 7446
3  7860 7865 7622
3  7860 11154 7865
3  11155 10801 10798
3  7625 7145 7627
3  11156 7446 6825
3  7858 7860 7620
3  7858 11157 7860
3  11158 10803 10801
3  7623 7447 7625
3  11159 6825 6830
3  11160 7143 7144
3  7856 7858 6548
3  7856 11161 7858
3  11162 7621 10803
3  11160 7144 7623
3  11163 6830 6832
3  11164 7142 7143
3  7851 7856 7617
3  11165 10808 7621
3  11164 7143 11160
3  11166 6832 6835
3  11167 7141 7142
3  10805 7851 6552
3  11168 7618 10808
3  11167 7142 11164
3  11169 6835 6837
3  11170 7140 7141
3  7849 10805 7433
3  7849 11171 10805
3  11172 7616 7618
3  11170 7141 11167
3  11173 6837 6839
3  11174 7139 7140
3  11174 7140 11170
3  11175 6839 6842
3  11176 7138 7139
3  11177 10821 10818
3  6561 11178 7849
3  11176 7139 11174
3  11179 6842 6844
3  11180 7137 7138
3  7844 10817 7613
3  11181 10824 10821
3  11182 10818 7846
3  11180 7138 11176
3  11183 6844 6846
3  11184 7136 7137
3  7842 7844 7612
3  7842 11185 7844
3  11186 10827 10824
3  11184 7137 11180
3  11187 6846 6849
3  11188 7134 7136
3  7840 7842 7611
3  7840 11189 7842
3  11190 10830 10827
3  11188 7136 11184
3  11191 6849 7135
3  11192 7133 7134
3  7838 7840 7610
3  7838 11193 7840
3  11194 10831 10830
3  11192 7134 11188
3  11195 7135 7448
3  11196 7449 7133
3  7836 7838 7608
3  7836 11197 7838
3  11198 10834 10831
3  11196 7133 11192
3  11199 7448 6854
3  7835 7836 7606
3  7835 11200 7836
3  11201 10837 10834
3  7609 7449 11196
3  11202 6854 7450
3  7830 7835 7603
3  7830 11203 7835
3  11204 10840 10837
3  7607 7132 7609
3  11205 7450 6859
3  7828 7830 6577
3  7828 11206 7830
3  11207 7604 10840
3  7605 7451 7607
3  11208 6859 6863
3  11209 7130 7131
3  7826 7828 7600
3  11210 10845 7604
3  11209 7131 7605
3  11211 6863 6866
3  11212 7129 7130
3  10843 7826 6581
3  11213 7601 10845
3  11212 7130 11209
3  11214 6866 6868
3  11215 7128 7129
3  7823 10843 7596
3  7823 11216 10843
3  11217 7599 7601
3  11215 7129 11212
3  11218 6868 6871
3  11219 7127 7128
3  7821 7823 7595
3  7821 11220 7823
3  11221 7597 7599
3  11219 7128 11215
3  11222 6871 6874
3  11223 7124 7127
3  7819 7821 7594
3  7819 11224 7821
3  11225 10854 7597
3  11223 7127 11219
3  11226 6874 7126
3  11227 7125 7124
3  10851 7819 7434
3  11228 10857 10854
3  11227 7124 11223
3  11229 7126 6877
3  11230 7123 7125
3  11230 7125 11227
3  11231 6877 6878
3  11232 7122 7123
3  11233 10866 10863
3  7590 11234 7591
3  11232 7123 11230
3  11235 6878 6881
3  11236 7121 7122
3  7814 7593 6598
3  11237 7592 7593
3  11238 10869 10866
3  11236 7122 11232
3  11239 6881 6884
3  11240 7120 7121
3  7812 7814 7589
3  7812 11241 7814
3  11242 10870 10869
3  11240 7121 11236
3  11243 6884 7452
3  11244 7453 7120
3  7809 7812 7587
3  7809 11245 7812
3  11246 10873 10870
3  11244 7120 11240
3  11247 7452 6887
3  7808 7809 7584
3  7808 11248 7809
3  11249 10875 10873
3  7588 7453 11244
3  11250 6887 7454
3  7806 7808 6605
3  7806 11251 7808
3  11252 7585 10875
3  7586 7119 7588
3  11253 7454 6892
3  7804 7806 7580
3  11254 10881 7585
3  7583 7455 7586
3  11255 6892 6896
3  11256 7115 7118
3  10878 7804 6610
3  11257 7581 10881
3  11256 7118 7583
3  11258 6896 7117
3  11259 7116 7115
3  7801 10878 7576
3  7801 11260 10878
3  11261 7579 7581
3  11259 7115 11256
3  11262 7117 6900
3  11263 7114 7116
3  7799 7801 7575
3  7799 11264 7801
3  11265 7577 7579
3  11263 7116 11259
3  11266 6900 6903
3  11267 7113 7114
3  7797 7799 7574
3  7797 11268 7799
3  11269 10891 7577
3  11267 7114 11263
3  11270 6903 6906
3  11271 7112 7113
3  10888 7797 7573
3  11272 10894 10891
3  11271 7113 11267
3  11273 6906 6909
3  11274 7111 7112
3  7795 10888 7572
3  11275 10897 10894
3  11274 7112 11271
3  11276 6909 6911
3  11277 7110 7111
3  7793 7795 7571
3  7793 11278 7795
3  11279 10900 10897
3  11277 7111 11274
3  11280 6911 6913
3  11281 7109 7110
3  7791 7793 7570
3  7791 11282 7793
3  11283 10903 10900
3  11281 7110 11277
3  11284 6913 6916
3  11285 7108 7109
3  7789 7791 7435
3  7789 11286 7791
3  11287 10906 10903
3  11285 7109 11281
3  11288 6916 6918
3  11289 7107 7108
3  11289 7108 11285
3  11290 6918 7456
3  11291 7457 7107
3  11292 10913 10910
3  6633 11293 7569
3  11291 7107 11289
3  11294 7456 6920
3  7785 6634 7565
3  11295 6632 6634
3  11296 7566 10913
3  7568 7457 11291
3  11297 6920 7458
3  7781 7785 7561
3  11298 10919 7566
3  7564 7106 7568
3  11299 7458 6924
3  10916 7781 6641
3  11300 7562 10919
3  7563 7459 7564
3  11301 6924 6928
3  11302 7104 7105
3  7779 10916 7557
3  7779 11303 10916
3  11304 7560 7562
3  11302 7105 7563
3  11305 6928 6931
3  11306 7103 7104
3  7777 7779 7556
3  7777 11307 7779
3  11308 7558 7560
3  11306 7104 11302
3  11309 6931 6934
3  11310 7102 7103
3  7775 7777 7555
3  7775 11311 7777
3  11312 10929 7558
3  11310 7103 11306
3  11313 6934 6937
3  11314 7101 7102
3  10926 7775 7554
3  11315 10932 10929
3  11314 7102 11310
3  11316 6937 6940
3  11317 7100 7101
3  7773 10926 7553
3  11318 10935 10932
3  11317 7101 11314
3  11319 6940 6942
3  11320 7099 7100
3  7771 7773 7552
3  7771 11321 7773
3  11322 10938 10935
3  11320 7100 11317
3  11323 6942 6944
3  11324 7098 7099
3  7769 7771 7551
3  7769 11325 7771
3  11326 10941 10938
3  11324 7099 11320
3  11327 6944 6947
3  11328 7097 7098
3  7767 7769 7550
3  7767 11329 7769
3  11330 10944 10941
3  11328 7098 11324
3  11331 6947 6950
3  11332 7096 7097
3  7764 7767 7548
3  7764 11333 7767
3  11334 10946 10944
3  11332 7097 11328
3  11335 6950 6953
3  7761 7764 7547
3  7761 11336 7764
3  11337 10948 10946
3  7549 7096 11332
3  11338 6953 6956
3  11339 7094 7095
3  7758 7761 7545
3  7758 11340 7761
3  11341 10951 10948
3  11339 7095 7549
3  11342 6956 6959
3  11343 7093 7094
3  7755 7758 6663
3  7755 11344 7758
3  11345 7546 10951
3  11343 7094 11339
3  11346 6959 7460
3  11347 7461 7093
3  7753 7755 7436
3  11348 10954 7546
3  11347 7093 11343
3  11349 7460 6961
3  7542 7461 11347
3  11350 6961 7462
3  11351 7537 7747
3  7541 7092 7542
3  11352 7462 6965
3  7745 7540 7534
3  7745 10961 7540
3  11353 10965 7537
3  7535 7463 7541
3  11354 6965 6970
3  11355 7090 7091
3  10962 7745 7533
3  11356 10968 10965
3  11355 7091 7535
3  11357 6970 6973
3  11358 7089 7090
3  7743 10962 7532
3  11359 10971 10968
3  11358 7090 11355
3  11360 6973 6975
3  11361 7088 7089
3  7741 7743 7531
3  7741 11362 7743
3  11363 10974 10971
3  11361 7089 11358
3  11364 6975 6977
3  11365 7087 7088
3  7738 7741 7530
3  7738 11366 7741
3  11367 10976 10974
3  11365 7088 11361
3  11368 6977 6980
3  11369 7086 7087
3  7736 7738 7529
3  7736 11370 7738
3  11371 10979 10976
3  11369 7087 11365
3  11372 6980 6983
3  11373 7085 7086
3  7733 7736 7527
3  7733 11374 7736
3  11375 10981 10979
3  11373 7086 11369
3  11376 6983 6986
3  7731 7733 7526
3  7731 11377 7733
3  11378 10983 10981
3  7528 7085 11373
3  11379 6986 6989
3  11380 7083 7084
3  7729 7731 7524
3  7729 11381 7731
3  11382 10985 10983
3  11380 7084 7528
3  11383 6989 6992
3  11384 7082 7083
3  7726 7729 6690
3  7726 11385 7729
3  11386 7525 10985
3  11384 7083 11380
3  11387 6992 6994
3  11388 7081 7082
3  7721 7726 7521
3  11389 10989 7525
3  11388 7082 11384
3  11390 6994 7464
3  11391 7465 7081
3  10988 7721 6694
3  11392 7522 10989
3  11391 7081 11388
3  11393 7464 6997
3  7720 10988 7515
3  7720 11394 10988
3  11395 7519 7522
3  7520 7465 11391
3  11396 6997 7466
3  7719 7720 7513
3  7719 11397 7720
3  11398 7516 7519
3  7517 7080 7520
3  11399 7466 7001
3  7718 7719 7437
3  7718 11400 7719
3  11401 10998 7516
3  7514 7467 7517
3  11402 7001 7005
3  11403 7078 7079
3  11403 7079 7514
3  11404 7005 7007
3  11405 7077 7078
3  11406 11007 11004
3  11405 7078 11403
3  11407 7007 7009
3  11408 7076 7077
3  7714 7512 6709
3  11409 7510 7512
3  11410 11009 11007
3  11408 7077 11405
3  11411 7009 7011
3  11412 7075 7076
3  7711 7714 7509
3  7711 11413 7714
3  11414 11011 11009
3  11412 7076 11408
3  11415 7011 7014
3  11416 7074 7075
3  7709 7711 7508
3  7709 11417 7711
3  11418 11013 11011
3  11416 7075 11412
3  11419 7014 7017
3  11420 7073 7074
3  7707 7709 7506
3  7707 11421 7709
3  11422 11015 11013
3  11420 7074 11416
3  11423 7017 7020
3  7704 7707 7505
3  7704 11424 7707
3  11425 11018 11015
3  7507 7073 11420
3  11426 7020 7023
3  11427 7071 7072
3  7701 7704 7503
3  7701 11428 7704
3  11429 11021 11018
3  11427 7072 7507
3  11430 7023 7026
3  11431 7070 7071
3  7698 7701 6720
3  7698 11432 7701
3  11433 7504 11021
3  11431 7071 11427
3  11434 7026 7028
3  11435 7069 7070
3  7695 7698 7499
3  11436 7502 7504
3  11435 7070 11431
3  11437 7028 7468
3  11438 7469 7069
3  7693 7695 6724
3  7693 11439 7695
3  11440 7500 7502
3  11438 7069 11435
3  11441 7468 7031
3  7692 7693 7494
3  11442 7497 7500
3  7498 7469 11438
3  11443 7031 7470
3  7687 7692 7492
3  7687 11444 7692
3  11445 11029 7497
3  7495 7068 7498
3  11446 7470 7035
3  11026 7687 7491
3  11447 11032 11029
3  7493 7471 7495
3  11448 7035 7040
3  11449 7066 7067
3  7686 11026 7490
3  11450 11035 11032
3  11449 7067 7493
3  11451 7040 7043
3  11452 7065 7066
3  7685 7686 7489
3  7685 11453 7686
3  11454 11038 11035
3  11452 7066 11449
3  11455 7043 7045
3  11456 7064 7065
3  7683 7685 7487
3  7683 11457 7685
3  11458 11040 11038
3  11456 7065 11452
3  11459 7045 7049
3  11460 9092 7474
3  7680 7683 7438
3  7680 11461 7683
3  11462 11043 11040
3  7488 7064 11456
3  7486 7056 7063
3  9094 7049 7050
3  7486 7063 7488
3  11463 7472 7062
3  11464 11051 11048
3  7482 11465 7485
3  7672 7483 6742
3  7672 11050 7483
3  11466 11053 11051
3  7670 7672 6747
3  7670 11467 7672
3  11468 7484 11053
3  7667 7670 7477
3  11469 7480 7484
3  7665 7667 6752
3  7665 11470 7667
3  11471 7478 7480
3  7663 7665 7439
3  11472 7476 7478
3  9092 7062 7060
3  11463 9093 7472
3  7472 7058 7062
3  11473 7488 11456
3  9094 7050 7472
3  11474 11456 11452
3  11475 7486 7488
3  11459 7049 9094
3  11476 11452 11449
3  11455 7045 11459
3  11455 11477 11478
3  11479 11449 7493
3  11451 7043 11455
3  11451 11478 11480
3  11481 7493 7495
3  11448 7040 11451
3  11448 11480 11482
3  11483 7495 7498
3  11446 7035 11448
3  11446 11482 11484
3  11485 7498 11438
3  11443 7470 11446
3  11486 11438 11435
3  11441 7031 11443
3  11487 11435 11431
3  11437 7468 11441
3  11488 11431 11427
3  11434 7028 11437
3  11434 11489 11490
3  11491 11427 7507
3  11430 7026 11434
3  11430 11490 11492
3  11493 7507 11420
3  11426 7023 11430
3  11494 11420 11416
3  11423 7020 11426
3  11423 11495 11496
3  11497 11416 11412
3  11419 7017 11423
3  11419 11496 11498
3  11499 11412 11408
3  11415 7014 11419
3  11500 11408 11405
3  11411 7011 11415
3  11501 11405 11403
3  11407 7009 11411
3  11407 11502 11503
3  11504 11403 7514
3  11404 7007 11407
3  11404 11503 11505
3  11506 7514 7517
3  11402 7005 11404
3  11402 11505 11507
3  11508 7517 7520
3  11399 7001 11402
3  11399 11507 11509
3  11510 7520 11391
3  11396 7466 11399
3  11511 11391 11388
3  11393 6997 11396
3  11512 11388 11384
3  11390 7464 11393
3  11513 11384 11380
3  11387 6994 11390
3  11387 11514 11515
3  11516 11380 7528
3  11383 6992 11387
3  11383 11515 11517
3  11518 7528 11373
3  11379 6989 11383
3  11519 11373 11369
3  11376 6986 11379
3  11376 11520 11521
3  11522 11369 11365
3  11372 6983 11376
3  11372 11521 11523
3  11524 11365 11361
3  11368 6980 11372
3  11525 11361 11358
3  11364 6977 11368
3  11526 11358 11355
3  11360 6975 11364
3  11360 11527 11528
3  11529 11355 7535
3  11357 6973 11360
3  11357 11528 11530
3  11531 7535 7541
3  11354 6970 11357
3  11354 11530 11532
3  11533 7541 7542
3  11352 6965 11354
3  11352 11532 11534
3  11535 7542 11347
3  11350 7462 11352
3  11536 11347 11343
3  11349 6961 11350
3  11537 11343 11339
3  11346 7460 11349
3  11538 11339 7549
3  11342 6959 11346
3  11342 11539 11540
3  11541 7549 11332
3  11338 6956 11342
3  11542 11332 11328
3  11335 6953 11338
3  11335 11543 11544
3  11545 11328 11324
3  11331 6950 11335
3  11331 11544 11546
3  11547 11324 11320
3  11327 6947 11331
3  11548 11320 11317
3  11323 6944 11327
3  11549 11317 11314
3  11319 6942 11323
3  11319 11550 11551
3  11552 11314 11310
3  11316 6940 11319
3  11316 11551 11553
3  11554 11310 11306
3  11313 6937 11316
3  11313 11553 11555
3  11556 11306 11302
3  11309 6934 11313
3  11309 11555 11557
3  11558 11302 7563
3  11305 6931 11309
3  11305 11557 11559
3  11560 7563 7564
3  11301 6928 11305
3  11301 11559 11561
3  11562 7564 7568
3  11299 6924 11301
3  11299 11561 11563
3  11564 7568 11291
3  11297 7458 11299
3  11565 11291 11289
3  11294 6920 11297
3  11294 11566 11567
3  11568 11289 11285
3  11290 7456 11294
3  11569 11285 11281
3  11288 6918 11290
3  11288 11570 11571
3  11572 11281 11277
3  11284 6916 11288
3  11573 11277 11274
3  11280 6913 11284
3  11574 11274 11271
3  11276 6911 11280
3  11276 11575 11576
3  11577 11271 11267
3  11273 6909 11276
3  11273 11576 11578
3  11579 11267 11263
3  11270 6906 11273
3  11270 11578 11580
3  11581 11263 11259
3  11266 6903 11270
3  11266 11580 11582
3  11583 11259 11256
3  11262 6900 11266
3  11262 11582 11584
3  11585 11256 7583
3  11258 7117 11262
3  11258 11584 11586
3  11587 7583 7586
3  11255 6896 11258
3  11255 11586 11588
3  11589 7586 7588
3  11253 6892 11255
3  11253 11588 11590
3  11591 7588 11244
3  11250 7454 11253
3  11592 11244 11240
3  11247 6887 11250
3  11247 11593 11594
3  11595 11240 11236
3  11243 7452 11247
3  11596 11236 11232
3  11239 6884 11243
3  11239 11597 11598
3  11599 11232 11230
3  11235 6881 11239
3  11600 11230 11227
3  11231 6878 11235
3  11601 11227 11223
3  11229 6877 11231
3  11229 11602 11603
3  11604 11223 11219
3  11226 7126 11229
3  11226 11603 11605
3  11606 11219 11215
3  11222 6874 11226
3  11222 11605 11607
3  11608 11215 11212
3  11218 6871 11222
3  11218 11607 11609
3  11610 11212 11209
3  11214 6868 11218
3  11214 11609 11611
3  11612 11209 7605
3  11211 6866 11214
3  11211 11611 11613
3  11614 7605 7607
3  11208 6863 11211
3  11208 11613 11615
3  11616 7607 7609
3  11205 6859 11208
3  11205 11615 11617
3  11618 7609 11196
3  11202 7450 11205
3  11619 11196 11192
3  11199 6854 11202
3  11199 11620 11621
3  11622 11192 11188
3  11195 7448 11199
3  11623 11188 11184
3  11191 7135 11195
3  11191 11624 11625
3  11626 11184 11180
3  11187 6849 11191
3  11627 11180 11176
3  11183 6846 11187
3  11628 11176 11174
3  11179 6844 11183
3  11179 11629 11630
3  11631 11174 11170
3  11175 6842 11179
3  11175 11630 11632
3  11633 11170 11167
3  11173 6839 11175
3  11173 11632 11634
3  11635 11167 11164
3  11169 6837 11173
3  11169 11634 11636
3  11637 11164 11160
3  11166 6835 11169
3  11166 11636 11638
3  11639 11160 7623
3  11163 6832 11166
3  11163 11638 11640
3  11641 7623 7625
3  11159 6830 11163
3  11159 11640 11642
3  11643 7625 7627
3  11156 6825 11159
3  11156 11642 11644
3  11645 7627 11147
3  11153 7446 11156
3  11646 11147 11143
3  11150 6820 11153
3  11150 11647 11648
3  11649 11143 11139
3  11146 7444 11150
3  11650 11139 11136
3  11142 6817 11146
3  11142 11651 11652
3  11653 11136 11133
3  11138 6814 11142
3  11654 11133 11129
3  11135 6811 11138
3  11655 11129 11125
3  11132 7151 11135
3  11132 11656 11657
3  11658 11125 11122
3  11128 6808 11132
3  11128 11657 11659
3  11660 11122 11118
3  11124 6805 11128
3  11124 11659 11661
3  11662 11118 11116
3  11121 6802 11124
3  11121 11661 11663
3  11664 11116 11112
3  11117 6799 11121
3  11117 11663 11665
3  11666 11112 7641
3  11115 6796 11117
3  11115 11665 11667
3  11668 7641 7643
3  11111 6794 11115
3  11111 11667 11669
3  11670 7643 7645
3  11108 6789 11111
3  11108 11669 11671
3  11672 7645 11099
3  11105 7442 11108
3  11673 11099 11095
3  11102 6784 11105
3  11102 11674 11675
3  11676 11095 11091
3  11098 7440 11102
3  11677 11091 11088
3  11094 6781 11098
3  11094 11678 11679
3  11680 11088 11085
3  11090 6778 11094
3  11681 11085 11081
3  11087 6775 11090
3  11682 11081 11078
3  11084 7164 11087
3  11084 11683 11684
3  11685 11078 11074
3  11080 6772 11084
3  11080 11684 11686
3  11687 11074 11071
3  11077 6769 11080
3  11077 11686 11688
3  11689 11071 11067
3  11073 6767 11077
3  11073 11688 11690
3  11691 11067 11063
3  11070 6764 11073
3  11070 11690 11692
3  11693 11063 7476
3  11066 6762 11070
3  11066 11692 11694
3  7661 11695 7663
3  7661 7663 6755
3  11062 6759 11066
3  11062 11694 11696
3  7661 11062 11696
3  7661 6757 11062
3  7485 7680 6737
3  7485 11697 7680
3  7482 6740 7483
3  11698 11045 11043
3  10995 7718 6701
3  7511 6706 7512
3  7511 10995 7180
3  7511 11699 10995
3  11700 11001 10998
3  6665 7753 6666
3  7539 7181 7540
3  6665 7539 11701
3  7539 6665 6667
3  11702 7748 10954
3  7569 7789 6627
3  7569 11703 7789
3  6633 6629 6634
3  11704 10909 10906
3  7591 10851 6590
3  7590 6595 7593
3  11705 10860 10857
3  6561 7849 6555
3  6560 11706 11707
3  6560 11707 6561
3  6560 7190 10817
3  6518 7886 6519
3  6518 11708 7886
3  7636 6525 10771
3  7636 11120 6518
3  7660 7915 6485
3  7660 11709 7915
3  6492 6488 6493
3  11710 10726 10723
3  7689 7947 6452
3  7689 11711 7947
3  7688 6456 7691
3  11712 10682 10679
3  7979 7981 6417
3  10636 6423 10638
3  10636 10642 11713
3  7979 10636 11713
3  7979 6421 10636
3  7750 8010 7205
3  7750 11714 8010
3  7749 6389 7752
3  11715 10595 10592
3  7784 8045 6350
3  7783 11716 11717
3  7783 11717 7784
3  7783 6354 10553
3  8074 8077 6319
3  10502 6324 10505
3  10502 10509 11718
3  10502 8074 7212
3  10502 11718 8074
3  7832 8108 6289
3  7832 11719 8108
3  7831 6293 7834
3  11720 10459 10456
3  7862 8137 6255
3  7862 11721 8137
3  7861 6260 7864
3  11722 10419 10416
3  7890 8169 6227
3  7890 11723 8169
3  7889 6230 7892
3  11724 10375 10374
3  7917 8198 6195
3  7917 11725 8198
3  7916 6200 7919
3  11726 10334 10331
3  7944 10286 6166
3  7944 11727 10286
3  7943 6171 7946
3  11728 10293 10290
3  6132 10245 6133
3  6139 6418 7975
3  6139 11729 6132
3  11730 10252 10250
3  8285 8287 6104
3  7999 6109 8000
3  7999 8285 7237
3  7999 11731 8285
3  11732 8283 8004
3  6078 8315 6073
3  6078 11733 8315
3  6077 6361 8023
3  11734 10174 8032
3  8057 8349 6043
3  8056 11735 11736
3  8056 11736 8057
3  8056 6047 10136
3  8083 8378 6015
3  8083 11737 8378
3  8082 6019 8086
3  11738 10095 10092
3  8109 8403 5985
3  8109 11739 8403
3  8104 5990 8105
3  11740 10059 10056
3  8134 8433 5957
3  8134 11741 8433
3  8133 5961 8136
3  11742 10018 10016
3  8164 8461 5927
3  8164 11743 8461
3  8163 5932 8166
3  11744 9979 9977
3  8189 8487 5898
3  8189 11745 8487
3  8188 5903 8191
3  11746 9940 9937
3  8214 8517 5868
3  8214 11747 8517
3  8213 5873 8216
3  11748 9905 9902
3  8239 8543 5841
3  8239 11749 8543
3  8238 5844 8241
3  11750 9864 9863
3  8264 8569 5811
3  8264 11751 8569
3  8263 5815 8266
3  11752 9830 9827
3  8290 8594 5783
3  8290 11753 8594
3  8289 5788 8292
3  11754 9793 9790
3  8317 8619 5753
3  8317 11755 8619
3  8316 5758 8319
3  11756 9756 9753
3  8345 8646 5724
3  8345 11757 8646
3  8344 5729 8347
3  11758 9715 9712
3  8372 8667 5694
3  8372 11759 8667
3  8371 5698 8374
3  11760 9680 9678
3  8395 8694 5666
3  8395 11761 8694
3  8394 5671 8397
3  11762 9641 9638
3  8421 8720 5636
3  8421 11763 8720
3  8420 5640 8423
3  11764 9607 9604
3  8444 8745 5608
3  8444 11765 8745
3  8443 5612 8446
3  11766 9569 9567
3  8466 8766 5578
3  8466 11767 8766
3  8465 5584 8468
3  11768 9538 9535
3  8489 8793 5551
3  8489 11769 8793
3  8488 5556 8491
3  11770 9499 9497
3  8514 8817 5519
3  8514 11771 8817
3  8513 5524 8516
3  11772 9466 9463
3  8538 8841 5494
3  8538 11773 8841
3  8537 5499 8540
3  11774 9431 9428
3  8563 8869 5464
3  8563 11775 8869
3  8557 5469 8558
3  11776 9395 9392
3  8585 8894 5438
3  8585 11777 8894
3  8584 5442 8587
3  11778 9356 9353
3  8608 8919 5413
3  8607 11779 11780
3  8607 11780 8608
3  8607 5416 9325
3  8628 8940 5387
3  8628 11781 8940
3  8627 5391 8630
3  11782 9289 9286
3  8953 8954 5366
3  9266 5369 9267
3  9266 9269 11783
3  9266 8953 7338
3  9266 11783 8953
3  8669 8963 5351
3  8669 11784 8963
3  8668 5354 8672
3  11785 9254 9253
3  5334 8974 5335
3  5334 5339 11786
3  5339 7343 8693
3  11787 9241 8973
3  8718 8985 5317
3  8718 11788 8985
3  5321 5318 5322
3  11789 9228 9227
3  9213 8995 5302
3  8737 5304 8738
3  9213 8737 11790
3  8737 9213 7349
3  11791 9215 9214
3  9198 9005 5284
3  9200 5289 9202
3  9198 11792 9005
3  9200 9198 5581
3  9200 9544 9198
3  8778 9184 5270
3  8778 11793 9184
3  8777 5273 8780
3  11794 9187 9186
3  9024 9025 7357
3  8801 5255 8802
3  11795 9175 9174
3  9024 5253 8801
3  9024 8801 11796
3  8821 9034 5237
3  8821 11797 9034
3  8820 5240 8823
3  11798 9162 9161
3  8844 9043 5219
3  8844 11799 9043
3  8843 5222 8846
3  11800 9152 9151
3  8866 9052 5204
3  8866 11801 9052
3  8865 5207 8868
3  11802 9139 9138
3  8891 9062 5186
3  8891 11803 9062
3  8886 5189 8887
3  11804 9128 9127
3  8913 9071 5171
3  8913 11805 9071
3  8912 5174 8915
3  11806 9115 9114
3  9082 9083 5155
3  9100 5158 9101
3  9100 9103 11807
3  9100 9082 7380
3  9100 11807 9082
3  11808 9081 8937
3  11809 9025 9024
3  11810 9201 9199
3  11811 8974 5334
3  11812 8952 8654
3  11813 8916 9322
3  11814 8343 10131
3  11815 8287 8285
3  11816 10245 6132
3  11817 8072 7811
3  11818 10550 10547
3  11819 10637 7723
3  11820 7881 10766
3  11821 7846 7616
3  11822 10851 7591
3  11823 7753 6665
3  11824 7718 10995
3  11694 11825 11696
3  11694 11062 11066
3  11692 11826 11694
3  11692 11066 11070
3  11690 11827 11692
3  11690 11070 11073
3  11688 11828 11690
3  11688 11073 11077
3  11686 11829 11688
3  11686 11077 11080
3  11684 11830 11686
3  11684 11080 11084
3  11683 11831 11684
3  11683 11084 11087
3  11832 11087 11090
3  11832 11833 11683
3  11832 11683 11087
3  11679 11090 11094
3  11679 11834 11832
3  11679 11832 11090
3  11678 11835 11679
3  11678 11094 11098
3  11675 11098 11102
3  11675 11836 11678
3  11675 11678 11098
3  11674 11837 11675
3  11674 11102 11105
3  11671 11105 11108
3  11671 11838 11674
3  11671 11674 11105
3  11669 11839 11671
3  11669 11108 11111
3  11667 11840 11669
3  11667 11111 11115
3  11665 11841 11667
3  11665 11115 11117
3  11663 11842 11665
3  11663 11117 11121
3  11661 11843 11663
3  11661 11121 11124
3  11659 11844 11661
3  11659 11124 11128
3  11657 11845 11659
3  11657 11128 11132
3  11656 11846 11657
3  11656 11132 11135
3  11847 11135 11138
3  11847 11848 11656
3  11847 11656 11135
3  11652 11138 11142
3  11652 11849 11847
3  11652 11847 11138
3  11651 11850 11652
3  11651 11142 11146
3  11648 11146 11150
3  11648 11851 11651
3  11648 11651 11146
3  11647 11852 11648
3  11647 11150 11153
3  11644 11153 11156
3  11644 11853 11647
3  11644 11647 11153
3  11642 11854 11644
3  11642 11156 11159
3  11640 11855 11642
3  11640 11159 11163
3  11638 11856 11640
3  11638 11163 11166
3  11636 11857 11638
3  11636 11166 11169
3  11634 11858 11636
3  11634 11169 11173
3  11632 11859 11634
3  11632 11173 11175
3  11630 11860 11632
3  11630 11175 11179
3  11629 11861 11630
3  11629 11179 11183
3  11862 11183 11187
3  11862 11863 11629
3  11862 11629 11183
3  11625 11187 11191
3  11625 11864 11862
3  11625 11862 11187
3  11624 11865 11625
3  11624 11191 11195
3  11621 11195 11199
3  11621 11866 11624
3  11621 11624 11195
3  11620 11867 11621
3  11620 11199 11202
3  11617 11202 11205
3  11617 11868 11620
3  11617 11620 11202
3  11615 11869 11617
3  11615 11205 11208
3  11613 11870 11615
3  11613 11208 11211
3  11611 11871 11613
3  11611 11211 11214
3  11609 11872 11611
3  11609 11214 11218
3  11607 11873 11609
3  11607 11218 11222
3  11605 11874 11607
3  11605 11222 11226
3  11603 11875 11605
3  11603 11226 11229
3  11602 11876 11603
3  11602 11229 11231
3  11877 11231 11235
3  11877 11878 11602
3  11877 11602 11231
3  11598 11235 11239
3  11598 11879 11877
3  11598 11877 11235
3  11597 11880 11598
3  11597 11239 11243
3  11594 11243 11247
3  11594 11881 11597
3  11594 11597 11243
3  11593 11882 11594
3  11593 11247 11250
3  11590 11250 11253
3  11590 11883 11593
3  11590 11593 11250
3  11588 11884 11590
3  11588 11253 11255
3  11586 11885 11588
3  11586 11255 11258
3  11584 11886 11586
3  11584 11258 11262
3  11582 11887 11584
3  11582 11262 11266
3  11580 11888 11582
3  11580 11266 11270
3  11578 11889 11580
3  11578 11270 11273
3  11576 11890 11578
3  11576 11273 11276
3  11575 11891 11576
3  11575 11276 11280
3  11892 11280 11284
3  11892 11893 11575
3  11892 11575 11280
3  11571 11284 11288
3  11571 11894 11892
3  11571 11892 11284
3  11570 11895 11571
3  11570 11288 11290
3  11567 11290 11294
3  11567 11896 11570
3  11567 11570 11290
3  11566 11897 11567
3  11566 11294 11297
3  11563 11297 11299
3  11563 11898 11566
3  11563 11566 11297
3  11561 11899 11563
3  11561 11299 11301
3  11559 11900 11561
3  11559 11301 11305
3  11557 11901 11559
3  11557 11305 11309
3  11555 11902 11557
3  11555 11309 11313
3  11553 11903 11555
3  11553 11313 11316
3  11551 11904 11553
3  11551 11316 11319
3  11550 11905 11551
3  11550 11319 11323
3  11906 11323 11327
3  11906 11907 11550
3  11906 11550 11323
3  11546 11327 11331
3  11546 11908 11906
3  11546 11906 11327
3  11544 11909 11546
3  11544 11331 11335
3  11543 11910 11544
3  11543 11335 11338
3  11540 11338 11342
3  11540 11911 11543
3  11540 11543 11338
3  11539 11912 11540
3  11539 11342 11346
3  11913 11346 11349
3  11913 11914 11539
3  11913 11539 11346
3  11915 11349 11350
3  11915 11916 11913
3  11915 11913 11349
3  11534 11350 11352
3  11534 11917 11915
3  11534 11915 11350
3  11532 11918 11534
3  11532 11352 11354
3  11530 11919 11532
3  11530 11354 11357
3  11528 11920 11530
3  11528 11357 11360
3  11527 11921 11528
3  11527 11360 11364
3  11922 11364 11368
3  11922 11923 11527
3  11922 11527 11364
3  11523 11368 11372
3  11523 11924 11922
3  11523 11922 11368
3  11521 11925 11523
3  11521 11372 11376
3  11520 11926 11521
3  11520 11376 11379
3  11517 11379 11383
3  11517 11927 11520
3  11517 11520 11379
3  11515 11928 11517
3  11515 11383 11387
3  11514 11929 11515
3  11514 11387 11390
3  11930 11390 11393
3  11930 11931 11514
3  11930 11514 11390
3  11932 11393 11396
3  11932 11933 11930
3  11932 11930 11393
3  11509 11396 11399
3  11509 11934 11932
3  11509 11932 11396
3  11507 11935 11509
3  11507 11399 11402
3  11505 11936 11507
3  11505 11402 11404
3  11503 11937 11505
3  11503 11404 11407
3  11502 11938 11503
3  11502 11407 11411
3  11939 11411 11415
3  11939 11940 11502
3  11939 11502 11411
3  11498 11415 11419
3  11498 11941 11939
3  11498 11939 11415
3  11496 11942 11498
3  11496 11419 11423
3  11495 11943 11496
3  11495 11423 11426
3  11492 11426 11430
3  11492 11944 11495
3  11492 11495 11426
3  11490 11945 11492
3  11490 11430 11434
3  11489 11946 11490
3  11489 11434 11437
3  11947 11437 11441
3  11947 11948 11489
3  11947 11489 11437
3  11949 11441 11443
3  11949 11950 11947
3  11949 11947 11441
3  11484 11443 11446
3  11484 11951 11949
3  11484 11949 11443
3  11482 11952 11484
3  11482 11446 11448
3  11480 11953 11482
3  11480 11448 11451
3  11478 11954 11480
3  11478 11451 11455
3  11477 11955 11478
3  11477 11455 11459
3  11956 11459 9094
3  11956 11957 11477
3  11956 11477 11459
3  9092 11958 11463
3  9093 11959 11956
3  9093 11956 9094
3  11463 7062 9092
3  11460 11475 11958
3  11460 7474 7486
3  11958 9093 11463
3  11695 7661 11696
3  11960 11825 11472
3  11961 7665 7663
3  11961 7663 11695
3  11962 11960 11471
3  11470 7665 11961
3  11963 11962 11469
3  11964 7670 7667
3  11964 7667 11470
3  11965 11963 11468
3  11467 7670 11964
3  11966 11965 11466
3  11967 11048 11045
3  11968 11969 11967
3  7481 11970 11465
3  7481 11465 7482
3  11050 7672 11467
3  11969 11966 11464
3  11475 11460 7486
3  11697 7485 11465
3  11971 11970 11462
3  11959 11958 11475
3  11473 11475 7488
3  11473 11474 11957
3  11461 7680 11697
3  11972 11971 11458
3  11474 11473 11456
3  11474 11476 11955
3  11457 7683 11461
3  11973 11972 11454
3  11476 11474 11452
3  11453 7685 11457
3  11974 11973 11450
3  11975 11026 7686
3  11954 11955 11476
3  11479 11476 11449
3  11975 7686 11453
3  11976 11974 11447
3  11977 7687 11026
3  11953 11954 11479
3  11481 11479 7493
3  11977 11026 11975
3  11978 11976 11445
3  11952 11953 11481
3  11483 11481 7495
3  11483 11485 11951
3  11444 7687 11977
3  11979 11978 11442
3  11980 7693 7692
3  11485 11483 7498
3  11980 7692 11444
3  11981 11979 11440
3  11950 11951 11485
3  11486 11485 11438
3  11486 11487 11948
3  11439 7693 11980
3  11982 11981 11436
3  11983 7698 7695
3  11487 11486 11435
3  11487 11488 11946
3  11983 7695 11439
3  11984 11982 11433
3  11488 11487 11431
3  11432 7698 11983
3  11985 11984 11429
3  11945 11946 11488
3  11491 11488 11427
3  11491 11493 11944
3  11428 7701 11432
3  11986 11985 11425
3  11493 11491 7507
3  11424 7704 11428
3  11987 11986 11422
3  11943 11944 11493
3  11494 11493 11420
3  11494 11497 11942
3  11421 7707 11424
3  11988 11987 11418
3  11497 11494 11416
3  11417 7709 11421
3  11989 11988 11414
3  11941 11942 11497
3  11499 11497 11412
3  11499 11500 11940
3  11413 7711 11417
3  11990 11989 11410
3  11991 11004 11001
3  11500 11499 11408
3  11500 11501 11938
3  7510 11992 11699
3  7510 11699 7511
3  11409 7714 11413
3  11993 11990 11406
3  11409 7512 7714
3  11409 11994 7510
3  11501 11500 11405
3  11937 11938 11501
3  11504 11501 11403
3  11824 10995 11699
3  11995 11992 11401
3  11936 11937 11504
3  11506 11504 7514
3  11400 7718 11824
3  11996 11995 11398
3  11935 11936 11506
3  11508 11506 7517
3  11508 11510 11934
3  11397 7719 11400
3  11997 11996 11395
3  11510 11508 7520
3  11394 7720 11397
3  11998 11997 11392
3  11999 7721 10988
3  11933 11934 11510
3  11511 11510 11391
3  11511 11512 11931
3  11999 10988 11394
3  12000 11998 11389
3  12001 7726 7721
3  11512 11511 11388
3  11512 11513 11929
3  12001 7721 11999
3  12002 12000 11386
3  11513 11512 11384
3  11385 7726 12001
3  12003 12002 11382
3  11928 11929 11513
3  11516 11513 11380
3  11516 11518 11927
3  11381 7729 11385
3  12004 12003 11378
3  11518 11516 7528
3  11377 7731 11381
3  12005 12004 11375
3  11926 11927 11518
3  11519 11518 11373
3  11519 11522 11925
3  11374 7733 11377
3  12006 12005 11371
3  11522 11519 11369
3  11370 7736 11374
3  12007 12006 11367
3  11924 11925 11522
3  11524 11522 11365
3  11524 11525 11923
3  11366 7738 11370
3  12008 12007 11363
3  11525 11524 11361
3  11525 11526 11921
3  11362 7741 11366
3  12009 12008 11359
3  12010 10962 7743
3  11526 11525 11358
3  12010 7743 11362
3  12011 12009 11356
3  12012 7745 10962
3  11920 11921 11526
3  11529 11526 11355
3  12012 10962 12010
3  12013 12011 11353
3  12014 7747 7748
3  11919 11920 11529
3  11531 11529 7535
3  12015 12016 12014
3  7538 12017 11701
3  7538 11701 7539
3  10961 7745 12012
3  12016 12013 11351
3  11918 11919 11531
3  11533 11531 7541
3  11533 11535 11917
3  11535 11533 7542
3  11823 6665 11701
3  12018 12017 11348
3  12019 7755 7753
3  11916 11917 11535
3  11536 11535 11347
3  11536 11537 11914
3  12019 7753 11823
3  12020 12018 11345
3  11537 11536 11343
3  11344 7755 12019
3  12021 12020 11341
3  11912 11914 11537
3  11538 11537 11339
3  11538 11541 11911
3  11340 7758 11344
3  12022 12021 11337
3  11541 11538 7549
3  11336 7761 11340
3  12023 12022 11334
3  11910 11911 11541
3  11542 11541 11332
3  11542 11545 11909
3  11333 7764 11336
3  12024 12023 11330
3  11545 11542 11328
3  11329 7767 11333
3  12025 12024 11326
3  11908 11909 11545
3  11547 11545 11324
3  11547 11548 11907
3  11325 7769 11329
3  12026 12025 11322
3  11548 11547 11320
3  11548 11549 11905
3  11321 7771 11325
3  12027 12026 11318
3  12028 10926 7773
3  11549 11548 11317
3  11549 11552 11904
3  12028 7773 11321
3  12029 12027 11315
3  12030 7775 10926
3  11552 11549 11314
3  11552 11554 11903
3  12030 10926 12028
3  12031 12029 11312
3  11554 11552 11310
3  11554 11556 11902
3  11311 7775 12030
3  12032 12031 11308
3  11556 11554 11306
3  11307 7777 11311
3  12033 12032 11304
3  11901 11902 11556
3  11558 11556 11302
3  11303 7779 11307
3  12034 12033 11300
3  12035 7781 10916
3  11900 11901 11558
3  11560 11558 7563
3  12035 10916 11303
3  12036 12034 11298
3  12037 7785 7781
3  11899 11900 11560
3  11562 11560 7564
3  11562 11564 11898
3  12037 7781 12035
3  12038 12036 11296
3  12039 10910 10909
3  11564 11562 7568
3  6632 12040 11293
3  6632 11293 6633
3  11295 7785 12037
3  12041 12038 11292
3  11295 6634 7785
3  11295 12042 6632
3  11897 11898 11564
3  11565 11564 11291
3  11896 11897 11565
3  11568 11565 11289
3  11568 11569 11895
3  11703 7569 11293
3  12043 12040 11287
3  11569 11568 11285
3  11286 7789 11703
3  12044 12043 11283
3  11894 11895 11569
3  11572 11569 11281
3  11572 11573 11893
3  11282 7791 11286
3  12045 12044 11279
3  11573 11572 11277
3  11573 11574 11891
3  11278 7793 11282
3  12046 12045 11275
3  12047 10888 7795
3  11574 11573 11274
3  11574 11577 11890
3  12047 7795 11278
3  12048 12046 11272
3  12049 7797 10888
3  11577 11574 11271
3  11577 11579 11889
3  12049 10888 12047
3  12050 12048 11269
3  11579 11577 11267
3  11579 11581 11888
3  11268 7797 12049
3  12051 12050 11265
3  11581 11579 11263
3  11581 11583 11887
3  11264 7799 11268
3  12052 12051 11261
3  11583 11581 11259
3  11260 7801 11264
3  12053 12052 11257
3  12054 7804 10878
3  11886 11887 11583
3  11585 11583 11256
3  12054 10878 11260
3  12055 12053 11254
3  12056 7806 7804
3  11885 11886 11585
3  11587 11585 7583
3  12056 7804 12054
3  12057 12055 11252
3  11884 11885 11587
3  11589 11587 7586
3  11589 11591 11883
3  11251 7806 12056
3  12058 12057 11249
3  11591 11589 7588
3  11248 7808 11251
3  12059 12058 11246
3  11882 11883 11591
3  11592 11591 11244
3  11245 7809 11248
3  12060 12059 11242
3  11881 11882 11592
3  11595 11592 11240
3  11595 11596 11880
3  11241 7812 11245
3  12061 12060 11238
3  12062 10863 10860
3  11596 11595 11236
3  7592 12063 11234
3  7592 11234 7590
3  11237 7814 11241
3  12064 12061 11233
3  11237 7593 7814
3  11237 12065 7592
3  11879 11880 11596
3  11599 11596 11232
3  11599 11600 11878
3  11600 11599 11230
3  11600 11601 11876
3  11822 7591 11234
3  12066 12063 11228
3  12067 7819 10851
3  11601 11600 11227
3  11601 11604 11875
3  12067 10851 11822
3  12068 12066 11225
3  11604 11601 11223
3  11604 11606 11874
3  11224 7819 12067
3  12069 12068 11221
3  11606 11604 11219
3  11606 11608 11873
3  11220 7821 11224
3  12070 12069 11217
3  11608 11606 11215
3  11608 11610 11872
3  11216 7823 11220
3  12071 12070 11213
3  12072 7826 10843
3  11610 11608 11212
3  12072 10843 11216
3  12073 12071 11210
3  12074 7828 7826
3  11871 11872 11610
3  11612 11610 11209
3  12074 7826 12072
3  12075 12073 11207
3  11870 11871 11612
3  11614 11612 7605
3  11206 7828 12074
3  12076 12075 11204
3  11869 11870 11614
3  11616 11614 7607
3  11616 11618 11868
3  11203 7830 11206
3  12077 12076 11201
3  11618 11616 7609
3  11200 7835 11203
3  12078 12077 11198
3  11867 11868 11618
3  11619 11618 11196
3  11197 7836 11200
3  12079 12078 11194
3  11866 11867 11619
3  11622 11619 11192
3  11622 11623 11865
3  11193 7838 11197
3  12080 12079 11190
3  11623 11622 11188
3  11189 7840 11193
3  12081 12080 11186
3  11864 11865 11623
3  11626 11623 11184
3  11626 11627 11863
3  11185 7842 11189
3  12082 12081 11181
3  12083 10817 7844
3  11627 11626 11180
3  11627 11628 11861
3  11706 6560 10817
3  11706 12084 11707
3  12083 7844 11185
3  12085 12082 11177
3  12083 11706 10817
3  12083 12086 11706
3  11628 11627 11176
3  11628 11631 11860
3  11631 11628 11174
3  11631 11633 11859
3  11178 6561 11707
3  12087 12084 11172
3  11633 11631 11170
3  11633 11635 11858
3  11171 7849 11178
3  12088 12087 11168
3  12089 7851 10805
3  11635 11633 11167
3  11635 11637 11857
3  12089 10805 11171
3  12090 12088 11165
3  12091 7856 7851
3  11637 11635 11164
3  12091 7851 12089
3  12092 12090 11162
3  11856 11857 11637
3  11639 11637 11160
3  11161 7856 12091
3  12093 12092 11158
3  11855 11856 11639
3  11641 11639 7623
3  11157 7858 11161
3  12094 12093 11155
3  11854 11855 11641
3  11643 11641 7625
3  11643 11645 11853
3  11154 7860 11157
3  12095 12094 11152
3  11645 11643 7627
3  11151 7865 11154
3  12096 12095 11149
3  11852 11853 11645
3  11646 11645 11147
3  11148 7866 11151
3  12097 12096 11145
3  11851 11852 11646
3  11649 11646 11143
3  11649 11650 11850
3  11144 7868 11148
3  12098 12097 11141
3  11650 11649 11139
3  11140 7870 11144
3  12099 12098 11137
3  12100 10779 7872
3  11849 11850 11650
3  11653 11650 11136
3  11653 11654 11848
3  12100 7872 11140
3  12101 12099 11134
3  12102 7874 10779
3  11654 11653 11133
3  11654 11655 11846
3  12102 10779 12100
3  12103 12101 11131
3  11655 11654 11129
3  11655 11658 11845
3  11130 7874 12102
3  12104 12103 11127
3  11658 11655 11125
3  11658 11660 11844
3  11126 7876 11130
3  12105 12104 11123
3  12106 10772 7881
3  11660 11658 11122
3  11660 11662 11843
3  10776 7636 10771
3  12107 12108 12106
3  10776 12109 11120
3  10775 7878 11126
3  12108 12105 11119
3  11662 11660 11118
3  11662 11664 11842
3  11664 11662 11116
3  11708 6518 11120
3  12110 12109 11114
3  11841 11842 11664
3  11666 11664 11112
3  11113 7886 11708
3  12111 12110 11110
3  11840 11841 11666
3  11668 11666 7641
3  11109 7887 11113
3  12112 12111 11107
3  11839 11840 11668
3  11670 11668 7643
3  11670 11672 11838
3  11106 7888 11109
3  12113 12112 11104
3  11672 11670 7645
3  11103 7893 11106
3  12114 12113 11101
3  11837 11838 11672
3  11673 11672 11099
3  11100 7894 11103
3  12115 12114 11097
3  11836 11837 11673
3  11676 11673 11095
3  11676 11677 11835
3  11096 7896 11100
3  12116 12115 11093
3  11677 11676 11091
3  11092 7898 11096
3  12117 12116 11089
3  12118 10740 7900
3  11834 11835 11677
3  11680 11677 11088
3  11680 11681 11833
3  12118 7900 11092
3  12119 12117 11086
3  12120 7901 10740
3  11681 11680 11085
3  11681 11682 11831
3  12120 10740 12118
3  12121 12119 11083
3  11682 11681 11081
3  11682 11685 11830
3  11082 7901 12120
3  12122 12121 11079
3  12123 7905 7903
3  11685 11682 11078
3  11685 11687 11829
3  12123 7903 11082
3  12124 12122 11076
3  11687 11685 11074
3  11687 11689 11828
3  11075 7905 12123
3  12125 12124 11072
3  12126 7912 7908
3  11689 11687 11071
3  11689 11691 11827
3  12126 7908 11075
3  12127 12125 11069
3  12128 10729 10726
3  11691 11689 11067
3  6491 12129 11065
3  6491 11065 6492
3  11068 7912 12126
3  12130 12127 11064
3  11068 6493 7912
3  11068 12131 6491
3  11826 11827 11691
3  11693 11691 11063
3  11825 11826 11693
3  11472 11693 7476
3  11709 7660 11065
3  12132 12129 11061
3  11960 11695 11696
3  11471 11472 7478
3  11471 11469 11962
3  11060 7915 11709
3  12133 12132 11059
3  11469 11471 7480
3  11469 11468 11963
3  11058 7920 11060
3  12134 12133 11057
3  11468 11469 7484
3  11056 7921 11058
3  12135 12134 11055
3  11965 11964 11470
3  11466 11468 11053
3  11466 11464 11966
3  11054 7923 11056
3  12136 12135 11052
3  12137 10706 7925
3  11464 11466 11051
3  12137 7925 11054
3  12138 12136 11049
3  12139 7927 10706
3  11969 11050 11467
3  11967 11464 11048
3  11967 11698 11968
3  12139 10706 12137
3  12140 12138 11047
3  11698 11967 11045
3  11698 11462 11970
3  11046 7927 12139
3  12141 12140 11044
3  12142 7931 7929
3  11462 11698 11043
3  11462 11458 11971
3  12142 7929 11046
3  12143 12141 11042
3  11458 11462 11040
3  11458 11454 11972
3  11041 7931 12142
3  12144 12143 11039
3  12145 7937 7934
3  11454 11458 11038
3  11454 11450 11973
3  12145 7934 11041
3  12146 12144 11037
3  11450 11454 11035
3  11450 11447 11974
3  11036 7937 12145
3  12147 12146 11034
3  11447 11450 11032
3  11033 7939 11036
3  12148 12147 11031
3  11976 11975 11453
3  11445 11447 11029
3  11030 7941 11033
3  12149 12148 11028
3  12150 10685 10682
3  11978 11977 11975
3  11442 11445 7497
3  7690 12151 11025
3  7690 11025 7688
3  11027 7942 11030
3  12152 12149 11024
3  11027 7691 7942
3  11027 12153 7690
3  11979 11444 11977
3  11440 11442 7500
3  11440 11436 11981
3  11436 11440 7502
3  11436 11433 11982
3  11711 7689 11025
3  12154 12151 11023
3  12155 10672 7947
3  11433 11436 7504
3  12155 7947 11711
3  12156 12154 11022
3  12157 7949 10672
3  11984 11983 11439
3  11429 11433 11021
3  11429 11425 11985
3  12157 10672 12155
3  12158 12156 11020
3  11425 11429 11018
3  11019 7949 12157
3  12159 12158 11017
3  11986 11428 11432
3  11422 11425 11015
3  11422 11418 11987
3  11016 7952 11019
3  12160 12159 11014
3  12161 7960 7955
3  11418 11422 11013
3  11418 11414 11988
3  12161 7955 11016
3  12162 12160 11012
3  12163 10661 7960
3  11414 11418 11011
3  11414 11410 11989
3  12163 7960 12161
3  12164 12162 11010
3  12165 7962 10661
3  11410 11414 11009
3  11410 11406 11990
3  12165 10661 12163
3  12166 12164 11008
3  12167 7965 7962
3  11406 11410 11007
3  11406 11991 11993
3  12167 7962 12165
3  12168 12166 11006
3  11991 11406 11004
3  11991 11700 11994
3  11005 7965 12167
3  12169 12168 11003
3  11700 11991 11001
3  11002 7967 11005
3  12170 12169 11000
3  11992 11994 11700
3  11401 11700 10998
3  10999 7969 11002
3  12171 12170 10997
3  11995 11824 11699
3  11398 11401 7516
3  10996 7970 10999
3  12172 12171 10994
3  11996 11400 11824
3  11395 11398 7519
3  11395 11392 11997
3  10993 7972 10996
3  12173 12172 10992
3  12174 10639 10637
3  11392 11395 7522
3  11392 11389 11998
3  10642 10636 10638
3  12175 12176 12174
3  10642 12177 11713
3  10641 7976 10993
3  12176 12173 10990
3  11389 11392 10989
3  12000 11999 11394
3  11386 11389 7525
3  10991 7979 11713
3  12178 12177 10987
3  12002 12001 11999
3  11382 11386 10985
3  11382 11378 12003
3  10986 7981 10991
3  12179 12178 10984
3  12180 7987 7984
3  11378 11382 10983
3  12180 7984 10986
3  12181 12179 10982
3  12182 10621 7987
3  12004 11381 11385
3  11375 11378 10981
3  11375 11371 12005
3  12182 7987 12180
3  12183 12181 10980
3  12184 7989 10621
3  11371 11375 10979
3  11371 11367 12006
3  12184 10621 12182
3  12185 12183 10978
3  11367 11371 10976
3  11367 11363 12007
3  10977 7989 12184
3  12186 12185 10975
3  12187 7992 10615
3  11363 11367 10974
3  11363 11359 12008
3  12187 10615 10977
3  12188 12186 10973
3  11359 11363 10971
3  11359 11356 12009
3  10972 7992 12187
3  12189 12188 10970
3  11356 11359 10968
3  10969 7995 10972
3  12190 12189 10967
3  12011 12010 11362
3  11353 11356 10965
3  10966 7996 10969
3  12191 12190 10964
3  12013 12012 12010
3  11351 11353 7537
3  10963 7997 10966
3  12192 12191 10960
3  12016 10961 12012
3  12014 11351 7747
3  12014 11702 12015
3  10959 8001 10963
3  12193 12192 10958
3  11702 12014 7748
3  11702 11348 12017
3  10957 8002 10959
3  12194 12193 10956
3  12195 10598 10595
3  11348 11702 10954
3  7751 12196 10953
3  7751 10953 7749
3  10955 8005 10957
3  12197 12194 10952
3  10955 7752 8005
3  10955 12198 7751
3  12018 11823 11701
3  11345 11348 7546
3  12020 12019 11823
3  11341 11345 10951
3  11341 11337 12021
3  11714 7750 10953
3  12199 12196 10950
3  11337 11341 10948
3  10949 8010 11714
3  12200 12199 10947
3  12201 8014 8012
3  12022 11340 11344
3  11334 11337 10946
3  11334 11330 12023
3  12201 8012 10949
3  12202 12200 10945
3  12203 8016 8014
3  11330 11334 10944
3  11330 11326 12024
3  12203 8014 12201
3  12204 12202 10943
3  11326 11330 10941
3  11326 11322 12025
3  10942 8016 12203
3  12205 12204 10940
3  11322 11326 10938
3  11322 11318 12026
3  10939 8019 10942
3  12206 12205 10937
3  11318 11322 10935
3  11318 11315 12027
3  10936 8021 10939
3  12207 12206 10934
3  11315 11318 10932
3  10933 8024 10936
3  12208 12207 10931
3  12029 12028 11321
3  11312 11315 10929
3  10930 8026 10933
3  12209 12208 10928
3  12031 12030 12028
3  11308 11312 7558
3  10927 8029 10930
3  12210 12209 10925
3  12032 11311 12030
3  11304 11308 7560
3  11304 11300 12033
3  10924 8030 10927
3  12211 12210 10923
3  11300 11304 7562
3  11300 11298 12034
3  10922 8033 10924
3  12212 12211 10921
3  11298 11300 10919
3  10920 8036 10922
3  12213 12212 10918
3  12036 12035 11303
3  11296 11298 7566
3  10917 8038 10920
3  12214 12213 10914
3  12215 10553 8040
3  12038 12037 12035
3  11292 11296 10913
3  11292 12039 12041
3  11716 7783 10553
3  11716 12216 11717
3  12215 8040 10917
3  12217 12214 10911
3  12215 11716 10553
3  12215 12218 11716
3  12039 11292 10910
3  12042 12041 12039
3  11704 12039 10909
3  11704 11287 12040
3  10912 7784 11717
3  12219 12216 10908
3  11287 11704 10906
3  11287 11283 12043
3  10907 8045 10912
3  12220 12219 10905
3  11283 11287 10903
3  11283 11279 12044
3  10904 8047 10907
3  12221 12220 10902
3  11279 11283 10900
3  11279 11275 12045
3  10901 8049 10904
3  12222 12221 10899
3  11275 11279 10897
3  11275 11272 12046
3  10898 8050 10901
3  12223 12222 10896
3  11272 11275 10894
3  10895 8051 10898
3  12224 12223 10893
3  12048 12047 11278
3  11269 11272 10891
3  10892 8055 10895
3  12225 12224 10890
3  12050 12049 12047
3  11265 11269 7577
3  10889 8059 10892
3  12226 12225 10887
3  12051 11268 12049
3  11261 11265 7579
3  11261 11257 12052
3  10886 8060 10889
3  12227 12226 10885
3  11257 11261 7581
3  11257 11254 12053
3  10884 8062 10886
3  12228 12227 10883
3  11254 11257 10881
3  10882 8064 10884
3  12229 12228 10880
3  12055 12054 11260
3  11252 11254 7585
3  10879 8066 10882
3  12230 12229 10877
3  12057 12056 12054
3  11249 11252 10875
3  11249 11246 12058
3  10876 10510 10879
3  12231 12230 10874
3  12232 8070 8072
3  11246 11249 10873
3  10509 10502 10505
3  12233 12234 12232
3  10509 12235 11718
3  10508 8068 10876
3  12234 12231 10871
3  12059 11248 11251
3  11242 11246 10870
3  11242 11238 12060
3  11238 11242 10869
3  11238 11233 12061
3  10872 8074 11718
3  12236 12235 10868
3  11233 11238 10866
3  11233 12062 12064
3  10867 8077 10872
3  12237 12236 10865
3  12062 11233 10863
3  12062 11705 12065
3  10864 8079 10867
3  12238 12237 10862
3  11705 12062 10860
3  11705 11228 12063
3  10861 8080 10864
3  12239 12238 10859
3  11228 11705 10857
3  10858 8081 10861
3  12240 12239 10856
3  12066 11822 11234
3  11225 11228 10854
3  10855 8087 10858
3  12241 12240 10853
3  12068 12067 11822
3  11221 11225 7597
3  10852 8088 10855
3  12242 12241 10850
3  12069 11224 12067
3  11217 11221 7599
3  11217 11213 12070
3  10849 8090 10852
3  12243 12242 10848
3  11213 11217 7601
3  11213 11210 12071
3  10847 8092 10849
3  12244 12243 10846
3  12245 8096 8094
3  11210 11213 10845
3  12245 8094 10847
3  12246 12244 10844
3  12247 10468 8096
3  12073 12072 11216
3  11207 11210 7604
3  12247 8096 12245
3  12248 12246 10842
3  12075 12074 12072
3  11204 11207 10840
3  11204 11201 12076
3  10841 10468 12247
3  12249 12248 10839
3  11201 11204 10837
3  10838 8098 10841
3  12250 12249 10836
3  12251 10462 10459
3  12077 11203 11206
3  11198 11201 10834
3  11198 11194 12078
3  7833 12252 10833
3  7833 10833 7831
3  10835 8101 10838
3  12253 12250 10832
3  10835 7834 8101
3  10835 12254 7833
3  11194 11198 10831
3  11194 11190 12079
3  11190 11194 10830
3  11190 11186 12080
3  11719 7832 10833
3  12255 12252 10829
3  11186 11190 10827
3  11186 11181 12081
3  10828 8108 11719
3  12256 12255 10826
3  11181 11186 10824
3  11181 11177 12082
3  10825 8111 10828
3  12257 12256 10823
3  11177 11181 10821
3  10822 8112 10825
3  12258 12257 10820
3  12085 12083 11185
3  11182 11177 10818
3  10819 8114 10822
3  12259 12258 10816
3  12086 12085 11182
3  11821 11182 7846
3  10815 8116 10819
3  12260 12259 10814
3  12084 12086 11821
3  11172 11821 7616
3  11172 11168 12087
3  10813 8118 10815
3  12261 12260 10812
3  11168 11172 7618
3  11168 11165 12088
3  10811 8120 10813
3  12262 12261 10810
3  11165 11168 10808
3  10809 10432 10811
3  12263 12262 10807
3  12090 12089 11171
3  11162 11165 7621
3  10806 8122 10809
3  12264 12263 10804
3  12265 8126 8124
3  12092 12091 12089
3  11158 11162 10803
3  11158 11155 12093
3  12265 8124 10806
3  12266 12264 10802
3  12267 8128 8126
3  11155 11158 10801
3  12267 8126 12265
3  12268 12266 10800
3  12094 11157 11161
3  11152 11155 10798
3  11152 11149 12095
3  10799 8128 12267
3  12269 12268 10797
3  12270 10422 10419
3  11149 11152 10795
3  11149 11145 12096
3  7863 12271 10794
3  7863 10794 7861
3  10796 8131 10799
3  12272 12269 10793
3  10796 7864 8131
3  10796 12273 7863
3  11145 11149 10792
3  11145 11141 12097
3  11141 11145 10791
3  11141 11137 12098
3  11721 7862 10794
3  12274 12271 10790
3  11137 11141 10788
3  11137 11134 12099
3  10789 8137 11721
3  12275 12274 10787
3  11134 11137 10785
3  10786 8139 10789
3  12276 12275 10784
3  12101 12100 11140
3  11131 11134 10782
3  10783 8141 10786
3  12277 12276 10781
3  12103 12102 12100
3  11127 11131 7634
3  10780 8143 10783
3  12278 12277 10778
3  12279 8147 8145
3  12104 11130 12102
3  11123 11127 7635
3  11123 11119 12105
3  12279 8145 10780
3  12280 12278 10777
3  12281 10394 8147
3  11119 11123 7637
3  11119 12106 12108
3  12281 8147 12279
3  12282 12280 10774
3  12106 11119 10772
3  10773 10394 12281
3  12283 12282 10770
3  12107 10776 10775
3  11820 12106 7881
3  10769 8149 10773
3  12284 12283 10768
3  12109 12107 11820
3  11114 11820 10766
3  11114 11110 12110
3  10767 8153 10769
3  12285 12284 10765
3  11110 11114 10763
3  10764 8156 10767
3  12286 12285 10762
3  12111 11113 11708
3  11107 11110 10760
3  11107 11104 12112
3  10761 8158 10764
3  12287 12286 10759
3  11104 11107 10757
3  11104 11101 12113
3  10758 8160 10761
3  12288 12287 10756
3  12289 10378 10375
3  11101 11104 10754
3  11101 11097 12114
3  7891 12290 10753
3  7891 10753 7889
3  10755 8162 10758
3  12291 12288 10752
3  10755 7892 8162
3  10755 12292 7891
3  11097 11101 10751
3  11097 11093 12115
3  11093 11097 10750
3  11093 11089 12116
3  11723 7890 10753
3  12293 12290 10749
3  11089 11093 10747
3  11089 11086 12117
3  10748 8169 11723
3  12294 12293 10746
3  11086 11089 10744
3  10745 8171 10748
3  12295 12294 10743
3  12296 8175 8173
3  12119 12118 11092
3  11083 11086 10742
3  12296 8173 10745
3  12297 12295 10741
3  12298 10356 8175
3  12121 12120 12118
3  11079 11083 7653
3  12298 8175 12296
3  12299 12297 10739
3  12122 11082 12120
3  11076 11079 7655
3  11076 11072 12124
3  10738 10356 12298
3  12300 12299 10737
3  11072 11076 7656
3  11072 11069 12125
3  10736 8177 10738
3  12301 12300 10735
3  12302 8182 8179
3  11069 11072 7658
3  12302 8179 10736
3  12303 12301 10734
3  12127 12126 11075
3  11064 11069 10732
3  11064 12128 12130
3  10733 8182 12302
3  12304 12303 10731
3  12128 11064 10729
3  10730 8184 10733
3  12305 12304 10728
3  12131 12130 12128
3  11710 12128 10726
3  11710 11061 12129
3  10727 8186 10730
3  12306 12305 10725
3  11061 11710 10723
3  11061 11059 12132
3  10724 8187 10727
3  12307 12306 10722
3  11059 11061 10720
3  11059 11057 12133
3  10721 8192 10724
3  12308 12307 10719
3  12309 10337 10334
3  11057 11059 10717
3  11057 11055 12134
3  7918 12310 10716
3  7918 10716 7916
3  10718 8193 10721
3  12311 12308 10715
3  10718 7919 8193
3  10718 12312 7918
3  11055 11057 10714
3  11055 11052 12135
3  11052 11055 10713
3  11052 11049 12136
3  11725 7917 10716
3  12313 12310 10712
3  11049 11052 10710
3  10711 8198 11725
3  12314 12313 10709
3  12315 8201 8199
3  12138 12137 11054
3  11047 11049 10708
3  12315 8199 10711
3  12316 12314 10707
3  12317 10317 8201
3  12140 12139 12137
3  11044 11047 7675
3  12317 8201 12315
3  12318 12316 10705
3  12141 11046 12139
3  11042 11044 7677
3  11042 11039 12143
3  10704 10317 12317
3  12319 12318 10703
3  11039 11042 7679
3  11039 11037 12144
3  10702 8204 10704
3  12320 12319 10701
3  11037 11039 7682
3  10700 8209 10702
3  12321 12320 10699
3  12146 12145 11041
3  11034 11037 10697
3  11034 11031 12147
3  10698 8211 10700
3  12322 12321 10696
3  11031 11034 10694
3  10695 8212 10698
3  12323 12322 10693
3  12148 11033 11036
3  11028 11031 10691
3  11028 11024 12149
3  10692 8217 10695
3  12324 12323 10690
3  11024 11028 10688
3  11024 12150 12152
3  10689 8218 10692
3  12325 12324 10687
3  12150 11024 10685
3  12150 11712 12153
3  10686 8220 10689
3  12326 12325 10684
3  12327 10296 10293
3  11712 12150 10682
3  11712 11023 12151
3  7945 12328 10681
3  7945 10681 7943
3  10683 8222 10686
3  12329 12326 10680
3  10683 7946 8222
3  10683 12330 7945
3  11023 11712 10679
3  11023 11022 12154
3  11022 11023 10678
3  11727 7944 10681
3  12331 12328 10677
3  12156 12155 11711
3  11020 11022 10675
3  10676 10286 11727
3  12332 12331 10674
3  12158 12157 12155
3  11017 11020 7700
3  10673 8227 10676
3  12333 12332 10671
3  12334 8231 8229
3  12159 11019 12157
3  11014 11017 7703
3  11014 11012 12160
3  12334 8229 10673
3  12335 12333 10670
3  12336 8234 8231
3  11012 11014 7706
3  12336 8231 12334
3  12337 12335 10669
3  12162 12161 11016
3  11010 11012 10667
3  11010 11008 12164
3  10668 8234 12336
3  12338 12337 10666
3  11008 11010 10664
3  11008 11006 12166
3  10665 8236 10668
3  12339 12338 10663
3  11006 11008 7713
3  10662 8237 10665
3  12340 12339 10660
3  12168 12167 12165
3  11003 11006 10658
3  11003 11000 12169
3  10659 8242 10662
3  12341 12340 10657
3  11000 11003 10655
3  10656 8243 10659
3  12342 12341 10654
3  12170 11002 11005
3  10997 11000 10652
3  10997 10994 12171
3  10653 8245 10656
3  12343 12342 10651
3  10994 10997 10649
3  10994 10992 12172
3  10650 8247 10653
3  12344 12343 10648
3  10992 10994 10646
3  10992 10990 12173
3  10647 8249 10650
3  12345 12344 10645
3  12346 10255 10252
3  10990 10992 10643
3  10990 12174 12176
3  7974 12347 11729
3  7974 11729 6139
3  10644 8250 10647
3  12348 12345 10640
3  10644 7975 8250
3  10644 12349 7974
3  12174 10990 10639
3  12175 10642 10641
3  11819 12174 10637
3  11816 6132 11729
3  12350 12347 10635
3  12177 12175 11819
3  10987 11819 7723
3  10634 10245 11816
3  12351 12350 10633
3  12178 10991 11713
3  10984 10987 7725
3  10984 10982 12179
3  10632 8258 10634
3  12352 12351 10631
3  10982 10984 7728
3  10630 8261 10632
3  12353 12352 10629
3  12181 12180 10986
3  10980 10982 10627
3  10980 10978 12183
3  10628 8262 10630
3  12354 12353 10626
3  10978 10980 10624
3  10978 10975 12185
3  10625 8267 10628
3  12355 12354 10623
3  10975 10978 7735
3  10975 10973 12186
3  10622 8268 10625
3  12356 12355 10620
3  10973 10975 10618
3  10973 10970 12188
3  10619 8270 10622
3  12357 12356 10617
3  10970 10973 7740
3  10970 10967 12189
3  10616 8271 10619
3  12358 12357 10614
3  10967 10970 10612
3  10967 10964 12190
3  10613 8273 10616
3  12359 12358 10611
3  10964 10967 10609
3  10964 10960 12191
3  10610 8275 10613
3  12360 12359 10608
3  10960 10964 10606
3  10960 10958 12192
3  10607 8277 10610
3  12361 12360 10605
3  12362 8280 8283
3  10958 10960 10604
3  10958 10956 12193
3  7998 12363 11731
3  7998 11731 7999
3  12364 12361 10603
3  10218 10216 10607
3  10218 12365 7998
3  10956 10958 10602
3  10956 10952 12194
3  10952 10956 10601
3  10952 12195 12197
3  11815 8285 11731
3  12366 12363 10600
3  12195 10952 10598
3  12195 11715 12198
3  10599 8287 11815
3  12367 12366 10597
3  11715 12195 10595
3  11715 10950 12196
3  10596 8288 10599
3  12368 12367 10594
3  10950 11715 10592
3  10950 10947 12199
3  10593 8293 10596
3  12369 12368 10591
3  10947 10950 7757
3  10590 8294 10593
3  12370 12369 10589
3  12200 10949 11714
3  10945 10947 7760
3  10588 8296 10590
3  12371 12370 10587
3  12202 12201 10949
3  10943 10945 7763
3  10943 10940 12204
3  10586 8298 10588
3  12372 12371 10585
3  10940 10943 7766
3  10584 8300 10586
3  12373 12372 10583
3  12205 10942 12203
3  10937 10940 10581
3  10937 10934 12206
3  10582 8302 10584
3  12374 12373 10580
3  10934 10937 10578
3  10934 10931 12207
3  10579 8303 10582
3  12375 12374 10577
3  12376 10180 8305
3  10931 10934 10576
3  10931 10928 12208
3  12376 8305 10579
3  12377 12375 10575
3  10928 10931 10573
3  10928 10925 12209
3  10574 10180 12376
3  12378 12377 10571
3  10178 8023 8308
3  10925 10928 10570
3  10925 10923 12210
3  8022 12379 10569
3  8022 10569 6077
3  10178 8308 10574
3  10178 8022 8023
3  12380 12378 10568
3  10923 10925 10567
3  10923 10921 12211
3  10921 10923 10566
3  10921 10918 12212
3  11733 6078 10569
3  12381 12379 10565
3  10918 10921 10563
3  10918 10914 12213
3  10564 8315 11733
3  12382 12381 10562
3  10914 10918 10560
3  10561 8320 10564
3  12383 12382 10559
3  12214 10917 10920
3  10911 10914 10557
3  10911 10915 12217
3  10558 8322 10561
3  12384 12383 10556
3  10915 10911 10554
3  10915 11818 12218
3  10555 8324 10558
3  12385 12384 10552
3  11818 10915 10550
3  10551 8326 10555
3  12386 12385 10549
3  12216 12218 11818
3  10908 11818 10547
3  10908 10905 12219
3  10548 8328 10551
3  12387 12386 10546
3  10905 10908 10544
3  10905 10902 12220
3  10545 8330 10548
3  12388 12387 10543
3  10902 10905 10541
3  10902 10899 12221
3  10542 8332 10545
3  12389 12388 10540
3  10899 10902 10538
3  10899 10896 12222
3  10539 8334 10542
3  12390 12389 10537
3  10896 10899 10535
3  10896 10893 12223
3  10536 8337 10539
3  12391 12390 10534
3  10893 10896 10532
3  10893 10890 12224
3  10533 10141 10536
3  12392 12391 10531
3  10890 10893 10529
3  10890 10887 12225
3  10530 8339 10533
3  12393 12392 10527
3  12394 10136 8341
3  10887 10890 10526
3  10887 10885 12226
3  11735 8056 10136
3  11735 12395 11736
3  12394 8341 10530
3  12396 12393 10524
3  12394 11735 10136
3  12394 12397 11735
3  10885 10887 10523
3  10885 10883 12227
3  10883 10885 10522
3  10883 10880 12228
3  10525 8057 11736
3  12398 12395 10521
3  10880 10883 10519
3  10880 10877 12229
3  10520 8349 10525
3  12399 12398 10518
3  10877 10880 10516
3  10877 10874 12230
3  10517 8351 10520
3  12400 12399 10515
3  10874 10877 10513
3  10874 10871 12231
3  10514 8353 10517
3  12401 12400 10512
3  10871 10874 7807
3  10511 8354 10514
3  12402 12401 10507
3  12234 10508 10876
3  12232 10871 8070
3  10506 8356 10511
3  12403 12402 10504
3  12233 10509 10508
3  11817 12232 8072
3  11817 10868 12235
3  10503 8359 10506
3  12404 12403 10501
3  10868 11817 7811
3  10500 8362 10503
3  12405 12404 10499
3  12236 10872 11718
3  10865 10868 10497
3  10865 10862 12237
3  10498 8365 10500
3  12406 12405 10496
3  12407 8369 8368
3  10862 10865 10495
3  10862 10859 12238
3  12407 8368 10498
3  12408 12406 10494
3  12409 10099 8369
3  10859 10862 10493
3  10859 10856 12239
3  12409 8369 12407
3  12410 12408 10492
3  10856 10859 10490
3  10856 10853 12240
3  10491 10099 12409
3  12411 12410 10489
3  12412 10096 10095
3  10853 10856 10487
3  10853 10850 12241
3  8085 12413 10486
3  8085 10486 8082
3  10488 8370 10491
3  12414 12411 10485
3  10488 8086 8370
3  10488 12415 8085
3  10850 10853 10484
3  10850 10848 12242
3  10848 10850 10483
3  10848 10846 12243
3  11737 8083 10486
3  12416 12413 10482
3  10846 10848 10480
3  10481 8378 11737
3  12417 12416 10479
3  12244 10847 10849
3  10844 10846 10477
3  10844 10842 12246
3  10478 8380 10481
3  12418 12417 10476
3  10842 10844 10474
3  10842 10839 12248
3  10475 8382 10478
3  12419 12418 10473
3  10839 10842 10471
3  10472 8384 10475
3  12420 12419 10470
3  12249 10841 12247
3  10836 10839 7829
3  10836 10832 12250
3  10469 8387 10472
3  12421 12420 10467
3  10832 10836 10465
3  10832 12251 12253
3  10466 8389 10469
3  12422 12421 10464
3  12251 10832 10462
3  12251 11720 12254
3  10463 8391 10466
3  12423 12422 10461
3  11720 12251 10459
3  11720 10829 12252
3  10460 10067 10463
3  12424 12423 10458
3  10829 11720 10456
3  10829 10826 12255
3  10457 8392 10460
3  12425 12424 10455
3  12426 8398 8393
3  10826 10829 10454
3  10826 10823 12256
3  12426 8393 10457
3  12427 12425 10452
3  10062 8105 8398
3  10823 10826 10451
3  10823 10820 12257
3  12428 12429 10453
3  8103 12430 10450
3  8103 10450 8104
3  10062 8398 12426
3  12429 12427 10449
3  10820 10823 10448
3  10820 10816 12258
3  10816 10820 10447
3  10816 10814 12259
3  11739 8109 10450
3  12431 12430 10446
3  10814 10816 10444
3  10814 10812 12260
3  10445 8403 11739
3  12432 12431 10443
3  10812 10814 10441
3  10812 10810 12261
3  10442 8405 10445
3  12433 12432 10440
3  10810 10812 10438
3  10810 10807 12262
3  10439 8408 10442
3  12434 12433 10437
3  10807 10810 10435
3  10807 10804 12263
3  10436 8411 10439
3  12435 12434 10434
3  10804 10807 7853
3  10433 8414 10436
3  12436 12435 10431
3  12264 10806 10809
3  10802 10804 7855
3  10430 8417 10433
3  12437 12436 10429
3  12266 12265 10806
3  10800 10802 7857
3  10800 10797 12268
3  10428 8418 10430
3  12438 12437 10427
3  12439 8424 8419
3  10797 10800 7859
3  12439 8419 10428
3  12440 12438 10426
3  12441 10027 8424
3  12269 10799 12267
3  10793 10797 10425
3  10793 12270 12272
3  12441 8424 12439
3  12442 12440 10424
3  12270 10793 10422
3  12270 11722 12273
3  10423 10027 12441
3  12443 12442 10421
3  11722 12270 10419
3  11722 10790 12271
3  10420 8425 10423
3  12444 12443 10418
3  12445 10021 10018
3  10790 11722 10416
3  10790 10787 12274
3  8135 12446 10415
3  8135 10415 8133
3  10417 8428 10420
3  12447 12444 10414
3  10417 8136 8428
3  10417 12448 8135
3  10787 10790 10413
3  10787 10784 12275
3  10784 10787 10412
3  10784 10781 12276
3  11741 8134 10415
3  12449 12446 10411
3  10781 10784 10409
3  10781 10778 12277
3  10410 8433 11741
3  12450 12449 10408
3  10778 10781 10406
3  10407 8435 10410
3  12451 12450 10405
3  12278 10780 10783
3  10777 10778 10403
3  10777 10774 12280
3  10404 8438 10407
3  12452 12451 10402
3  10774 10777 10400
3  10774 10770 12282
3  10401 8440 10404
3  12453 12452 10399
3  10770 10774 10397
3  10398 8441 10401
3  12454 12453 10396
3  12283 10773 12281
3  10768 10770 7883
3  10768 10765 12284
3  10395 9996 10398
3  12455 12454 10393
3  10765 10768 10391
3  10765 10762 12285
3  10392 8442 10395
3  12456 12455 10390
3  12457 9990 8447
3  10762 10765 10389
3  10762 10759 12286
3  12457 8447 10392
3  12458 12456 10388
3  10759 10762 10386
3  10759 10756 12287
3  10387 9990 12457
3  12459 12458 10385
3  12460 8451 8449
3  10756 10759 10384
3  10756 10752 12288
3  12460 8449 10387
3  12461 12459 10383
3  10752 10756 10381
3  10752 12289 12291
3  10382 8451 12460
3  12462 12461 10380
3  12463 9982 9979
3  12289 10752 10378
3  12289 11724 12292
3  8165 12464 10377
3  8165 10377 8163
3  10379 8453 10382
3  12465 12462 10376
3  10379 8166 8453
3  10379 12466 8165
3  11724 12289 10375
3  11724 10749 12290
3  10749 11724 10374
3  10749 10746 12293
3  11743 8164 10377
3  12467 12464 10373
3  10746 10749 10371
3  10746 10743 12294
3  10372 8461 11743
3  12468 12467 10370
3  10743 10746 10368
3  10743 10741 12295
3  10369 8463 10372
3  12469 12468 10367
3  10741 10743 10365
3  10366 8464 10369
3  12470 12469 10364
3  12297 12296 10745
3  10739 10741 10362
3  10363 8469 10366
3  12471 12470 10361
3  12299 12298 12296
3  10737 10739 10359
3  10737 10735 12300
3  10360 8470 10363
3  12472 12471 10358
3  10735 10737 7907
3  10735 10734 12301
3  10357 8472 10360
3  12473 12472 10355
3  12474 8476 8474
3  10734 10735 7910
3  12474 8474 10357
3  12475 12473 10354
3  12476 9950 8476
3  12303 12302 10736
3  10731 10734 10353
3  12476 8476 12474
3  12477 12475 10352
3  12304 10733 12302
3  10728 10731 10350
3  10728 10725 12305
3  10351 9950 12476
3  12478 12477 10349
3  10725 10728 10347
3  10725 10722 12306
3  10348 8478 10351
3  12479 12478 10346
3  10722 10725 10344
3  10722 10719 12307
3  10345 8481 10348
3  12480 12479 10343
3  12481 9943 9940
3  10719 10722 10341
3  10719 10715 12308
3  8190 12482 10340
3  8190 10340 8188
3  10342 8483 10345
3  12483 12480 10339
3  10342 8191 8483
3  10342 12484 8190
3  10715 10719 10338
3  10715 12309 12311
3  12309 10715 10337
3  12309 11726 12312
3  11745 8189 10340
3  12485 12482 10336
3  11726 12309 10334
3  11726 10712 12310
3  10335 8487 11745
3  12486 12485 10333
3  10712 11726 10331
3  10712 10709 12313
3  10332 8492 10335
3  12487 12486 10330
3  10709 10712 10328
3  10329 8493 10332
3  12488 12487 10327
3  12314 10711 11725
3  10707 10709 10325
3  10707 10705 12316
3  10326 8495 10329
3  12489 12488 10324
3  10705 10707 10322
3  10705 10703 12318
3  10323 9921 10326
3  12490 12489 10321
3  10703 10705 10319
3  10320 8497 10323
3  12491 12490 10318
3  12492 8501 8499
3  12319 10704 12317
3  10701 10703 7933
3  10701 10699 12320
3  12492 8499 10320
3  12493 12491 10316
3  12494 8503 8501
3  10699 10701 10315
3  10699 10696 12321
3  12494 8501 12492
3  12495 12493 10314
3  10696 10699 10312
3  10696 10693 12322
3  10313 8503 12494
3  12496 12495 10311
3  10693 10696 10309
3  10693 10690 12323
3  10310 8505 10313
3  12497 12496 10308
3  12498 9907 9905
3  10690 10693 10306
3  10690 10687 12324
3  8215 12499 10305
3  8215 10305 8213
3  10307 8508 10310
3  12500 12497 10304
3  10307 8216 8508
3  10307 12501 8215
3  10687 10690 10303
3  10687 10684 12325
3  10684 10687 10302
3  10684 10680 12326
3  11747 8214 10305
3  12502 12499 10301
3  10680 10684 10299
3  10680 12327 12329
3  10300 8517 11747
3  12503 12502 10298
3  12327 10680 10296
3  12327 11728 12330
3  10297 8518 10300
3  12504 12503 10295
3  11728 12327 10293
3  11728 10677 12328
3  10294 8520 10297
3  12505 12504 10292
3  10677 11728 10290
3  10677 10674 12331
3  10291 8522 10294
3  12506 12505 10289
3  12507 8526 8524
3  10674 10677 10288
3  10674 10671 12332
3  12507 8524 10291
3  12508 12506 10287
3  12509 9882 8526
3  10671 10674 7951
3  12509 8526 12507
3  12510 12508 10285
3  12333 10673 10676
3  10670 10671 7954
3  10284 9882 12509
3  12511 12510 10283
3  12335 12334 10673
3  10669 10670 7957
3  10669 10666 12337
3  10282 8528 10284
3  12512 12511 10281
3  10666 10669 7959
3  10280 8531 10282
3  12513 12512 10279
3  12338 10668 12336
3  10663 10666 10277
3  10663 10660 12339
3  10278 8534 10280
3  12514 12513 10276
3  10660 10663 10274
3  10660 10657 12340
3  10275 8535 10278
3  12515 12514 10273
3  12516 9867 9864
3  10657 10660 10271
3  10657 10654 12341
3  8240 12517 10270
3  8240 10270 8238
3  10272 8536 10275
3  12518 12515 10269
3  10272 8241 8536
3  10272 12519 8240
3  10654 10657 10268
3  10654 10651 12342
3  10651 10654 10267
3  10651 10648 12343
3  11749 8239 10270
3  12520 12517 10266
3  10648 10651 10264
3  10648 10645 12344
3  10265 8543 11749
3  12521 12520 10263
3  10645 10648 10261
3  10645 10640 12345
3  10262 8545 10265
3  12522 12521 10260
3  10640 10645 10258
3  10640 12346 12348
3  10259 8547 10262
3  12523 12522 10257
3  12346 10640 10255
3  10256 9848 10259
3  12524 12523 10254
3  12349 12348 12346
3  11730 12346 10252
3  11730 10635 12347
3  10253 8549 10256
3  12525 12524 10251
3  12526 8553 8551
3  10635 11730 10250
3  10635 10633 12350
3  12526 8551 10253
3  12527 12525 10249
3  12528 8554 8553
3  10633 10635 10248
3  12528 8553 12526
3  12529 12527 10247
3  12351 10634 11816
3  10631 10633 7983
3  10631 10629 12352
3  10246 8554 12528
3  12530 12529 10244
3  10629 10631 10242
3  10629 10626 12353
3  10243 8560 10246
3  12531 12530 10241
3  10626 10629 10239
3  10626 10623 12354
3  10240 8562 10243
3  12532 12531 10238
3  12533 9831 9830
3  10623 10626 10236
3  10623 10620 12355
3  8265 12534 10235
3  8265 10235 8263
3  10237 8565 10240
3  12535 12532 10234
3  10237 8266 8565
3  10237 12536 8265
3  10620 10623 10233
3  10620 10617 12356
3  10617 10620 10232
3  10617 10614 12357
3  11751 8264 10235
3  12537 12534 10231
3  10614 10617 10229
3  10614 10611 12358
3  10230 8569 11751
3  12538 12537 10228
3  12539 8573 8571
3  10611 10614 10227
3  10611 10608 12359
3  12539 8571 10230
3  12540 12538 10226
3  10608 10611 10224
3  10608 10605 12360
3  10225 8573 12539
3  12541 12540 10223
3  10605 10608 10221
3  10605 10603 12361
3  10222 9814 10225
3  12542 12541 10220
3  12543 8577 8575
3  10603 10605 10219
3  10603 12362 12364
3  12543 8575 10222
3  12544 12542 10217
3  12545 8581 8577
3  12362 10603 8280
3  12545 8577 12543
3  12546 12544 10215
3  12365 12364 12362
3  11732 12362 8283
3  10214 8581 12545
3  12547 12546 10213
3  12363 12365 11732
3  10600 11732 8004
3  10600 10597 12366
3  10212 8582 10214
3  12548 12547 10211
3  10597 10600 8007
3  10210 8583 10212
3  12549 12548 10209
3  12367 10599 11815
3  10594 10597 10207
3  10594 10591 12368
3  10208 8588 10210
3  12550 12549 10206
3  12551 9796 9793
3  10591 10594 10204
3  10591 10589 12369
3  8291 12552 10203
3  8291 10203 8289
3  10205 8589 10208
3  12553 12550 10202
3  10205 8292 8589
3  10205 12554 8291
3  10589 10591 10201
3  10589 10587 12370
3  10587 10589 10200
3  10587 10585 12371
3  11753 8290 10203
3  12555 12552 10199
3  10585 10587 10197
3  10585 10583 12372
3  10198 8594 11753
3  12556 12555 10196
3  10583 10585 10194
3  10583 10580 12373
3  10195 8596 10198
3  12557 12556 10193
3  10580 10583 10191
3  10580 10577 12374
3  10192 8598 10195
3  12558 12557 10190
3  10577 10580 10188
3  10577 10575 12375
3  10189 8600 10192
3  12559 12558 10187
3  10575 10577 10185
3  10186 9772 10189
3  12560 12559 10184
3  12377 12376 10579
3  10571 10575 10182
3  10571 10568 12378
3  10183 8601 10186
3  12561 12560 10181
3  12562 8606 8602
3  10568 10571 8028
3  10568 10572 12380
3  12562 8602 10183
3  12563 12561 10177
3  12564 8610 8606
3  10572 10568 8311
3  12564 8606 12562
3  12565 12563 10176
3  10179 12380 10572
3  11734 10572 10174
3  11734 10565 12379
3  10175 8610 12564
3  12566 12565 10173
3  10565 11734 8032
3  10565 10562 12381
3  10172 8612 10175
3  12567 12566 10171
3  12568 9759 9756
3  10562 10565 8035
3  10562 10559 12382
3  8318 12569 10169
3  8318 10169 8316
3  10170 8614 10172
3  12570 12567 10168
3  10170 8319 8614
3  10170 12571 8318
3  10559 10562 10167
3  10559 10556 12383
3  10556 10559 10166
3  10556 10552 12384
3  11755 8317 10169
3  12572 12569 10165
3  10552 10556 10163
3  10552 10549 12385
3  10164 8619 11755
3  12573 12572 10162
3  10549 10552 10160
3  10549 10546 12386
3  10161 8621 10164
3  12574 12573 10159
3  10546 10549 10157
3  10546 10543 12387
3  10158 8623 10161
3  12575 12574 10156
3  12576 8626 8624
3  10543 10546 10155
3  10543 10540 12388
3  12576 8624 10158
3  12577 12575 10154
3  12578 9734 8626
3  10540 10543 10153
3  10540 10537 12389
3  12578 8626 12576
3  12579 12577 10152
3  10537 10540 10150
3  10537 10534 12390
3  10151 9734 12578
3  12580 12579 10149
3  10534 10537 10147
3  10534 10531 12391
3  10148 8631 10151
3  12581 12580 10146
3  10531 10534 10144
3  10531 10527 12392
3  10145 8633 10148
3  12582 12581 10143
3  10527 10531 8053
3  10142 8635 10145
3  12583 12582 10140
3  12393 10530 10533
3  10524 10527 8058
3  10139 8637 10142
3  12584 12583 10138
3  12396 12394 10530
3  10528 10524 8342
3  10528 11814 12397
3  10137 8639 10139
3  12585 12584 10135
3  12586 9718 9715
3  11814 10528 8343
3  8346 12587 10133
3  8346 10133 8344
3  10134 8641 10137
3  12588 12585 10132
3  10134 8347 8641
3  10134 12589 8346
3  12395 12397 11814
3  10521 11814 10131
3  10521 10518 12398
3  10518 10521 10130
3  10518 10515 12399
3  11757 8345 10133
3  12590 12587 10129
3  10515 10518 10127
3  10515 10512 12400
3  10128 8646 11757
3  12591 12590 10126
3  10512 10515 10124
3  10512 10507 12401
3  10125 8648 10128
3  12592 12591 10123
3  10507 10512 10121
3  10507 10504 12402
3  10122 8649 10125
3  12593 12592 10120
3  10504 10507 10118
3  10504 10501 12403
3  10119 9698 10122
3  12594 12593 10117
3  10501 10504 10115
3  10501 10499 12404
3  10116 8651 10119
3  12595 12594 10114
3  12596 8655 8652
3  10499 10501 10113
3  10499 10496 12405
3  12596 8652 10116
3  12597 12595 10112
3  12598 8657 8655
3  10496 10499 10111
3  12598 8655 12596
3  12599 12597 10110
3  12406 10498 10500
3  10494 10496 10108
3  10494 10492 12408
3  10109 8657 12598
3  12600 12599 10107
3  10492 10494 10105
3  10492 10489 12410
3  10106 8660 10109
3  12601 12600 10104
3  10489 10492 10102
3  10103 8662 10106
3  12602 12601 10101
3  12603 9682 9680
3  12411 10491 12409
3  10485 10489 8084
3  10485 12412 12414
3  8373 12604 10098
3  8373 10098 8371
3  10100 8664 10103
3  12605 12602 10097
3  10100 8374 8664
3  10100 12606 8373
3  12412 10485 10096
3  12412 11738 12415
3  11738 12412 10095
3  11738 10482 12413
3  11759 8372 10098
3  12607 12604 10094
3  10482 11738 10092
3  10482 10479 12416
3  10093 8667 11759
3  12608 12607 10091
3  10479 10482 10089
3  10479 10476 12417
3  10090 8673 10093
3  12609 12608 10088
3  12610 8676 8674
3  10476 10479 10087
3  10476 10473 12418
3  12610 8674 10090
3  12611 12609 10086
3  12612 9662 8676
3  10473 10476 10085
3  10473 10470 12419
3  12612 8676 12610
3  12613 12611 10084
3  10470 10473 10082
3  10470 10467 12420
3  10083 9662 12612
3  12614 12613 10081
3  10467 10470 10079
3  10467 10464 12421
3  10080 8678 10083
3  12615 12614 10078
3  10464 10467 10076
3  10464 10461 12422
3  10077 8681 10080
3  12616 12615 10075
3  10461 10464 10073
3  10461 10458 12423
3  10074 8683 10077
3  12617 12616 10072
3  10458 10461 10070
3  10458 10455 12424
3  10071 8685 10074
3  12618 12617 10069
3  10455 10458 8106
3  10068 8687 10071
3  12619 12618 10066
3  12620 9644 9641
3  12425 10457 10460
3  10452 10455 8107
3  8396 12621 10064
3  8396 10064 8394
3  10065 8689 10068
3  12622 12619 10063
3  10065 8397 8689
3  10065 12623 8396
3  12427 12426 10457
3  10449 10452 8110
3  10449 10453 12429
3  10453 10449 8399
3  11761 8395 10064
3  12624 12621 10061
3  12428 8103 10062
3  11740 10453 10059
3  11740 10446 12430
3  10060 8694 11761
3  12625 12624 10058
3  10446 11740 10056
3  10446 10443 12431
3  10057 8697 10060
3  12626 12625 10055
3  10443 10446 10053
3  10443 10440 12432
3  10054 8700 10057
3  12627 12626 10052
3  10440 10443 10050
3  10440 10437 12433
3  10051 9627 10054
3  12628 12627 10049
3  10437 10440 10047
3  10437 10434 12434
3  10048 8703 10051
3  12629 12628 10046
3  12630 8707 8705
3  10434 10437 10045
3  10434 10431 12435
3  12630 8705 10048
3  12631 12629 10044
3  12632 8709 8707
3  10431 10434 10043
3  10431 10429 12436
3  12632 8707 12630
3  12633 12631 10042
3  10429 10431 10040
3  10429 10427 12437
3  10041 8709 12632
3  12634 12633 10039
3  10427 10429 10037
3  10038 8712 10041
3  12635 12634 10036
3  12438 10428 10430
3  10426 10427 10034
3  10426 10424 12440
3  10035 8714 10038
3  12636 12635 10033
3  12637 9610 9607
3  10424 10426 10031
3  10424 10421 12442
3  8422 12638 10030
3  8422 10030 8420
3  10032 8715 10035
3  12639 12636 10029
3  10032 8423 8715
3  10032 12640 8422
3  10421 10424 10028
3  12443 10423 12441
3  10418 10421 8132
3  10418 10414 12444
3  11763 8421 10030
3  12641 12638 10026
3  10414 10418 10024
3  10414 12445 12447
3  10025 8720 11763
3  12642 12641 10023
3  12445 10414 10021
3  12445 11742 12448
3  10022 8722 10025
3  12643 12642 10020
3  11742 12445 10018
3  11742 10411 12446
3  10019 8724 10022
3  12644 12643 10017
3  12645 8728 8726
3  10411 11742 10016
3  10411 10408 12449
3  12645 8726 10019
3  12646 12644 10015
3  12647 9585 8728
3  10408 10411 10014
3  10408 10405 12450
3  12647 8728 12645
3  12648 12646 10013
3  10405 10408 10011
3  10405 10402 12451
3  10012 9585 12647
3  12649 12648 10010
3  10402 10405 10008
3  10402 10399 12452
3  10009 8730 10012
3  12650 12649 10007
3  10399 10402 10005
3  10399 10396 12453
3  10006 8733 10009
3  12651 12650 10004
3  10396 10399 10002
3  10396 10393 12454
3  10003 8734 10006
3  12652 12651 10001
3  10393 10396 9999
3  10393 10390 12455
3  10000 8735 10003
3  12653 12652 9998
3  12654 9570 9569
3  10390 10393 8152
3  10390 10388 12456
3  8445 12655 9995
3  8445 9995 8443
3  9997 8739 10000
3  12656 12653 9994
3  9997 8446 8739
3  9997 12657 8445
3  10388 10390 8155
3  12458 12457 10392
3  10385 10388 9993
3  10385 10383 12459
3  11765 8444 9995
3  12658 12655 9992
3  10383 10385 8159
3  10383 10380 12461
3  9991 8745 11765
3  12659 12658 9989
3  10380 10383 8161
3  9988 8748 9991
3  12660 12659 9987
3  12462 10382 12460
3  10376 10380 9985
3  10376 12463 12465
3  9986 8750 9988
3  12661 12660 9984
3  12463 10376 9982
3  12463 11744 12466
3  9983 9553 9986
3  12662 12661 9981
3  11744 12463 9979
3  11744 10373 12464
3  9980 8752 9983
3  12663 12662 9978
3  12664 8756 8754
3  10373 11744 9977
3  10373 10370 12467
3  12664 8754 9980
3  12665 12663 9976
3  12666 8757 8756
3  10370 10373 9975
3  10370 10367 12468
3  12666 8756 12664
3  12667 12665 9974
3  10367 10370 9972
3  10367 10364 12469
3  9973 8757 12666
3  12668 12667 9971
3  10364 10367 9969
3  10364 10361 12470
3  9970 8759 9973
3  12669 12668 9968
3  12670 9541 9538
3  10361 10364 9966
3  10361 10358 12471
3  8467 12671 9965
3  8467 9965 8465
3  9967 8760 9970
3  12672 12669 9964
3  9967 8468 8760
3  9967 12673 8467
3  10358 10361 9963
3  10358 10355 12472
3  10355 10358 9962
3  11767 8466 9965
3  12674 12671 9961
3  12473 10357 10360
3  10354 10355 9959
3  10354 10352 12475
3  9960 8766 11767
3  12675 12674 9958
3  10352 10354 9956
3  10352 10349 12477
3  9957 8768 9960
3  12676 12675 9955
3  10349 10352 9953
3  9954 8770 9957
3  12677 12676 9952
3  12478 10351 12476
3  10346 10349 8185
3  10346 10343 12479
3  9951 8772 9954
3  12678 12677 9949
3  12679 8775 8774
3  10343 10346 9948
3  10343 10339 12480
3  12679 8774 9951
3  12680 12678 9947
3  12681 9511 8775
3  10339 10343 9946
3  10339 12481 12483
3  12681 8775 12679
3  12682 12680 9945
3  12481 10339 9943
3  12481 11746 12484
3  9944 9511 12681
3  12683 12682 9942
3  11746 12481 9940
3  11746 10336 12482
3  9941 8776 9944
3  12684 12683 9939
3  10336 11746 9937
3  10336 10333 12485
3  9938 8781 9941
3  12685 12684 9936
3  10333 10336 9934
3  10333 10330 12486
3  9935 8782 9938
3  12686 12685 9933
3  12687 9501 9499
3  10330 10333 9931
3  10330 10327 12487
3  8490 12688 9930
3  8490 9930 8488
3  9932 8784 9935
3  12689 12686 9929
3  9932 8491 8784
3  9932 12690 8490
3  10327 10330 9928
3  10327 10324 12488
3  10324 10327 9927
3  10324 10321 12489
3  11769 8489 9930
3  12691 12688 9926
3  10321 10324 9924
3  10321 10318 12490
3  9925 8793 11769
3  12692 12691 9923
3  10318 10321 8203
3  9922 8795 9925
3  12693 12692 9920
3  12491 10320 10323
3  10316 10318 8206
3  9919 8797 9922
3  12694 12693 9918
3  12493 12492 10320
3  10314 10316 8208
3  10314 10311 12495
3  9917 8798 9919
3  12695 12694 9916
3  10311 10314 8210
3  9915 8799 9917
3  12696 12695 9914
3  12496 10313 12494
3  10308 10311 9912
3  10308 10304 12497
3  9913 9478 9915
3  12697 12696 9911
3  10304 10308 9909
3  10304 12498 12500
3  9910 8803 9913
3  12698 12697 9908
3  12699 8806 8804
3  12498 10304 9907
3  12498 11748 12501
3  12699 8804 9910
3  12700 12698 9906
3  12701 8808 8806
3  11748 12498 9905
3  11748 10301 12499
3  12701 8806 12699
3  12702 12700 9904
3  10301 11748 9902
3  10301 10298 12502
3  9903 8808 12701
3  12703 12702 9901
3  12704 9469 9466
3  10298 10301 9899
3  10298 10295 12503
3  8515 12705 9898
3  8515 9898 8513
3  9900 8812 9903
3  12706 12703 9897
3  9900 8516 8812
3  9900 12707 8515
3  10295 10298 9896
3  10295 10292 12504
3  10292 10295 9895
3  10292 10289 12505
3  11771 8514 9898
3  12708 12705 9894
3  10289 10292 9892
3  9893 8817 11771
3  12709 12708 9891
3  12506 10291 10294
3  10287 10289 9889
3  10287 10285 12508
3  9890 8818 9893
3  12710 12709 9888
3  10285 10287 9886
3  10285 10283 12510
3  9887 8819 9890
3  12711 12710 9885
3  12712 8825 8824
3  10283 10285 9884
3  12712 8824 9887
3  12713 12711 9883
3  12714 9444 8825
3  12511 10284 12509
3  10281 10283 8233
3  10281 10279 12512
3  12714 8825 12712
3  12715 12713 9881
3  10279 10281 9879
3  10279 10276 12513
3  9880 9444 12714
3  12716 12715 9878
3  10276 10279 9876
3  10276 10273 12514
3  9877 8827 9880
3  12717 12716 9875
3  10273 10276 9873
3  10273 10269 12515
3  9874 8829 9877
3  12718 12717 9872
3  10269 10273 9870
3  10269 12516 12518
3  9871 8831 9874
3  12719 12718 9869
3  12720 9433 9431
3  12516 10269 9867
3  12516 11750 12519
3  8539 12721 9866
3  8539 9866 8537
3  9868 8834 9871
3  12722 12719 9865
3  9868 8540 8834
3  9868 12723 8539
3  11750 12516 9864
3  11750 10266 12517
3  10266 11750 9863
3  10266 10263 12520
3  11773 8538 9866
3  12724 12721 9862
3  10263 10266 9860
3  10263 10260 12521
3  9861 8841 11773
3  12725 12724 9859
3  10260 10263 9857
3  10260 10257 12522
3  9858 8842 9861
3  12726 12725 9856
3  10257 10260 9854
3  10257 10254 12523
3  9855 8847 9858
3  12727 12726 9853
3  10254 10257 9851
3  10254 10251 12524
3  9852 8848 9855
3  12728 12727 9850
3  10251 10254 8253
3  9849 8850 9852
3  12729 12728 9847
3  12525 10253 10256
3  10249 10251 8255
3  9846 8852 9849
3  12730 12729 9845
3  12527 12526 10253
3  10247 10249 8257
3  10247 10244 12529
3  9844 8854 9846
3  12731 12730 9843
3  10244 10247 8260
3  9842 9405 9844
3  12732 12731 9841
3  12530 10246 12528
3  10241 10244 9839
3  10241 10238 12531
3  9840 8856 9842
3  12733 12732 9838
3  12734 8861 8858
3  10238 10241 9837
3  10238 10234 12532
3  12734 8858 9840
3  12735 12733 9835
3  9400 8558 8861
3  10234 10238 9834
3  10234 12533 12535
3  12736 12737 9836
3  8556 12738 9833
3  8556 9833 8557
3  9400 8861 12734
3  12737 12735 9832
3  12533 10234 9831
3  12533 11752 12536
3  11752 12533 9830
3  11752 10231 12534
3  11775 8563 9833
3  12739 12738 9829
3  10231 11752 9827
3  10231 10228 12537
3  9828 8869 11775
3  12740 12739 9826
3  10228 10231 9824
3  10228 10226 12538
3  9825 8870 9828
3  12741 12740 9823
3  10226 10228 9821
3  9822 8872 9825
3  12742 12741 9820
3  12540 12539 10230
3  10223 10226 9818
3  9819 8874 9822
3  12743 12742 9817
3  12744 8878 8876
3  12541 10225 12539
3  10220 10223 9816
3  10220 10217 12542
3  12744 8876 9819
3  12745 12743 9815
3  12746 9370 8878
3  10217 10220 8279
3  10217 10215 12544
3  12746 8878 12744
3  12747 12745 9813
3  10215 10217 8282
3  9812 9370 12746
3  12748 12747 9811
3  12546 12545 12543
3  10213 10215 9809
3  9810 8880 9812
3  12749 12748 9808
3  12547 10214 12545
3  10211 10213 9806
3  10211 10209 12548
3  9807 8882 9810
3  12750 12749 9805
3  10209 10211 9803
3  10209 10206 12549
3  9804 8884 9807
3  12751 12750 9802
3  12752 9359 9356
3  10206 10209 9800
3  10206 10202 12550
3  8586 12753 9799
3  8586 9799 8584
3  9801 8889 9804
3  12754 12751 9798
3  9801 8587 8889
3  9801 12755 8586
3  10202 10206 9797
3  10202 12551 12553
3  12551 10202 9796
3  12551 11754 12554
3  11777 8585 9799
3  12756 12753 9795
3  11754 12551 9793
3  11754 10199 12552
3  9794 8894 11777
3  12757 12756 9792
3  10199 11754 9790
3  10199 10196 12555
3  9791 8896 9794
3  12758 12757 9789
3  10196 10199 9787
3  10196 10193 12556
3  9788 8898 9791
3  12759 12758 9786
3  10193 10196 9784
3  10193 10190 12557
3  9785 8900 9788
3  12760 12759 9783
3  10190 10193 9781
3  10190 10187 12558
3  9782 8902 9785
3  12761 12760 9780
3  10187 10190 9778
3  10187 10184 12559
3  9779 8905 9782
3  12762 12761 9777
3  10184 10187 9775
3  10184 10181 12560
3  9776 8907 9779
3  12763 12762 9774
3  10181 10184 8307
3  9773 9330 9776
3  12764 12763 9771
3  12561 10183 10186
3  10177 10181 8310
3  9770 8909 9773
3  12765 12764 9768
3  12766 9325 8910
3  12563 12562 10183
3  10176 10177 8313
3  10176 10173 12565
3  11779 8607 9325
3  11779 12767 11780
3  12766 8910 9770
3  12768 12765 9766
3  12766 11779 9325
3  12766 12769 11779
3  10173 10176 8314
3  12566 10175 12564
3  10171 10173 9765
3  10171 10168 12567
3  9767 8608 11780
3  12770 12767 9764
3  10168 10171 9762
3  10168 12568 12570
3  9763 8919 9767
3  12771 12770 9761
3  12568 10168 9759
3  12568 11756 12571
3  9760 8921 9763
3  12772 12771 9758
3  11756 12568 9756
3  11756 10165 12569
3  9757 8923 9760
3  12773 12772 9755
3  10165 11756 9753
3  10165 10162 12572
3  9754 8925 9757
3  12774 12773 9752
3  10162 10165 9750
3  10162 10159 12573
3  9751 8927 9754
3  12775 12774 9749
3  12776 8931 8929
3  10159 10162 9748
3  10159 10156 12574
3  12776 8929 9751
3  12777 12775 9747
3  12778 9295 8931
3  10156 10159 9746
3  12778 8931 12776
3  12779 12777 9745
3  12575 10158 10161
3  10154 10156 9743
3  10154 10152 12577
3  9744 9295 12778
3  12780 12779 9742
3  10152 10154 9740
3  10152 10149 12579
3  9741 8933 9744
3  12781 12780 9739
3  12782 9290 9289
3  10149 10152 9737
3  8629 12783 9736
3  8629 9736 8627
3  9738 8935 9741
3  12784 12781 9735
3  9738 8630 8935
3  9738 12785 8629
3  12580 10151 12578
3  10146 10149 8336
3  10146 10143 12581
3  10143 10146 9733
3  10143 10140 12582
3  11781 8628 9736
3  12786 12783 9732
3  10140 10143 9730
3  10140 10138 12583
3  9731 8940 11781
3  12787 12786 9729
3  10138 10140 9727
3  10138 10135 12584
3  9728 8941 9731
3  12788 12787 9726
3  10135 10138 9724
3  10135 10132 12585
3  9725 8943 9728
3  12789 12788 9723
3  10132 10135 9721
3  10132 12586 12588
3  9722 8944 9725
3  12790 12789 9720
3  12586 10132 9718
3  12586 11758 12589
3  9719 8945 9722
3  12791 12790 9717
3  11758 12586 9715
3  11758 10129 12587
3  9716 8946 9719
3  12792 12791 9714
3  10129 11758 9712
3  10129 10126 12590
3  9713 8947 9716
3  12793 12792 9711
3  10126 10129 9709
3  10126 10123 12591
3  9710 8948 9713
3  12794 12793 9708
3  10123 10126 9706
3  10123 10120 12592
3  9707 8949 9710
3  12795 12794 9705
3  10120 10123 9703
3  10120 10117 12593
3  9704 9270 9707
3  12796 12795 9702
3  12797 8951 8952
3  10117 10120 9701
3  10117 10114 12594
3  9269 9266 9267
3  12798 12799 12797
3  9269 12800 11783
3  9268 8950 9704
3  12799 12796 9699
3  10114 10117 8358
3  12595 10116 10119
3  10112 10114 8361
3  9700 8953 11783
3  12801 12800 9697
3  12597 12596 10116
3  10110 10112 8364
3  10110 10107 12599
3  9696 8954 9700
3  12802 12801 9695
3  10107 10110 8367
3  9694 8955 9696
3  12803 12802 9693
3  12600 10109 12598
3  10104 10107 9691
3  10104 10101 12601
3  9692 8956 9694
3  12804 12803 9690
3  10101 10104 9688
3  10101 10097 12602
3  9689 8957 9692
3  12805 12804 9687
3  10097 10101 9685
3  10097 12603 12605
3  9686 8958 9689
3  12806 12805 9684
3  12603 10097 9682
3  12603 11760 12606
3  9683 8959 9686
3  12807 12806 9681
3  12808 8961 8960
3  11760 12603 9680
3  11760 10094 12604
3  12808 8960 9683
3  12809 12807 9679
3  12810 9256 8961
3  10094 11760 9678
3  10094 10091 12607
3  12810 8961 12808
3  12811 12809 9677
3  10091 10094 9675
3  10091 10088 12608
3  9676 9256 12810
3  12812 12811 9674
3  12813 9255 9254
3  10088 10091 9672
3  8671 12814 9671
3  8671 9671 8668
3  9673 8962 9676
3  12815 12812 9670
3  9673 8672 8962
3  9673 12816 8671
3  12609 10090 10093
3  10086 10088 9669
3  10086 10084 12611
3  10084 10086 9668
3  10084 10081 12613
3  11784 8669 9671
3  12817 12814 9667
3  10081 10084 9665
3  9666 8963 11784
3  12818 12817 9664
3  12614 10083 12612
3  10078 10081 8386
3  10078 10075 12615
3  9663 8964 9666
3  12819 12818 9661
3  10075 10078 9659
3  10075 10072 12616
3  9660 8965 9663
3  12820 12819 9658
3  10072 10075 9656
3  10072 10069 12617
3  9657 8966 9660
3  12821 12820 9655
3  10069 10072 9653
3  10069 10066 12618
3  9654 8967 9657
3  12822 12821 9652
3  10066 10069 9650
3  10066 10063 12619
3  9651 8968 9654
3  12823 12822 9649
3  10063 10066 9647
3  10063 12620 12622
3  9648 8969 9651
3  12824 12823 9646
3  12620 10063 9644
3  12620 11762 12623
3  9645 8970 9648
3  12825 12824 9643
3  11762 12620 9641
3  11762 10061 12621
3  9642 8971 9645
3  12826 12825 9640
3  12827 9242 9241
3  10061 11762 9638
3  10061 10058 12624
3  8692 12828 11786
3  8692 11786 5339
3  9639 8972 9642
3  12829 12826 9637
3  9639 8693 8972
3  9639 12830 8692
3  10058 10061 9636
3  10058 10055 12625
3  10055 10058 9635
3  10055 10052 12626
3  11811 5334 11786
3  12831 12828 9634
3  12832 8975 8974
3  10052 10055 9633
3  10052 10049 12627
3  12832 8974 11811
3  12833 12831 9632
3  10049 10052 9630
3  10049 10046 12628
3  9631 8975 12832
3  12834 12833 9629
3  10046 10049 8407
3  9628 8976 9631
3  12835 12834 9626
3  12629 10048 10051
3  10044 10046 8410
3  9625 8977 9628
3  12836 12835 9624
3  12631 12630 10048
3  10042 10044 8413
3  10042 10039 12633
3  9623 8978 9625
3  12837 12836 9622
3  10039 10042 8416
3  9621 8979 9623
3  12838 12837 9620
3  12634 10041 12632
3  10036 10039 9618
3  10036 10033 12635
3  9619 8980 9621
3  12839 12838 9617
3  10033 10036 9615
3  10033 10029 12636
3  9616 8981 9619
3  12840 12839 9614
3  10029 10033 9612
3  10029 12637 12639
3  9613 8982 9616
3  12841 12840 9611
3  12842 8984 8983
3  12637 10029 9610
3  12637 11764 12640
3  12842 8983 9613
3  12843 12841 9608
3  9230 5322 8984
3  11764 12637 9607
3  11764 10026 12638
3  5320 12844 9606
3  5320 9606 5321
3  9230 8984 12842
3  9230 5320 5322
3  12845 12843 9605
3  10026 11764 9604
3  10026 10023 12641
3  10023 10026 9603
3  10023 10020 12642
3  11788 8718 9606
3  12846 12844 9602
3  10020 10023 9600
3  10020 10017 12643
3  9601 8985 11788
3  12847 12846 9599
3  10017 10020 9597
3  9598 8986 9601
3  12848 12847 9596
3  12644 10019 10022
3  10015 10017 9594
3  10015 10013 12646
3  9595 8987 9598
3  12849 12848 9593
3  10013 10015 9591
3  10013 10010 12648
3  9592 8988 9595
3  12850 12849 9590
3  10010 10013 9588
3  9589 8989 9592
3  12851 12850 9587
3  12649 10012 12647
3  10007 10010 8437
3  10007 10004 12650
3  9586 8990 9589
3  12852 12851 9584
3  10004 10007 9582
3  10004 10001 12651
3  9583 8991 9586
3  12853 12852 9581
3  10001 10004 9579
3  10001 9998 12652
3  9580 8992 9583
3  12854 12853 9578
3  9998 10001 9576
3  9998 9994 12653
3  9577 8993 9580
3  12855 12854 9575
3  12856 9216 9215
3  9994 9998 9573
3  9994 12654 12656
3  8736 12857 11790
3  8736 11790 8737
3  9574 8994 9577
3  12858 12855 9571
3  9574 8738 8994
3  9574 12859 8736
3  12654 9994 9570
3  12654 11766 12657
3  11766 12654 9569
3  11766 9992 12655
3  9572 9213 11790
3  12860 12857 9568
3  12861 8996 8995
3  9992 11766 9567
3  9992 9989 12658
3  12861 8995 9572
3  12862 12860 9566
3  12863 8997 8996
3  9989 9992 9565
3  9989 9987 12659
3  12863 8996 12861
3  12864 12862 9564
3  9987 9989 9562
3  9987 9984 12660
3  9563 8997 12863
3  12865 12864 9561
3  9984 9987 9559
3  9984 9981 12661
3  9560 8998 9563
3  12866 12865 9558
3  9981 9984 9556
3  9981 9978 12662
3  9557 8999 9560
3  12867 12866 9555
3  9978 9981 8456
3  9554 9000 9557
3  12868 12867 9552
3  12663 9980 9983
3  9976 9978 8458
3  9551 9001 9554
3  12869 12868 9550
3  12665 12664 9980
3  9974 9976 8460
3  9974 9971 12667
3  9549 9002 9551
3  12870 12869 9548
3  9971 9974 8462
3  9547 9003 9549
3  12871 12870 9546
3  12872 9203 9201
3  12668 9973 12666
3  9968 9971 9545
3  9968 9964 12669
3  9205 9200 9202
3  12873 12874 12872
3  9205 12875 9544
3  9204 9004 9547
3  12874 12871 9543
3  9964 9968 9542
3  9964 12670 12672
3  12670 9964 9541
3  12670 11768 12673
3  11792 9198 9544
3  12876 12875 9540
3  11768 12670 9538
3  11768 9961 12671
3  9539 9005 11792
3  12877 12876 9537
3  9961 11768 9535
3  9961 9958 12674
3  9536 9006 9539
3  12878 12877 9534
3  9958 9961 9532
3  9958 9955 12675
3  9533 9007 9536
3  12879 12878 9531
3  9955 9958 9529
3  9955 9952 12676
3  9530 9008 9533
3  12880 12879 9528
3  9952 9955 9526
3  9952 9949 12677
3  9527 9009 9530
3  12881 12880 9525
3  9949 9952 9523
3  9524 9010 9527
3  12882 12881 9522
3  12678 9951 9954
3  9947 9949 9520
3  9947 9945 12680
3  9521 9011 9524
3  12883 12882 9519
3  9945 9947 9517
3  9945 9942 12682
3  9518 9012 9521
3  12884 12883 9516
3  9942 9945 9514
3  9515 9013 9518
3  12885 12884 9513
3  12886 9188 9187
3  12683 9944 12681
3  9939 9942 8486
3  9939 9936 12684
3  8779 12887 9510
3  8779 9510 8777
3  9512 9014 9515
3  12888 12885 9509
3  9512 8780 9014
3  9512 12889 8779
3  9936 9939 9508
3  9936 9933 12685
3  9933 9936 9507
3  9933 9929 12686
3  11793 8778 9510
3  12890 12887 9506
3  9929 9933 9504
3  9929 12687 12689
3  9505 9184 11793
3  12891 12890 9503
3  12687 9929 9501
3  12687 11770 12690
3  9502 9015 9505
3  12892 12891 9500
3  12893 9017 9016
3  11770 12687 9499
3  11770 9926 12688
3  12893 9016 9502
3  12894 12892 9498
3  12895 9018 9017
3  9926 11770 9497
3  9926 9923 12691
3  12895 9017 12893
3  12896 12894 9496
3  9923 9926 9494
3  9923 9920 12692
3  9495 9018 12895
3  12897 12896 9493
3  9920 9923 9491
3  9920 9918 12693
3  9492 9019 9495
3  12898 12897 9490
3  9918 9920 9488
3  9918 9916 12694
3  9489 9020 9492
3  12899 12898 9487
3  9916 9918 9485
3  9916 9914 12695
3  9486 9021 9489
3  12900 12899 9484
3  9914 9916 9482
3  9914 9911 12696
3  9483 9022 9486
3  12901 12900 9481
3  12902 9176 9175
3  9911 9914 9480
3  9911 9908 12697
3  8800 12903 11796
3  8800 11796 8801
3  9177 9023 9483
3  9177 8802 9023
3  12904 12901 9479
3  9908 9911 8507
3  12698 9910 9913
3  9906 9908 8510
3  11809 9024 11796
3  12905 12903 9477
3  12906 9171 9025
3  12700 12699 9910
3  9904 9906 8511
3  9904 9901 12702
3  12906 9025 11809
3  12907 12905 9476
3  9901 9904 8512
3  9475 9171 12906
3  12908 12907 9474
3  12703 9903 12701
3  9897 9901 9472
3  9897 12704 12706
3  9473 9026 9475
3  12909 12908 9471
3  12704 9897 9469
3  12704 11772 12707
3  9470 9027 9473
3  12910 12909 9468
3  11772 12704 9466
3  11772 9894 12705
3  9467 9028 9470
3  12911 12910 9465
3  9894 11772 9463
3  9894 9891 12708
3  9464 9029 9467
3  12912 12911 9462
3  9891 9894 9460
3  9891 9888 12709
3  9461 9030 9464
3  12913 12912 9459
3  9888 9891 9457
3  9888 9885 12710
3  9458 9031 9461
3  12914 12913 9456
3  9885 9888 9454
3  9455 9032 9458
3  12915 12914 9453
3  12916 9163 9162
3  12711 9887 9890
3  9883 9885 9451
3  9883 9881 12713
3  8822 12917 9450
3  8822 9450 8820
3  9452 9033 9455
3  12918 12915 9449
3  9452 8823 9033
3  9452 12919 8822
3  9881 9883 9448
3  9881 9878 12715
3  9878 9881 9447
3  11797 8821 9450
3  12920 12917 9446
3  12716 9880 12714
3  9875 9878 8533
3  9875 9872 12717
3  9445 9034 11797
3  12921 12920 9443
3  9872 9875 9441
3  9872 9869 12718
3  9442 9035 9445
3  12922 12921 9440
3  9869 9872 9438
3  9869 9865 12719
3  9439 9157 9442
3  12923 12922 9437
3  9865 9869 9435
3  9865 12720 12722
3  9436 9036 9439
3  12924 12923 9434
3  12925 9038 9037
3  12720 9865 9433
3  12720 11774 12723
3  12925 9037 9436
3  12926 12924 9432
3  12927 9039 9038
3  11774 12720 9431
3  11774 9862 12721
3  12927 9038 12925
3  12928 12926 9430
3  9862 11774 9428
3  9862 9859 12724
3  9429 9039 12927
3  12929 12928 9427
3  9859 9862 9425
3  9859 9856 12725
3  9426 9040 9429
3  12930 12929 9424
3  9856 9859 9422
3  9856 9853 12726
3  9423 9041 9426
3  12931 12930 9421
3  12932 9153 9152
3  9853 9856 9419
3  9853 9850 12727
3  8845 12933 9418
3  8845 9418 8843
3  9420 9042 9423
3  12934 12931 9417
3  9420 8846 9042
3  9420 12935 8845
3  9850 9853 9416
3  9850 9847 12728
3  9847 9850 9415
3  9847 9845 12729
3  11799 8844 9418
3  12936 12933 9414
3  9845 9847 9412
3  9845 9843 12730
3  9413 9043 11799
3  12937 12936 9411
3  12938 9045 9044
3  9843 9845 9410
3  9843 9841 12731
3  12938 9044 9413
3  12939 12937 9409
3  12940 9146 9045
3  9841 9843 9408
3  9841 9838 12732
3  12940 9045 12938
3  12941 12939 9407
3  9838 9841 8559
3  9406 9146 12940
3  12942 12941 9404
3  12733 9840 9842
3  9835 9838 8561
3  9403 9046 9406
3  12943 12942 9402
3  12735 12734 9840
3  9832 9835 8564
3  9832 9836 12737
3  9401 9047 9403
3  12944 12943 9399
3  9836 9832 8863
3  9398 9048 9401
3  12945 12944 9397
3  12736 8556 9400
3  11776 9836 9395
3  11776 9829 12738
3  9396 9049 9398
3  12946 12945 9394
3  9829 11776 9392
3  9829 9826 12739
3  9393 9050 9396
3  12947 12946 9391
3  12948 9140 9139
3  9826 9829 9389
3  9826 9823 12740
3  8867 12949 9388
3  8867 9388 8865
3  9390 9051 9393
3  12950 12947 9387
3  9390 8868 9051
3  9390 12951 8867
3  9823 9826 9386
3  9823 9820 12741
3  9820 9823 9385
3  9820 9817 12742
3  11801 8866 9388
3  12952 12949 9384
3  9817 9820 9382
3  9383 9052 11801
3  12953 12952 9381
3  12743 9819 9822
3  9815 9817 9379
3  9815 9813 12745
3  9380 9053 9383
3  12954 12953 9378
3  9813 9815 9376
3  9813 9811 12747
3  9377 9054 9380
3  12955 12954 9375
3  9811 9813 9373
3  9374 9055 9377
3  12956 12955 9372
3  12748 9812 12746
3  9808 9811 8580
3  9808 9805 12749
3  9371 9056 9374
3  12957 12956 9369
3  9805 9808 9367
3  9805 9802 12750
3  9368 9057 9371
3  12958 12957 9366
3  9802 9805 9364
3  9802 9798 12751
3  9365 9130 9368
3  12959 12958 9363
3  9798 9802 9361
3  9798 12752 12754
3  9362 9058 9365
3  12960 12959 9360
3  12961 9060 9059
3  12752 9798 9359
3  12752 11778 12755
3  12961 9059 9362
3  12962 12960 9357
3  9129 8887 9060
3  11778 12752 9356
3  11778 9795 12753
3  12963 12964 9358
3  8885 12965 9355
3  8885 9355 8886
3  9129 9060 12961
3  12964 12962 9354
3  9795 11778 9353
3  9795 9792 12756
3  9792 9795 9352
3  9792 9789 12757
3  11803 8891 9355
3  12966 12965 9351
3  9789 9792 9349
3  9789 9786 12758
3  9350 9062 11803
3  12967 12966 9348
3  12968 9064 9063
3  9786 9789 9347
3  9786 9783 12759
3  12968 9063 9350
3  12969 12967 9346
3  12970 9122 9064
3  9783 9786 9345
3  9783 9780 12760
3  12970 9064 12968
3  12971 12969 9344
3  9780 9783 9342
3  9780 9777 12761
3  9343 9122 12970
3  12972 12971 9341
3  9777 9780 9339
3  9777 9774 12762
3  9340 9065 9343
3  12973 12972 9338
3  9774 9777 9336
3  9774 9771 12763
3  9337 9066 9340
3  12974 12973 9335
3  9771 9774 9333
3  9771 9768 12764
3  9334 9067 9337
3  12975 12974 9332
3  9768 9771 8604
3  9331 9068 9334
3  12976 12975 9329
3  12765 9770 9773
3  9766 9768 8609
3  9328 9069 9331
3  12977 12976 9327
3  12978 9116 9115
3  12768 12766 9770
3  9769 9766 8911
3  9769 11813 12769
3  8914 12979 9324
3  8914 9324 8912
3  9326 9070 9328
3  12980 12977 9323
3  9326 8915 9070
3  9326 12981 8914
3  11813 9769 8916
3  12767 12769 11813
3  9764 11813 9322
3  9764 9761 12770
3  11805 8913 9324
3  12982 12979 9321
3  9761 9764 9319
3  9761 9758 12771
3  9320 9071 11805
3  12983 12982 9318
3  9758 9761 9316
3  9758 9755 12772
3  9317 9072 9320
3  12984 12983 9315
3  9755 9758 9313
3  9755 9752 12773
3  9314 9073 9317
3  12985 12984 9312
3  9752 9755 9310
3  9752 9749 12774
3  9311 9074 9314
3  12986 12985 9309
3  9749 9752 9307
3  9308 9075 9311
3  12987 12986 9306
3  12775 9751 9754
3  9747 9749 9304
3  9747 9745 12777
3  9305 9076 9308
3  12988 12987 9303
3  9745 9747 9301
3  9745 9742 12779
3  9302 9077 9305
3  12989 12988 9300
3  9742 9745 9298
3  9299 9078 9302
3  12990 12989 9297
3  12780 9744 12778
3  9739 9742 8625
3  9739 9735 12781
3  9296 9104 9299
3  12991 12990 9294
3  12992 9080 9081
3  9735 9739 9293
3  9735 12782 12784
3  9103 9100 9101
3  12993 12994 12992
3  9103 12995 11807
3  9102 9079 9296
3  12994 12991 9291
3  12782 9735 9290
3  12782 11782 12785
3  11782 12782 9289
3  11782 9732 12783
3  9292 9082 11807
3  12996 12995 9288
3  9732 11782 9286
3  9732 9729 12786
3  9287 9083 9292
3  12997 12996 9285
3  9729 9732 9283
3  9729 9726 12787
3  9284 9084 9287
3  12998 12997 9282
3  5143 9096 9090
3  9726 9729 9280
3  9726 9723 12788
3  9281 9095 9087
3  9281 9086 9284
3  5142 12998 9279
3  9723 9726 9278
3  9723 9720 12789
3  9095 9089 9088
3  5143 9090 9091
3  9720 9723 9277
3  9720 9717 12790
3  9717 9720 9276
3  9717 9714 12791
3  9714 9717 9275
3  9714 9711 12792
3  9711 9714 9274
3  9711 9708 12793
3  9708 9711 9273
3  9708 9705 12794
3  9705 9708 9272
3  9705 9702 12795
3  9702 9705 9271
3  9702 9699 12796
3  9699 9702 8650
3  12799 9268 9704
3  12797 9699 8951
3  12798 9269 9268
3  11812 12797 8952
3  11812 9697 12800
3  9697 11812 8654
3  12801 9700 11783
3  9695 9697 9265
3  9695 9693 12802
3  9693 9695 9264
3  9693 9690 12803
3  9690 9693 9263
3  9690 9687 12804
3  9687 9690 9262
3  9687 9684 12805
3  9684 9687 9261
3  9684 9681 12806
3  9681 9684 9260
3  12807 9683 9686
3  9679 9681 9259
3  9679 9677 12809
3  9677 9679 9258
3  9677 9674 12811
3  9674 9677 9257
3  12812 9676 12810
3  9670 9674 8670
3  9670 12813 12815
3  12813 9670 9255
3  12813 11785 12816
3  11785 12813 9254
3  11785 9667 12814
3  9667 11785 9253
3  9667 9664 12817
3  9664 9667 9252
3  9664 9661 12818
3  9661 9664 9251
3  9661 9658 12819
3  9658 9661 9250
3  9658 9655 12820
3  9655 9658 9249
3  9655 9652 12821
3  9652 9655 9248
3  9652 9649 12822
3  9649 9652 9247
3  9649 9646 12823
3  9646 9649 9246
3  9646 9643 12824
3  9643 9646 9245
3  9643 9640 12825
3  9640 9643 9244
3  9640 9637 12826
3  9637 9640 9243
3  9637 12827 12829
3  12827 9637 9242
3  12827 11787 12830
3  11787 12827 9241
3  12828 12830 11787
3  9634 11787 8973
3  12831 11811 11786
3  9632 9634 8699
3  9632 9629 12833
3  9629 9632 8702
3  12834 9631 12832
3  9626 9629 9240
3  9626 9624 12835
3  9624 9626 9239
3  9624 9622 12836
3  9622 9624 9238
3  9622 9620 12837
3  9620 9622 9237
3  9620 9617 12838
3  9617 9620 9236
3  9617 9614 12839
3  9614 9617 9235
3  9614 9611 12840
3  9611 9614 9234
3  12841 9613 9616
3  9608 9611 9233
3  9608 9605 12843
3  9605 9608 9232
3  9605 9609 12845
3  9609 9605 9229
3  9231 12845 9609
3  11789 9609 9228
3  11789 9602 12844
3  9602 11789 9227
3  9602 9599 12846
3  9599 9602 9226
3  9599 9596 12847
3  9596 9599 9225
3  9596 9593 12848
3  9593 9596 9224
3  9593 9590 12849
3  9590 9593 9223
3  9590 9587 12850
3  9587 9590 9222
3  9587 9584 12851
3  9584 9587 9221
3  9584 9581 12852
3  9581 9584 9220
3  9581 9578 12853
3  9578 9581 9219
3  9578 9575 12854
3  9575 9578 9218
3  9575 9571 12855
3  9571 9575 9217
3  9571 12856 12858
3  12856 9571 9216
3  12856 11791 12859
3  11791 12856 9215
3  11791 9568 12857
3  9568 11791 9214
3  12860 9572 11790
3  9566 9568 8742
3  12862 12861 9572
3  9564 9566 8744
3  9564 9561 12864
3  9561 9564 8747
3  12865 9563 12863
3  9558 9561 9212
3  9558 9555 12866
3  9555 9558 9211
3  9555 9552 12867
3  9552 9555 9210
3  9552 9550 12868
3  9550 9552 9209
3  9550 9548 12869
3  9548 9550 9208
3  9548 9546 12870
3  9546 9548 9207
3  9546 9543 12871
3  9543 9546 9206
3  12874 9204 9547
3  12872 9543 9203
3  12872 11810 12873
3  11810 12872 9201
3  11810 9540 12875
3  9540 11810 9199
3  12876 11792 9544
3  9537 9540 8763
3  9537 9534 12877
3  9534 9537 9197
3  9534 9531 12878
3  9531 9534 9196
3  9531 9528 12879
3  9528 9531 9195
3  9528 9525 12880
3  9525 9528 9194
3  9525 9522 12881
3  9522 9525 9193
3  9522 9519 12882
3  9519 9522 9192
3  9519 9516 12883
3  9516 9519 9191
3  9516 9513 12884
3  9513 9516 9190
3  9513 9509 12885
3  9509 9513 9189
3  9509 12886 12888
3  12886 9509 9188
3  12886 11794 12889
3  11794 12886 9187
3  11794 9506 12887
3  9506 11794 9186
3  9506 9503 12890
3  9503 9506 9185
3  9503 9500 12891
3  9500 9503 8786
3  12892 9502 9505
3  9498 9500 8788
3  12894 12893 9502
3  9496 9498 8790
3  9496 9493 12896
3  9493 9496 8792
3  12897 9495 12895
3  9490 9493 9183
3  9490 9487 12898
3  9487 9490 9182
3  9487 9484 12899
3  9484 9487 9181
3  9484 9481 12900
3  9481 9484 9180
3  9481 9479 12901
3  9479 9481 9179
3  9479 12902 12904
3  12902 9479 9176
3  12902 11795 9178
3  11795 12902 9175
3  12903 9178 11795
3  9477 11795 9174
3  9477 9476 12905
3  9476 9477 9173
3  9476 9474 12907
3  9474 9476 9172
3  12908 9475 12906
3  9471 9474 8811
3  9471 9468 12909
3  9468 9471 9170
3  9468 9465 12910
3  9465 9468 9169
3  9465 9462 12911
3  9462 9465 9168
3  9462 9459 12912
3  9459 9462 9167
3  9459 9456 12913
3  9456 9459 9166
3  9456 9453 12914
3  9453 9456 9165
3  9453 9449 12915
3  9449 9453 9164
3  9449 12916 12918
3  12916 9449 9163
3  12916 11798 12919
3  11798 12916 9162
3  11798 9446 12917
3  9446 11798 9161
3  9446 9443 12920
3  9443 9446 9160
3  9443 9440 12921
3  9440 9443 9159
3  9440 9437 12922
3  9437 9440 9158
3  9437 9434 12923
3  9434 9437 8833
3  12924 9436 9439
3  9432 9434 8836
3  12926 12925 9436
3  9430 9432 8838
3  9430 9427 12928
3  9427 9430 8840
3  12929 9429 12927
3  9424 9427 9156
3  9424 9421 12930
3  9421 9424 9155
3  9421 9417 12931
3  9417 9421 9154
3  9417 12932 12934
3  12932 9417 9153
3  12932 11800 12935
3  11800 12932 9152
3  11800 9414 12933
3  9414 11800 9151
3  9414 9411 12936
3  9411 9414 9150
3  12937 9413 11799
3  9409 9411 9149
3  9409 9407 12939
3  9407 9409 9148
3  9407 9404 12941
3  9404 9407 9147
3  12942 9406 12940
3  9402 9404 8860
3  9402 9399 12943
3  9399 9402 9145
3  9399 9397 12944
3  9397 9399 9144
3  9397 9394 12945
3  9394 9397 9143
3  9394 9391 12946
3  9391 9394 9142
3  9391 9387 12947
3  9387 9391 9141
3  9387 12948 12950
3  12948 9387 9140
3  12948 11802 12951
3  11802 12948 9139
3  11802 9384 12949
3  9384 11802 9138
3  9384 9381 12952
3  9381 9384 9137
3  9381 9378 12953
3  9378 9381 9136
3  9378 9375 12954
3  9375 9378 9135
3  9375 9372 12955
3  9372 9375 9134
3  9372 9369 12956
3  9369 9372 9133
3  9369 9366 12957
3  9366 9369 9132
3  9366 9363 12958
3  9363 9366 9131
3  9363 9360 12959
3  9360 9363 8888
3  12960 9362 9365
3  9357 9360 8890
3  12962 12961 9362
3  9354 9357 8892
3  9354 9358 12964
3  9358 9354 9061
3  12963 8885 9129
3  11804 9358 9128
3  11804 9351 12965
3  9351 11804 9127
3  9351 9348 12966
3  9348 9351 9126
3  12967 9350 11803
3  9346 9348 9125
3  9346 9344 12969
3  9344 9346 9124
3  9344 9341 12971
3  9341 9344 9123
3  12972 9343 12970
3  9338 9341 8904
3  9338 9335 12973
3  9335 9338 9121
3  9335 9332 12974
3  9332 9335 9120
3  9332 9329 12975
3  9329 9332 9119
3  9329 9327 12976
3  9327 9329 9118
3  9327 9323 12977
3  9323 9327 9117
3  9323 12978 12980
3  12978 9323 9116
3  12978 11806 12981
3  11806 12978 9115
3  11806 9321 12979
3  9321 11806 9114
3  9321 9318 12982
3  9318 9321 9113
3  9318 9315 12983
3  9315 9318 9112
3  9315 9312 12984
3  9312 9315 9111
3  9312 9309 12985
3  9309 9312 9110
3  9309 9306 12986
3  9306 9309 9109
3  9306 9303 12987
3  9303 9306 9108
3  9303 9300 12988
3  9300 9303 9107
3  9300 9297 12989
3  9297 9300 9106
3  9297 9294 12990
3  9294 9297 9105
3  9294 9291 12991
3  9291 9294 8934
3  12994 9102 9296
3  12992 9291 9080
3  12993 9103 9102
3  11808 12992 9081
3  11808 9288 12995
3  9288 11808 8937
3  12996 9292 11807
3  9285 9288 9099
3  9285 9282 12997
3  9282 9285 9098
3  9282 9279 12998
3  9279 9282 9097
3  5142 9281 9284
3  5143 9279 9096
3  5141 9089 9095
3  9091 8942 9089
3  9091 5141 5143
3  5141 9095 9281
3  5141 9091 9089
3  5142 9279 5143
3  5142 5141 9281
3  12998 9284 9287
3  12998 5142 9284
3  12997 9287 9292
3  12997 12998 9287
3  12996 9288 9285
3  12996 12997 9292
3  12995 12993 11808
3  12995 12996 11807
3  12993 12992 11808
3  12993 12995 9103
3  12994 9291 12992
3  12994 12993 9102
3  12991 9296 9299
3  12991 12994 9296
3  12990 9299 9302
3  12990 12991 9299
3  12989 9302 9305
3  12989 12990 9302
3  12988 9305 9308
3  12988 12989 9305
3  12987 9308 9311
3  12987 12988 9308
3  12986 9311 9314
3  12986 12987 9311
3  12985 9314 9317
3  12985 12986 9314
3  12984 9317 9320
3  12984 12985 9317
3  12983 9320 11805
3  12983 12984 9320
3  12982 11805 9324
3  12982 12983 11805
3  12979 12981 11806
3  12979 12982 9324
3  12981 12980 12978
3  12981 12979 8914
3  12980 9326 9328
3  12980 12981 9326
3  12977 9328 9331
3  12977 12980 9328
3  12976 9331 9334
3  12976 12977 9331
3  12975 9334 9337
3  12975 12976 9334
3  12974 9337 9340
3  12974 12975 9337
3  12973 9340 9343
3  12973 12974 9340
3  12972 9341 9338
3  12972 12973 9343
3  12971 12970 12968
3  12971 12972 12970
3  12969 12968 9350
3  12969 12971 12968
3  12967 9348 9346
3  12967 12969 9350
3  12966 11803 9355
3  12966 12967 11803
3  12965 12963 11804
3  12965 12966 9355
3  12963 9358 11804
3  12963 12965 8885
3  12964 9129 12961
3  12964 12963 9129
3  12962 9357 9354
3  12962 12964 12961
3  12960 9360 9357
3  12960 12962 9362
3  12959 9365 9368
3  12959 12960 9365
3  12958 9368 9371
3  12958 12959 9368
3  12957 9371 9374
3  12957 12958 9371
3  12956 9374 9377
3  12956 12957 9374
3  12955 9377 9380
3  12955 12956 9377
3  12954 9380 9383
3  12954 12955 9380
3  12953 9383 11801
3  12953 12954 9383
3  12952 11801 9388
3  12952 12953 11801
3  12949 12951 11802
3  12949 12952 9388
3  12951 12950 12948
3  12951 12949 8867
3  12950 9390 9393
3  12950 12951 9390
3  12947 9393 9396
3  12947 12950 9393
3  12946 9396 9398
3  12946 12947 9396
3  12945 9398 9401
3  12945 12946 9398
3  12944 9401 9403
3  12944 12945 9401
3  12943 9403 9406
3  12943 12944 9403
3  12942 9404 9402
3  12942 12943 9406
3  12941 12940 12938
3  12941 12942 12940
3  12939 12938 9413
3  12939 12941 12938
3  12937 9411 9409
3  12937 12939 9413
3  12936 11799 9418
3  12936 12937 11799
3  12933 12935 11800
3  12933 12936 9418
3  12935 12934 12932
3  12935 12933 8845
3  12934 9420 9423
3  12934 12935 9420
3  12931 9423 9426
3  12931 12934 9423
3  12930 9426 9429
3  12930 12931 9426
3  12929 9427 9424
3  12929 12930 9429
3  12928 12927 12925
3  12928 12929 12927
3  12926 9432 9430
3  12926 12928 12925
3  12924 9434 9432
3  12924 12926 9436
3  12923 9439 9442
3  12923 12924 9439
3  12922 9442 9445
3  12922 12923 9442
3  12921 9445 11797
3  12921 12922 9445
3  12920 11797 9450
3  12920 12921 11797
3  12917 12919 11798
3  12917 12920 9450
3  12919 12918 12916
3  12919 12917 8822
3  12918 9452 9455
3  12918 12919 9452
3  12915 9455 9458
3  12915 12918 9455
3  12914 9458 9461
3  12914 12915 9458
3  12913 9461 9464
3  12913 12914 9461
3  12912 9464 9467
3  12912 12913 9464
3  12911 9467 9470
3  12911 12912 9467
3  12910 9470 9473
3  12910 12911 9470
3  12909 9473 9475
3  12909 12910 9473
3  12908 9474 9471
3  12908 12909 9475
3  12907 12906 11809
3  12907 12908 12906
3  12905 11809 11796
3  12905 12907 11809
3  12903 12905 11796
3  12903 11795 9477
3  9178 12904 12902
3  9178 12903 8800
3  12904 9177 9483
3  12904 9178 9177
3  12901 9483 9486
3  12901 12904 9483
3  12900 9486 9489
3  12900 12901 9486
3  12899 9489 9492
3  12899 12900 9489
3  12898 9492 9495
3  12898 12899 9492
3  12897 9493 9490
3  12897 12898 9495
3  12896 12895 12893
3  12896 12897 12895
3  12894 9498 9496
3  12894 12896 12893
3  12892 9500 9498
3  12892 12894 9502
3  12891 9505 11793
3  12891 12892 9505
3  12890 11793 9510
3  12890 12891 11793
3  12887 12889 11794
3  12887 12890 9510
3  12889 12888 12886
3  12889 12887 8779
3  12888 9512 9515
3  12888 12889 9512
3  12885 9515 9518
3  12885 12888 9515
3  12884 9518 9521
3  12884 12885 9518
3  12883 9521 9524
3  12883 12884 9521
3  12882 9524 9527
3  12882 12883 9524
3  12881 9527 9530
3  12881 12882 9527
3  12880 9530 9533
3  12880 12881 9530
3  12879 9533 9536
3  12879 12880 9533
3  12878 9536 9539
3  12878 12879 9536
3  12877 9539 11792
3  12877 12878 9539
3  12876 9540 9537
3  12876 12877 11792
3  12875 12873 11810
3  12875 12876 9544
3  12873 9205 9204
3  12873 12875 9205
3  12874 9543 12872
3  12874 12873 9204
3  12871 9547 9549
3  12871 12874 9547
3  12870 9549 9551
3  12870 12871 9549
3  12869 9551 9554
3  12869 12870 9551
3  12868 9554 9557
3  12868 12869 9554
3  12867 9557 9560
3  12867 12868 9557
3  12866 9560 9563
3  12866 12867 9560
3  12865 9561 9558
3  12865 12866 9563
3  12864 12863 12861
3  12864 12865 12863
3  12862 9566 9564
3  12862 12864 12861
3  12860 9568 9566
3  12860 12862 9572
3  12857 12859 11791
3  12857 12860 11790
3  12859 12858 12856
3  12859 12857 8736
3  12858 9574 9577
3  12858 12859 9574
3  12855 9577 9580
3  12855 12858 9577
3  12854 9580 9583
3  12854 12855 9580
3  12853 9583 9586
3  12853 12854 9583
3  12852 9586 9589
3  12852 12853 9586
3  12851 9589 9592
3  12851 12852 9589
3  12850 9592 9595
3  12850 12851 9592
3  12849 9595 9598
3  12849 12850 9595
3  12848 9598 9601
3  12848 12849 9598
3  12847 9601 11788
3  12847 12848 9601
3  12846 11788 9606
3  12846 12847 11788
3  12844 9231 11789
3  12844 12846 9606
3  9231 12844 5320
3  9231 9609 11789
3  12845 9230 12842
3  12845 9231 9230
3  12843 12842 9613
3  12843 12845 12842
3  12841 9611 9608
3  12841 12843 9613
3  12840 9616 9619
3  12840 12841 9616
3  12839 9619 9621
3  12839 12840 9619
3  12838 9621 9623
3  12838 12839 9621
3  12837 9623 9625
3  12837 12838 9623
3  12836 9625 9628
3  12836 12837 9625
3  12835 9628 9631
3  12835 12836 9628
3  12834 9629 9626
3  12834 12835 9631
3  12833 12832 11811
3  12833 12834 12832
3  12831 9634 9632
3  12831 12833 11811
3  12828 12831 11786
3  12828 11787 9634
3  12830 12829 12827
3  12830 12828 8692
3  12829 9639 9642
3  12829 12830 9639
3  12826 9642 9645
3  12826 12829 9642
3  12825 9645 9648
3  12825 12826 9645
3  12824 9648 9651
3  12824 12825 9648
3  12823 9651 9654
3  12823 12824 9651
3  12822 9654 9657
3  12822 12823 9654
3  12821 9657 9660
3  12821 12822 9657
3  12820 9660 9663
3  12820 12821 9660
3  12819 9663 9666
3  12819 12820 9663
3  12818 9666 11784
3  12818 12819 9666
3  12817 11784 9671
3  12817 12818 11784
3  12814 12816 11785
3  12814 12817 9671
3  12816 12815 12813
3  12816 12814 8671
3  12815 9673 9676
3  12815 12816 9673
3  12812 9674 9670
3  12812 12815 9676
3  12811 12810 12808
3  12811 12812 12810
3  12809 12808 9683
3  12809 12811 12808
3  12807 9681 9679
3  12807 12809 9683
3  12806 9686 9689
3  12806 12807 9686
3  12805 9689 9692
3  12805 12806 9689
3  12804 9692 9694
3  12804 12805 9692
3  12803 9694 9696
3  12803 12804 9694
3  12802 9696 9700
3  12802 12803 9696
3  12801 9697 9695
3  12801 12802 9700
3  12800 12798 11812
3  12800 12801 11783
3  12798 12797 11812
3  12798 12800 9269
3  12799 9699 12797
3  12799 12798 9268
3  12796 9704 9707
3  12796 12799 9704
3  12795 9707 9710
3  12795 12796 9707
3  12794 9710 9713
3  12794 12795 9710
3  12793 9713 9716
3  12793 12794 9713
3  12792 9716 9719
3  12792 12793 9716
3  12791 9719 9722
3  12791 12792 9719
3  12790 9722 9725
3  12790 12791 9722
3  12789 9725 9728
3  12789 12790 9725
3  12788 9728 9731
3  12788 12789 9728
3  12787 9731 11781
3  12787 12788 9731
3  12786 11781 9736
3  12786 12787 11781
3  12783 12785 11782
3  12783 12786 9736
3  12785 12784 12782
3  12785 12783 8629
3  12784 9738 9741
3  12784 12785 9738
3  12781 9741 9744
3  12781 12784 9741
3  12780 9742 9739
3  12780 12781 9744
3  12779 12778 12776
3  12779 12780 12778
3  12777 12776 9751
3  12777 12779 12776
3  12775 9749 9747
3  12775 12777 9751
3  12774 9754 9757
3  12774 12775 9754
3  12773 9757 9760
3  12773 12774 9757
3  12772 9760 9763
3  12772 12773 9760
3  12771 9763 9767
3  12771 12772 9763
3  12770 9767 11780
3  12770 12771 9767
3  12767 12770 11780
3  12767 11813 9764
3  12769 12768 9769
3  12769 12767 11779
3  12768 9766 9769
3  12768 12769 12766
3  12765 9768 9766
3  12765 12768 9770
3  12764 9773 9776
3  12764 12765 9773
3  12763 9776 9779
3  12763 12764 9776
3  12762 9779 9782
3  12762 12763 9779
3  12761 9782 9785
3  12761 12762 9782
3  12760 9785 9788
3  12760 12761 9785
3  12759 9788 9791
3  12759 12760 9788
3  12758 9791 9794
3  12758 12759 9791
3  12757 9794 11777
3  12757 12758 9794
3  12756 11777 9799
3  12756 12757 11777
3  12753 12755 11778
3  12753 12756 9799
3  12755 12754 12752
3  12755 12753 8586
3  12754 9801 9804
3  12754 12755 9801
3  12751 9804 9807
3  12751 12754 9804
3  12750 9807 9810
3  12750 12751 9807
3  12749 9810 9812
3  12749 12750 9810
3  12748 9811 9808
3  12748 12749 9812
3  12747 12746 12744
3  12747 12748 12746
3  12745 12744 9819
3  12745 12747 12744
3  12743 9817 9815
3  12743 12745 9819
3  12742 9822 9825
3  12742 12743 9822
3  12741 9825 9828
3  12741 12742 9825
3  12740 9828 11775
3  12740 12741 9828
3  12739 11775 9833
3  12739 12740 11775
3  12738 12736 11776
3  12738 12739 9833
3  12736 9836 11776
3  12736 12738 8556
3  12737 9400 12734
3  12737 12736 9400
3  12735 9835 9832
3  12735 12737 12734
3  12733 9838 9835
3  12733 12735 9840
3  12732 9842 9844
3  12732 12733 9842
3  12731 9844 9846
3  12731 12732 9844
3  12730 9846 9849
3  12730 12731 9846
3  12729 9849 9852
3  12729 12730 9849
3  12728 9852 9855
3  12728 12729 9852
3  12727 9855 9858
3  12727 12728 9855
3  12726 9858 9861
3  12726 12727 9858
3  12725 9861 11773
3  12725 12726 9861
3  12724 11773 9866
3  12724 12725 11773
3  12721 12723 11774
3  12721 12724 9866
3  12723 12722 12720
3  12723 12721 8539
3  12722 9868 9871
3  12722 12723 9868
3  12719 9871 9874
3  12719 12722 9871
3  12718 9874 9877
3  12718 12719 9874
3  12717 9877 9880
3  12717 12718 9877
3  12716 9878 9875
3  12716 12717 9880
3  12715 12714 12712
3  12715 12716 12714
3  12713 12712 9887
3  12713 12715 12712
3  12711 9885 9883
3  12711 12713 9887
3  12710 9890 9893
3  12710 12711 9890
3  12709 9893 11771
3  12709 12710 9893
3  12708 11771 9898
3  12708 12709 11771
3  12705 12707 11772
3  12705 12708 9898
3  12707 12706 12704
3  12707 12705 8515
3  12706 9900 9903
3  12706 12707 9900
3  12703 9901 9897
3  12703 12706 9903
3  12702 12701 12699
3  12702 12703 12701
3  12700 9906 9904
3  12700 12702 12699
3  12698 9908 9906
3  12698 12700 9910
3  12697 9913 9915
3  12697 12698 9913
3  12696 9915 9917
3  12696 12697 9915
3  12695 9917 9919
3  12695 12696 9917
3  12694 9919 9922
3  12694 12695 9919
3  12693 9922 9925
3  12693 12694 9922
3  12692 9925 11769
3  12692 12693 9925
3  12691 11769 9930
3  12691 12692 11769
3  12688 12690 11770
3  12688 12691 9930
3  12690 12689 12687
3  12690 12688 8490
3  12689 9932 9935
3  12689 12690 9932
3  12686 9935 9938
3  12686 12689 9935
3  12685 9938 9941
3  12685 12686 9938
3  12684 9941 9944
3  12684 12685 9941
3  12683 9942 9939
3  12683 12684 9944
3  12682 12681 12679
3  12682 12683 12681
3  12680 12679 9951
3  12680 12682 12679
3  12678 9949 9947
3  12678 12680 9951
3  12677 9954 9957
3  12677 12678 9954
3  12676 9957 9960
3  12676 12677 9957
3  12675 9960 11767
3  12675 12676 9960
3  12674 11767 9965
3  12674 12675 11767
3  12671 12673 11768
3  12671 12674 9965
3  12673 12672 12670
3  12673 12671 8467
3  12672 9967 9970
3  12672 12673 9967
3  12669 9970 9973
3  12669 12672 9970
3  12668 9971 9968
3  12668 12669 9973
3  12667 12666 12664
3  12667 12668 12666
3  12665 9976 9974
3  12665 12667 12664
3  12663 9978 9976
3  12663 12665 9980
3  12662 9983 9986
3  12662 12663 9983
3  12661 9986 9988
3  12661 12662 9986
3  12660 9988 9991
3  12660 12661 9988
3  12659 9991 11765
3  12659 12660 9991
3  12658 11765 9995
3  12658 12659 11765
3  12655 12657 11766
3  12655 12658 9995
3  12657 12656 12654
3  12657 12655 8445
3  12656 9997 10000
3  12656 12657 9997
3  12653 10000 10003
3  12653 12656 10000
3  12652 10003 10006
3  12652 12653 10003
3  12651 10006 10009
3  12651 12652 10006
3  12650 10009 10012
3  12650 12651 10009
3  12649 10010 10007
3  12649 12650 10012
3  12648 12647 12645
3  12648 12649 12647
3  12646 12645 10019
3  12646 12648 12645
3  12644 10017 10015
3  12644 12646 10019
3  12643 10022 10025
3  12643 12644 10022
3  12642 10025 11763
3  12642 12643 10025
3  12641 11763 10030
3  12641 12642 11763
3  12638 12640 11764
3  12638 12641 10030
3  12640 12639 12637
3  12640 12638 8422
3  12639 10032 10035
3  12639 12640 10032
3  12636 10035 10038
3  12636 12639 10035
3  12635 10038 10041
3  12635 12636 10038
3  12634 10039 10036
3  12634 12635 10041
3  12633 12632 12630
3  12633 12634 12632
3  12631 10044 10042
3  12631 12633 12630
3  12629 10046 10044
3  12629 12631 10048
3  12628 10051 10054
3  12628 12629 10051
3  12627 10054 10057
3  12627 12628 10054
3  12626 10057 10060
3  12626 12627 10057
3  12625 10060 11761
3  12625 12626 10060
3  12624 11761 10064
3  12624 12625 11761
3  12621 12623 11762
3  12621 12624 10064
3  12623 12622 12620
3  12623 12621 8396
3  12622 10065 10068
3  12622 12623 10065
3  12619 10068 10071
3  12619 12622 10068
3  12618 10071 10074
3  12618 12619 10071
3  12617 10074 10077
3  12617 12618 10074
3  12616 10077 10080
3  12616 12617 10077
3  12615 10080 10083
3  12615 12616 10080
3  12614 10081 10078
3  12614 12615 10083
3  12613 12612 12610
3  12613 12614 12612
3  12611 12610 10090
3  12611 12613 12610
3  12609 10088 10086
3  12609 12611 10090
3  12608 10093 11759
3  12608 12609 10093
3  12607 11759 10098
3  12607 12608 11759
3  12604 12606 11760
3  12604 12607 10098
3  12606 12605 12603
3  12606 12604 8373
3  12605 10100 10103
3  12605 12606 10100
3  12602 10103 10106
3  12602 12605 10103
3  12601 10106 10109
3  12601 12602 10106
3  12600 10107 10104
3  12600 12601 10109
3  12599 12598 12596
3  12599 12600 12598
3  12597 10112 10110
3  12597 12599 12596
3  12595 10114 10112
3  12595 12597 10116
3  12594 10119 10122
3  12594 12595 10119
3  12593 10122 10125
3  12593 12594 10122
3  12592 10125 10128
3  12592 12593 10125
3  12591 10128 11757
3  12591 12592 10128
3  12590 11757 10133
3  12590 12591 11757
3  12587 12589 11758
3  12587 12590 10133
3  12589 12588 12586
3  12589 12587 8346
3  12588 10134 10137
3  12588 12589 10134
3  12585 10137 10139
3  12585 12588 10137
3  12584 10139 10142
3  12584 12585 10139
3  12583 10142 10145
3  12583 12584 10142
3  12582 10145 10148
3  12582 12583 10145
3  12581 10148 10151
3  12581 12582 10148
3  12580 10149 10146
3  12580 12581 10151
3  12579 12578 12576
3  12579 12580 12578
3  12577 12576 10158
3  12577 12579 12576
3  12575 10156 10154
3  12575 12577 10158
3  12574 10161 10164
3  12574 12575 10161
3  12573 10164 11755
3  12573 12574 10164
3  12572 11755 10169
3  12572 12573 11755
3  12569 12571 11756
3  12569 12572 10169
3  12571 12570 12568
3  12571 12569 8318
3  12570 10170 10172
3  12570 12571 10170
3  12567 10172 10175
3  12567 12570 10172
3  12566 10173 10171
3  12566 12567 10175
3  12565 12564 12562
3  12565 12566 12564
3  12563 10177 10176
3  12563 12565 12562
3  12561 10181 10177
3  12561 12563 10183
3  12560 10186 10189
3  12560 12561 10186
3  12559 10189 10192
3  12559 12560 10189
3  12558 10192 10195
3  12558 12559 10192
3  12557 10195 10198
3  12557 12558 10195
3  12556 10198 11753
3  12556 12557 10198
3  12555 11753 10203
3  12555 12556 11753
3  12552 12554 11754
3  12552 12555 10203
3  12554 12553 12551
3  12554 12552 8291
3  12553 10205 10208
3  12553 12554 10205
3  12550 10208 10210
3  12550 12553 10208
3  12549 10210 10212
3  12549 12550 10210
3  12548 10212 10214
3  12548 12549 10212
3  12547 10213 10211
3  12547 12548 10214
3  12546 10215 10213
3  12546 12547 12545
3  12544 12543 10222
3  12544 12546 12543
3  12542 10222 10225
3  12542 12544 10222
3  12541 10223 10220
3  12541 12542 10225
3  12540 10226 10223
3  12540 12541 12539
3  12538 10230 11751
3  12538 12540 10230
3  12537 11751 10235
3  12537 12538 11751
3  12534 12536 11752
3  12534 12537 10235
3  12536 12535 12533
3  12536 12534 8265
3  12535 10237 10240
3  12535 12536 10237
3  12532 10240 10243
3  12532 12535 10240
3  12531 10243 10246
3  12531 12532 10243
3  12530 10244 10241
3  12530 12531 10246
3  12529 12528 12526
3  12529 12530 12528
3  12527 10249 10247
3  12527 12529 12526
3  12525 10251 10249
3  12525 12527 10253
3  12524 10256 10259
3  12524 12525 10256
3  12523 10259 10262
3  12523 12524 10259
3  12522 10262 10265
3  12522 12523 10262
3  12521 10265 11749
3  12521 12522 10265
3  12520 11749 10270
3  12520 12521 11749
3  12517 12519 11750
3  12517 12520 10270
3  12519 12518 12516
3  12519 12517 8240
3  12518 10272 10275
3  12518 12519 10272
3  12515 10275 10278
3  12515 12518 10275
3  12514 10278 10280
3  12514 12515 10278
3  12513 10280 10282
3  12513 12514 10280
3  12512 10282 10284
3  12512 12513 10282
3  12511 10283 10281
3  12511 12512 10284
3  12510 12509 12507
3  12510 12511 12509
3  12508 12507 10291
3  12508 12510 12507
3  12506 10289 10287
3  12506 12508 10291
3  12505 10294 10297
3  12505 12506 10294
3  12504 10297 10300
3  12504 12505 10297
3  12503 10300 11747
3  12503 12504 10300
3  12502 11747 10305
3  12502 12503 11747
3  12499 12501 11748
3  12499 12502 10305
3  12501 12500 12498
3  12501 12499 8215
3  12500 10307 10310
3  12500 12501 10307
3  12497 10310 10313
3  12497 12500 10310
3  12496 10311 10308
3  12496 12497 10313
3  12495 12494 12492
3  12495 12496 12494
3  12493 10316 10314
3  12493 12495 12492
3  12491 10318 10316
3  12491 12493 10320
3  12490 10323 10326
3  12490 12491 10323
3  12489 10326 10329
3  12489 12490 10326
3  12488 10329 10332
3  12488 12489 10329
3  12487 10332 10335
3  12487 12488 10332
3  12486 10335 11745
3  12486 12487 10335
3  12485 11745 10340
3  12485 12486 11745
3  12482 12484 11746
3  12482 12485 10340
3  12484 12483 12481
3  12484 12482 8190
3  12483 10342 10345
3  12483 12484 10342
3  12480 10345 10348
3  12480 12483 10345
3  12479 10348 10351
3  12479 12480 10348
3  12478 10349 10346
3  12478 12479 10351
3  12477 12476 12474
3  12477 12478 12476
3  12475 12474 10357
3  12475 12477 12474
3  12473 10355 10354
3  12473 12475 10357
3  12472 10360 10363
3  12472 12473 10360
3  12471 10363 10366
3  12471 12472 10363
3  12470 10366 10369
3  12470 12471 10366
3  12469 10369 10372
3  12469 12470 10369
3  12468 10372 11743
3  12468 12469 10372
3  12467 11743 10377
3  12467 12468 11743
3  12464 12466 11744
3  12464 12467 10377
3  12466 12465 12463
3  12466 12464 8165
3  12465 10379 10382
3  12465 12466 10379
3  12462 10380 10376
3  12462 12465 10382
3  12461 12460 10387
3  12461 12462 12460
3  12459 10387 12457
3  12459 12461 10387
3  12458 10388 10385
3  12458 12459 12457
3  12456 10392 10395
3  12456 12458 10392
3  12455 10395 10398
3  12455 12456 10395
3  12454 10398 10401
3  12454 12455 10398
3  12453 10401 10404
3  12453 12454 10401
3  12452 10404 10407
3  12452 12453 10404
3  12451 10407 10410
3  12451 12452 10407
3  12450 10410 11741
3  12450 12451 10410
3  12449 11741 10415
3  12449 12450 11741
3  12446 12448 11742
3  12446 12449 10415
3  12448 12447 12445
3  12448 12446 8135
3  12447 10417 10420
3  12447 12448 10417
3  12444 10420 10423
3  12444 12447 10420
3  12443 10421 10418
3  12443 12444 10423
3  12442 12441 12439
3  12442 12443 12441
3  12440 12439 10428
3  12440 12442 12439
3  12438 10427 10426
3  12438 12440 10428
3  12437 10430 10433
3  12437 12438 10430
3  12436 10433 10436
3  12436 12437 10433
3  12435 10436 10439
3  12435 12436 10436
3  12434 10439 10442
3  12434 12435 10439
3  12433 10442 10445
3  12433 12434 10442
3  12432 10445 11739
3  12432 12433 10445
3  12431 11739 10450
3  12431 12432 11739
3  12430 12428 11740
3  12430 12431 10450
3  12428 10453 11740
3  12428 12430 8103
3  12429 10062 12426
3  12429 12428 10062
3  12427 10452 10449
3  12427 12429 12426
3  12425 10455 10452
3  12425 12427 10457
3  12424 10460 10463
3  12424 12425 10460
3  12423 10463 10466
3  12423 12424 10463
3  12422 10466 10469
3  12422 12423 10466
3  12421 10469 10472
3  12421 12422 10469
3  12420 10472 10475
3  12420 12421 10472
3  12419 10475 10478
3  12419 12420 10475
3  12418 10478 10481
3  12418 12419 10478
3  12417 10481 11737
3  12417 12418 10481
3  12416 11737 10486
3  12416 12417 11737
3  12413 12415 11738
3  12413 12416 10486
3  12415 12414 12412
3  12415 12413 8085
3  12414 10488 10491
3  12414 12415 10488
3  12411 10489 10485
3  12411 12414 10491
3  12410 12409 12407
3  12410 12411 12409
3  12408 12407 10498
3  12408 12410 12407
3  12406 10496 10494
3  12406 12408 10498
3  12405 10500 10503
3  12405 12406 10500
3  12404 10503 10506
3  12404 12405 10503
3  12403 10506 10511
3  12403 12404 10506
3  12402 10511 10514
3  12402 12403 10511
3  12401 10514 10517
3  12401 12402 10514
3  12400 10517 10520
3  12400 12401 10517
3  12399 10520 10525
3  12399 12400 10520
3  12398 10525 11736
3  12398 12399 10525
3  12395 12398 11736
3  12395 11814 10521
3  12397 12396 10528
3  12397 12395 11735
3  12396 10524 10528
3  12396 12397 12394
3  12393 10527 10524
3  12393 12396 10530
3  12392 10533 10536
3  12392 12393 10533
3  12391 10536 10539
3  12391 12392 10536
3  12390 10539 10542
3  12390 12391 10539
3  12389 10542 10545
3  12389 12390 10542
3  12388 10545 10548
3  12388 12389 10545
3  12387 10548 10551
3  12387 12388 10548
3  12386 10551 10555
3  12386 12387 10551
3  12385 10555 10558
3  12385 12386 10555
3  12384 10558 10561
3  12384 12385 10558
3  12383 10561 10564
3  12383 12384 10561
3  12382 10564 11733
3  12382 12383 10564
3  12381 11733 10569
3  12381 12382 11733
3  12379 10179 11734
3  12379 12381 10569
3  10179 12379 8022
3  10179 10572 11734
3  12380 10178 10574
3  12380 10179 10178
3  12378 10574 12376
3  12378 12380 10574
3  12377 10575 10571
3  12377 12378 12376
3  12375 10579 10582
3  12375 12377 10579
3  12374 10582 10584
3  12374 12375 10582
3  12373 10584 10586
3  12373 12374 10584
3  12372 10586 10588
3  12372 12373 10586
3  12371 10588 10590
3  12371 12372 10588
3  12370 10590 10593
3  12370 12371 10590
3  12369 10593 10596
3  12369 12370 10593
3  12368 10596 10599
3  12368 12369 10596
3  12367 10597 10594
3  12367 12368 10599
3  12366 11815 11731
3  12366 12367 11815
3  12363 12366 11731
3  12363 11732 10600
3  12365 12363 7998
3  12365 12362 11732
3  12364 10218 10607
3  12364 12365 10218
3  12361 10607 10610
3  12361 12364 10607
3  12360 10610 10613
3  12360 12361 10610
3  12359 10613 10616
3  12359 12360 10613
3  12358 10616 10619
3  12358 12359 10616
3  12357 10619 10622
3  12357 12358 10619
3  12356 10622 10625
3  12356 12357 10622
3  12355 10625 10628
3  12355 12356 10625
3  12354 10628 10630
3  12354 12355 10628
3  12353 10630 10632
3  12353 12354 10630
3  12352 10632 10634
3  12352 12353 10632
3  12351 10633 10631
3  12351 12352 10634
3  12350 11816 11729
3  12350 12351 11816
3  12347 12349 11730
3  12347 12350 11729
3  12349 12347 7974
3  12349 12346 11730
3  12348 10644 10647
3  12348 12349 10644
3  12345 10647 10650
3  12345 12348 10647
3  12344 10650 10653
3  12344 12345 10650
3  12343 10653 10656
3  12343 12344 10653
3  12342 10656 10659
3  12342 12343 10656
3  12341 10659 10662
3  12341 12342 10659
3  12340 10662 10665
3  12340 12341 10662
3  12339 10665 10668
3  12339 12340 10665
3  12338 10666 10663
3  12338 12339 10668
3  12337 12336 12334
3  12337 12338 12336
3  12335 10670 10669
3  12335 12337 12334
3  12333 10671 10670
3  12333 12335 10673
3  12332 10676 11727
3  12332 12333 10676
3  12331 11727 10681
3  12331 12332 11727
3  12328 12330 11728
3  12328 12331 10681
3  12330 12329 12327
3  12330 12328 7945
3  12329 10683 10686
3  12329 12330 10683
3  12326 10686 10689
3  12326 12329 10686
3  12325 10689 10692
3  12325 12326 10689
3  12324 10692 10695
3  12324 12325 10692
3  12323 10695 10698
3  12323 12324 10695
3  12322 10698 10700
3  12322 12323 10698
3  12321 10700 10702
3  12321 12322 10700
3  12320 10702 10704
3  12320 12321 10702
3  12319 10703 10701
3  12319 12320 10704
3  12318 12317 12315
3  12318 12319 12317
3  12316 12315 10711
3  12316 12318 12315
3  12314 10709 10707
3  12314 12316 10711
3  12313 11725 10716
3  12313 12314 11725
3  12310 12312 11726
3  12310 12313 10716
3  12312 12311 12309
3  12312 12310 7918
3  12311 10718 10721
3  12311 12312 10718
3  12308 10721 10724
3  12308 12311 10721
3  12307 10724 10727
3  12307 12308 10724
3  12306 10727 10730
3  12306 12307 10727
3  12305 10730 10733
3  12305 12306 10730
3  12304 10731 10728
3  12304 12305 10733
3  12303 10734 10731
3  12303 12304 12302
3  12301 10736 10738
3  12301 12303 10736
3  12300 10738 12298
3  12300 12301 10738
3  12299 10739 10737
3  12299 12300 12298
3  12297 10741 10739
3  12297 12299 12296
3  12295 10745 10748
3  12295 12297 10745
3  12294 10748 11723
3  12294 12295 10748
3  12293 11723 10753
3  12293 12294 11723
3  12290 12292 11724
3  12290 12293 10753
3  12292 12291 12289
3  12292 12290 7891
3  12291 10755 10758
3  12291 12292 10755
3  12288 10758 10761
3  12288 12291 10758
3  12287 10761 10764
3  12287 12288 10761
3  12286 10764 10767
3  12286 12287 10764
3  12285 10767 10769
3  12285 12286 10767
3  12284 10769 10773
3  12284 12285 10769
3  12283 10770 10768
3  12283 12284 10773
3  12282 12281 12279
3  12282 12283 12281
3  12280 12279 10780
3  12280 12282 12279
3  12278 10778 10777
3  12278 12280 10780
3  12277 10783 10786
3  12277 12278 10783
3  12276 10786 10789
3  12276 12277 10786
3  12275 10789 11721
3  12275 12276 10789
3  12274 11721 10794
3  12274 12275 11721
3  12271 12273 11722
3  12271 12274 10794
3  12273 12272 12270
3  12273 12271 7863
3  12272 10796 10799
3  12272 12273 10796
3  12269 10797 10793
3  12269 12272 10799
3  12268 12267 12265
3  12268 12269 12267
3  12266 10802 10800
3  12266 12268 12265
3  12264 10804 10802
3  12264 12266 10806
3  12263 10809 10811
3  12263 12264 10809
3  12262 10811 10813
3  12262 12263 10811
3  12261 10813 10815
3  12261 12262 10813
3  12260 10815 10819
3  12260 12261 10815
3  12259 10819 10822
3  12259 12260 10819
3  12258 10822 10825
3  12258 12259 10822
3  12257 10825 10828
3  12257 12258 10825
3  12256 10828 11719
3  12256 12257 10828
3  12255 11719 10833
3  12255 12256 11719
3  12252 12254 11720
3  12252 12255 10833
3  12254 12253 12251
3  12254 12252 7833
3  12253 10835 10838
3  12253 12254 10835
3  12250 10838 10841
3  12250 12253 10838
3  12249 10839 10836
3  12249 12250 10841
3  12248 12247 12245
3  12248 12249 12247
3  12246 12245 10847
3  12246 12248 12245
3  12244 10846 10844
3  12244 12246 10847
3  12243 10849 10852
3  12243 12244 10849
3  12242 10852 10855
3  12242 12243 10852
3  12241 10855 10858
3  12241 12242 10855
3  12240 10858 10861
3  12240 12241 10858
3  12239 10861 10864
3  12239 12240 10861
3  12238 10864 10867
3  12238 12239 10864
3  12237 10867 10872
3  12237 12238 10867
3  12236 10868 10865
3  12236 12237 10872
3  12235 12233 11817
3  12235 12236 11718
3  12233 12232 11817
3  12233 12235 10509
3  12234 10871 12232
3  12234 12233 10508
3  12231 10876 10879
3  12231 12234 10876
3  12230 10879 10882
3  12230 12231 10879
3  12229 10882 10884
3  12229 12230 10882
3  12228 10884 10886
3  12228 12229 10884
3  12227 10886 10889
3  12227 12228 10886
3  12226 10889 10892
3  12226 12227 10889
3  12225 10892 10895
3  12225 12226 10892
3  12224 10895 10898
3  12224 12225 10895
3  12223 10898 10901
3  12223 12224 10898
3  12222 10901 10904
3  12222 12223 10901
3  12221 10904 10907
3  12221 12222 10904
3  12220 10907 10912
3  12220 12221 10907
3  12219 10912 11717
3  12219 12220 10912
3  12216 12219 11717
3  12216 11818 10908
3  12218 12217 10915
3  12218 12216 11716
3  12217 12215 10917
3  12217 12218 12215
3  12214 10914 10911
3  12214 12217 10917
3  12213 10920 10922
3  12213 12214 10920
3  12212 10922 10924
3  12212 12213 10922
3  12211 10924 10927
3  12211 12212 10924
3  12210 10927 10930
3  12210 12211 10927
3  12209 10930 10933
3  12209 12210 10930
3  12208 10933 10936
3  12208 12209 10933
3  12207 10936 10939
3  12207 12208 10936
3  12206 10939 10942
3  12206 12207 10939
3  12205 10940 10937
3  12205 12206 10942
3  12204 12203 12201
3  12204 12205 12203
3  12202 10945 10943
3  12202 12204 12201
3  12200 10947 10945
3  12200 12202 10949
3  12199 11714 10953
3  12199 12200 11714
3  12196 12198 11715
3  12196 12199 10953
3  12198 12197 12195
3  12198 12196 7751
3  12197 10955 10957
3  12197 12198 10955
3  12194 10957 10959
3  12194 12197 10957
3  12193 10959 10963
3  12193 12194 10959
3  12192 10963 10966
3  12192 12193 10963
3  12191 10966 10969
3  12191 12192 10966
3  12190 10969 10972
3  12190 12191 10969
3  12189 10972 12187
3  12189 12190 10972
3  12188 12187 10977
3  12188 12189 12187
3  12186 10977 12184
3  12186 12188 10977
3  12185 12184 12182
3  12185 12186 12184
3  12183 12182 12180
3  12183 12185 12182
3  12181 10982 10980
3  12181 12183 12180
3  12179 10986 10991
3  12179 12181 10986
3  12178 10987 10984
3  12178 12179 10991
3  12177 12178 11713
3  12177 11819 10987
3  12175 12174 11819
3  12175 12177 10642
3  12176 10641 10993
3  12176 12175 10641
3  12173 10993 10996
3  12173 12176 10993
3  12172 10996 10999
3  12172 12173 10996
3  12171 10999 11002
3  12171 12172 10999
3  12170 11000 10997
3  12170 12171 11002
3  12169 11005 12167
3  12169 12170 11005
3  12168 11006 11003
3  12168 12169 12167
3  12166 12165 12163
3  12166 12168 12165
3  12164 12163 12161
3  12164 12166 12163
3  12162 11012 11010
3  12162 12164 12161
3  12160 11016 11019
3  12160 12162 11016
3  12159 11017 11014
3  12159 12160 11019
3  12158 11020 11017
3  12158 12159 12157
3  12156 11022 11020
3  12156 12158 12155
3  12154 11711 11025
3  12154 12156 11711
3  12151 12153 11712
3  12151 12154 11025
3  12153 12152 12150
3  12153 12151 7690
3  12152 11027 11030
3  12152 12153 11027
3  12149 11030 11033
3  12149 12152 11030
3  12148 11031 11028
3  12148 12149 11033
3  12147 11036 12145
3  12147 12148 11036
3  12146 11037 11034
3  12146 12147 12145
3  12144 11041 12142
3  12144 12146 11041
3  12143 12142 11046
3  12143 12144 12142
3  12141 11044 11042
3  12141 12143 11046
3  12140 11047 11044
3  12140 12141 12139
3  12138 11049 11047
3  12138 12140 12137
3  12136 11054 11056
3  12136 12138 11054
3  12135 11056 11058
3  12135 12136 11056
3  12134 11058 11060
3  12134 12135 11058
3  12133 11060 11709
3  12133 12134 11060
3  12132 11709 11065
3  12132 12133 11709
3  12129 12131 11710
3  12129 12132 11065
3  12131 12129 6491
3  12131 12128 11710
3  12130 11068 12126
3  12130 12131 11068
3  12127 11069 11064
3  12127 12130 12126
3  12125 11075 12123
3  12125 12127 11075
3  12124 12123 11082
3  12124 12125 12123
3  12122 11079 11076
3  12122 12124 11082
3  12121 11083 11079
3  12121 12122 12120
3  12119 11086 11083
3  12119 12121 12118
3  12117 11092 11096
3  12117 12119 11092
3  12116 11096 11100
3  12116 12117 11096
3  12115 11100 11103
3  12115 12116 11100
3  12114 11103 11106
3  12114 12115 11103
3  12113 11106 11109
3  12113 12114 11106
3  12112 11109 11113
3  12112 12113 11109
3  12111 11110 11107
3  12111 12112 11113
3  12110 11708 11120
3  12110 12111 11708
3  12109 12110 11120
3  12109 11820 11114
3  12107 12106 11820
3  12107 12109 10776
3  12108 10775 11126
3  12108 12107 10775
3  12105 11126 11130
3  12105 12108 11126
3  12104 11127 11123
3  12104 12105 11130
3  12103 11131 11127
3  12103 12104 12102
3  12101 11134 11131
3  12101 12103 12100
3  12099 11140 11144
3  12099 12101 11140
3  12098 11144 11148
3  12098 12099 11144
3  12097 11148 11151
3  12097 12098 11148
3  12096 11151 11154
3  12096 12097 11151
3  12095 11154 11157
3  12095 12096 11154
3  12094 11155 11152
3  12094 12095 11157
3  12093 11161 12091
3  12093 12094 11161
3  12092 11162 11158
3  12092 12093 12091
3  12090 11165 11162
3  12090 12092 12089
3  12088 11171 11178
3  12088 12090 11171
3  12087 11178 11707
3  12087 12088 11178
3  12084 12087 11707
3  12084 11821 11172
3  12086 12084 11706
3  12086 11182 11821
3  12085 11177 11182
3  12085 12086 12083
3  12082 11185 11189
3  12082 12085 11185
3  12081 11189 11193
3  12081 12082 11189
3  12080 11193 11197
3  12080 12081 11193
3  12079 11197 11200
3  12079 12080 11197
3  12078 11200 11203
3  12078 12079 11200
3  12077 11201 11198
3  12077 12078 11203
3  12076 11206 12074
3  12076 12077 11206
3  12075 11207 11204
3  12075 12076 12074
3  12073 11210 11207
3  12073 12075 12072
3  12071 11216 11220
3  12071 12073 11216
3  12070 11220 11224
3  12070 12071 11220
3  12069 11221 11217
3  12069 12070 11224
3  12068 11225 11221
3  12068 12069 12067
3  12066 11228 11225
3  12066 12068 11822
3  12063 12065 11705
3  12063 12066 11234
3  12065 12064 12062
3  12065 12063 7592
3  12064 11237 11241
3  12064 12065 11237
3  12061 11241 11245
3  12061 12064 11241
3  12060 11245 11248
3  12060 12061 11245
3  12059 11246 11242
3  12059 12060 11248
3  12058 11251 12056
3  12058 12059 11251
3  12057 11252 11249
3  12057 12058 12056
3  12055 11254 11252
3  12055 12057 12054
3  12053 11260 11264
3  12053 12055 11260
3  12052 11264 11268
3  12052 12053 11264
3  12051 11265 11261
3  12051 12052 11268
3  12050 11269 11265
3  12050 12051 12049
3  12048 11272 11269
3  12048 12050 12047
3  12046 11278 11282
3  12046 12048 11278
3  12045 11282 11286
3  12045 12046 11282
3  12044 11286 11703
3  12044 12045 11286
3  12043 11703 11293
3  12043 12044 11703
3  12040 12042 11704
3  12040 12043 11293
3  12042 12040 6632
3  12042 12039 11704
3  12041 11295 12037
3  12041 12042 11295
3  12038 11296 11292
3  12038 12041 12037
3  12036 11298 11296
3  12036 12038 12035
3  12034 11303 11307
3  12034 12036 11303
3  12033 11307 11311
3  12033 12034 11307
3  12032 11308 11304
3  12032 12033 11311
3  12031 11312 11308
3  12031 12032 12030
3  12029 11315 11312
3  12029 12031 12028
3  12027 11321 11325
3  12027 12029 11321
3  12026 11325 11329
3  12026 12027 11325
3  12025 11329 11333
3  12025 12026 11329
3  12024 11333 11336
3  12024 12025 11333
3  12023 11336 11340
3  12023 12024 11336
3  12022 11337 11334
3  12022 12023 11340
3  12021 11344 12019
3  12021 12022 11344
3  12020 11345 11341
3  12020 12021 12019
3  12018 11348 11345
3  12018 12020 11823
3  12017 12015 11702
3  12017 12018 11701
3  12015 7538 10961
3  12015 12017 7538
3  12016 11351 12014
3  12016 12015 10961
3  12013 11353 11351
3  12013 12016 12012
3  12011 11356 11353
3  12011 12013 12010
3  12009 11362 11366
3  12009 12011 11362
3  12008 11366 11370
3  12008 12009 11366
3  12007 11370 11374
3  12007 12008 11370
3  12006 11374 11377
3  12006 12007 11374
3  12005 11377 11381
3  12005 12006 11377
3  12004 11378 11375
3  12004 12005 11381
3  12003 11385 12001
3  12003 12004 11385
3  12002 11386 11382
3  12002 12003 12001
3  12000 11389 11386
3  12000 12002 11999
3  11998 11394 11397
3  11998 12000 11394
3  11997 11397 11400
3  11997 11998 11397
3  11996 11398 11395
3  11996 11997 11400
3  11995 11401 11398
3  11995 11996 11824
3  11992 11995 11699
3  11992 11700 11401
3  11994 11993 11991
3  11994 11992 7510
3  11993 11409 11413
3  11993 11994 11409
3  11990 11413 11417
3  11990 11993 11413
3  11989 11417 11421
3  11989 11990 11417
3  11988 11421 11424
3  11988 11989 11421
3  11987 11424 11428
3  11987 11988 11424
3  11986 11425 11422
3  11986 11987 11428
3  11985 11432 11983
3  11985 11986 11432
3  11984 11433 11429
3  11984 11985 11983
3  11982 11439 11980
3  11982 11984 11439
3  11981 11980 11444
3  11981 11982 11980
3  11979 11442 11440
3  11979 11981 11444
3  11978 11445 11442
3  11978 11979 11977
3  11976 11447 11445
3  11976 11978 11975
3  11974 11453 11457
3  11974 11976 11453
3  11973 11457 11461
3  11973 11974 11457
3  11972 11461 11697
3  11972 11973 11461
3  11971 11697 11465
3  11971 11972 11697
3  11970 11968 11698
3  11970 11971 11465
3  11968 7481 11050
3  11968 11970 7481
3  11969 11464 11967
3  11969 11968 11050
3  11966 11467 11964
3  11966 11969 11467
3  11965 11468 11466
3  11965 11966 11964
3  11963 11470 11961
3  11963 11965 11470
3  11962 11961 11695
3  11962 11963 11961
3  11960 11472 11471
3  11960 11962 11695
3  11825 11960 11696
3  11825 11693 11472
3  11826 11825 11694
3  11826 11691 11693
3  11827 11828 11689
3  11827 11826 11692
3  11828 11829 11687
3  11828 11827 11690
3  11829 11830 11685
3  11829 11828 11688
3  11830 11831 11682
3  11830 11829 11686
3  11831 11833 11681
3  11831 11830 11684
3  11833 11834 11680
3  11833 11831 11683
3  11834 11833 11832
3  11834 11677 11680
3  11835 11836 11676
3  11835 11834 11679
3  11836 11835 11678
3  11836 11673 11676
3  11837 11836 11675
3  11837 11672 11673
3  11838 11839 11670
3  11838 11837 11674
3  11839 11838 11671
3  11839 11668 11670
3  11840 11839 11669
3  11840 11666 11668
3  11841 11840 11667
3  11841 11664 11666
3  11842 11843 11662
3  11842 11841 11665
3  11843 11844 11660
3  11843 11842 11663
3  11844 11845 11658
3  11844 11843 11661
3  11845 11846 11655
3  11845 11844 11659
3  11846 11848 11654
3  11846 11845 11657
3  11848 11849 11653
3  11848 11846 11656
3  11849 11848 11847
3  11849 11650 11653
3  11850 11851 11649
3  11850 11849 11652
3  11851 11850 11651
3  11851 11646 11649
3  11852 11851 11648
3  11852 11645 11646
3  11853 11854 11643
3  11853 11852 11647
3  11854 11853 11644
3  11854 11641 11643
3  11855 11854 11642
3  11855 11639 11641
3  11856 11855 11640
3  11856 11637 11639
3  11857 11858 11635
3  11857 11856 11638
3  11858 11859 11633
3  11858 11857 11636
3  11859 11860 11631
3  11859 11858 11634
3  11860 11861 11628
3  11860 11859 11632
3  11861 11863 11627
3  11861 11860 11630
3  11863 11864 11626
3  11863 11861 11629
3  11864 11863 11862
3  11864 11623 11626
3  11865 11866 11622
3  11865 11864 11625
3  11866 11865 11624
3  11866 11619 11622
3  11867 11866 11621
3  11867 11618 11619
3  11868 11869 11616
3  11868 11867 11620
3  11869 11868 11617
3  11869 11614 11616
3  11870 11869 11615
3  11870 11612 11614
3  11871 11870 11613
3  11871 11610 11612
3  11872 11873 11608
3  11872 11871 11611
3  11873 11874 11606
3  11873 11872 11609
3  11874 11875 11604
3  11874 11873 11607
3  11875 11876 11601
3  11875 11874 11605
3  11876 11878 11600
3  11876 11875 11603
3  11878 11879 11599
3  11878 11876 11602
3  11879 11878 11877
3  11879 11596 11599
3  11880 11881 11595
3  11880 11879 11598
3  11881 11880 11597
3  11881 11592 11595
3  11882 11881 11594
3  11882 11591 11592
3  11883 11884 11589
3  11883 11882 11593
3  11884 11883 11590
3  11884 11587 11589
3  11885 11884 11588
3  11885 11585 11587
3  11886 11885 11586
3  11886 11583 11585
3  11887 11888 11581
3  11887 11886 11584
3  11888 11889 11579
3  11888 11887 11582
3  11889 11890 11577
3  11889 11888 11580
3  11890 11891 11574
3  11890 11889 11578
3  11891 11893 11573
3  11891 11890 11576
3  11893 11894 11572
3  11893 11891 11575
3  11894 11893 11892
3  11894 11569 11572
3  11895 11896 11568
3  11895 11894 11571
3  11896 11895 11570
3  11896 11565 11568
3  11897 11896 11567
3  11897 11564 11565
3  11898 11899 11562
3  11898 11897 11566
3  11899 11898 11563
3  11899 11560 11562
3  11900 11899 11561
3  11900 11558 11560
3  11901 11900 11559
3  11901 11556 11558
3  11902 11903 11554
3  11902 11901 11557
3  11903 11904 11552
3  11903 11902 11555
3  11904 11905 11549
3  11904 11903 11553
3  11905 11907 11548
3  11905 11904 11551
3  11907 11908 11547
3  11907 11905 11550
3  11908 11907 11906
3  11908 11545 11547
3  11909 11910 11542
3  11909 11908 11546
3  11910 11909 11544
3  11910 11541 11542
3  11911 11912 11538
3  11911 11910 11543
3  11912 11911 11540
3  11912 11537 11538
3  11914 11916 11536
3  11914 11912 11539
3  11916 11914 11913
3  11916 11535 11536
3  11917 11918 11533
3  11917 11916 11915
3  11918 11917 11534
3  11918 11531 11533
3  11919 11918 11532
3  11919 11529 11531
3  11920 11919 11530
3  11920 11526 11529
3  11921 11923 11525
3  11921 11920 11528
3  11923 11924 11524
3  11923 11921 11527
3  11924 11923 11922
3  11924 11522 11524
3  11925 11926 11519
3  11925 11924 11523
3  11926 11925 11521
3  11926 11518 11519
3  11927 11928 11516
3  11927 11926 11520
3  11928 11927 11517
3  11928 11513 11516
3  11929 11931 11512
3  11929 11928 11515
3  11931 11933 11511
3  11931 11929 11514
3  11933 11931 11930
3  11933 11510 11511
3  11934 11935 11508
3  11934 11933 11932
3  11935 11934 11509
3  11935 11506 11508
3  11936 11935 11507
3  11936 11504 11506
3  11937 11936 11505
3  11937 11501 11504
3  11938 11940 11500
3  11938 11937 11503
3  11940 11941 11499
3  11940 11938 11502
3  11941 11940 11939
3  11941 11497 11499
3  11942 11943 11494
3  11942 11941 11498
3  11943 11942 11496
3  11943 11493 11494
3  11944 11945 11491
3  11944 11943 11495
3  11945 11944 11492
3  11945 11488 11491
3  11946 11948 11487
3  11946 11945 11490
3  11948 11950 11486
3  11948 11946 11489
3  11950 11948 11947
3  11950 11485 11486
3  11951 11952 11483
3  11951 11950 11949
3  11952 11951 11484
3  11952 11481 11483
3  11953 11952 11482
3  11953 11479 11481
3  11954 11953 11480
3  11954 11476 11479
3  11955 11957 11474
3  11955 11954 11478
3  11957 11959 11473
3  11957 11955 11477
3  11959 11957 11956
3  11959 11475 11473
3  9092 11460 11958
3  11958 11959 9093
CELL_TYPES 23976
5
5
5
5
5
5
5
5
5
5
5
5
5
5
5
5
5
5
5
5
5
5
5
5
5
5
5
5
5
5
5
5
5
5
5
5
5
5
5
5
5
5
5
5
5
5
5
5
5
5
5
5
5
5
5
5
5
5
5
5
5
5
5
5
5
5
5
5
5
5
5
5
5
5
5
5
5
5
5
5
5
5
5
5
5
5
5
5
5
5
5
5
5
5
5
5
5
5
5
5
5
5
5
5
5
5
5
5
5
5
5
5
5
5
5
5
5
5
5
5
5
5
5
5
5
5
5
5
5
5
5
5
5
5
5
5
5
5
5
5
5
5
5
5
5
5
5
5
5
5
5
5
5
5
5
5
5
5
5
5
5
5
5
5
5
5
5
5
5
5
5
5
5
5
5
5
5
5
5
5
5
5
5
5
5
5
5
5
5
5
5
5
5
5
5
5
5
5
5
5
5
5
5
5
5
5
5
5
5
5
5
5
5
5
5
5
5
5
5
5
5
5
5
5
5
5
5
5
5
5
5
5
5
5
5
5
5
5
5
5
5
5
5
5
5
5
5
5
5
5
5
5
5
5
5
5
5
5
5
5
5
5
5
5
5
5
5
5
5
5
5
5
5
5
5
5
5
5
5
5
5
5
5
5
5
5
5
5
5
5
5
5
5
5
5
5
5
5
5
5
5
5
5
5
5
5
5
5
5
5
5
5
5
5
5
5
5
5
5
5
5
5
5
5
5
5
5
5
5
5
5
5
5
5
5
5
5
5
5
5
5
5
5
5
5
5
5
5
5
5
5
5
5
5
5
5
5
5
5
5
5
5
5
5
5
5
5
5
5
5
5
5
5
5
5
5
5
5
5
5
5
5
5
5
5
5
5
5
5
5
5
5
5
5
5
5
5
5
5
5
5
5
5
5
5
5
5
5
5
5
5
5
5
5
5
5
5
5
5
5
5
5
5
5
5
5
5
5
5
5
5
5
5
5
5
5
5
5
5
5
5
5
5
5
5
5
5
5
5
5
5
5
5
5
5
5
5
5
5
5
5
5
5
5
5
5
5
5
5
5
5
5
5
5
5
5
5
5
5
5
5
5
5
5
5
5
5
5
5
5
5
5
5
5
5
5
5
5
5
5
5
5
5
5
5
5
5
5
5
5
5
5
5
5
5
5
5
5
5
5
5
5
5
5
5
5
5
5
5
5
5
5
5
5
5
5
5
5
5
5
5
5
5
5
5
5
5
5
5
5
5
5
5
5
5
5
5
5
5
5
5
5
5
5
5
5
5
5
5
5
5
5
5
5
5
5
5
5
5
5
5
5
5
5
5
5
5
5
5
5
5
5
5
5
5
5
5
5
5
5
5
5
5
5
5
5
5
5
5
5
5
5
5
5
5
5
5
5
5
5
5
5
5
5
5
5
5
5
5
5
5
5
5
5
5
5
5
5
5
5
5
5
5
5
5
5
5
5
5
5
5
5
5
5
5
5
5
5
5
5
5
5
5
5
5
5
5
5
5
5
5
5
5
5
5
5
5
5
5
5
5
5
5
5
5
5
5
5
5
5
5
5
5
5
5
5
5
5
5
5
5
5
5
5
5
5
5
5
5
5
5
5
5
5
5
5
5
5
5
5
5
5
5
5
5
5
5
5
5
5
5
5
5
5
5
5
5
5
5
5
5
5
5
5
5
5
5
5
5
5
5
5
5
5
5
5
5
5
5
5
5
5
5
5
5
5
5
5
5
5
5
5
5
5
5
5
5
5
5
5
5
5
5
5
5
5
5
5
5
5
5
5
5
5
5
5
5
5
5
5
5
5
5
5
5
5
5
5
5
5
5
5
5
5
5
5
5
5
5
5
5
5
5
5
5
5
5
5
5
5
5
5
5
5
5
5
5
5
5
5
5
5
5
5
5
5
5
5
5
5
5
5
5
5
5
5
5
5
5
5
5
5
5
5
5
5
5
5
5
5
5
5
5
5
5
5
5
5
5
5
5
5
5
5
5
5
5
5
5
5
5
5
5
5
5
5
5
5
5
5
5
5
5
5
5
5
5
5
5
5
5
5
5
5
5
5
5
5
5
5
5
5
5
5
5
5
5
5
5
5
5
5
5
5
5
5
5
5
5
5
5
5
5
5
5
5
5
5
5
5
5
5
5
5
5
5
5
5
5
5
5
5
5
5
5
5
5
5
5
5
5
5
5
5
5
5
5
5
5
5
5
5
5
5
5
5
5
5
5
5
5
5
5
5
5
5
5
5
5
5
5
5
5
5
5
5
5
5
5
5
5
5
5
5
5
5
5
5
5
5
5
5
5
5
5
5
5
5
5
5
5
5
5
5
5
5
5
5
5
5
5
5
5
5
5
5
5
5
5
5
5
5
5
5
5
5
5
5
5
5
5
5
5
5
5
5
5
5
5
5
5
5
5
5
5
5
5
5
5
5
5
5
5
5
5
5
5
5
5
5
5
5
5
5
5
5
5
5
5
5
5
5
5
5
5
5
5
5
5
5
5
5
5
5
5
5
5
5
5
5
5
5
5
5
5
5
5
5
5
5
5
5
5
5
5
5
5
5
5
5
5
5
5
5
5
5
5
5
5
5
5
5
5
5
5
5
5
5
5
5
5
5
5
5
5
5
5
5
5
5
5
5
5
5
5
5
5
5
5
5
5
5
5
5
5
5
5
5
5
5
5
5
5
5
5
5
5
5
5
5
5
5
5
5
5
5
5
5
5
5
5
5
5
5
5
5
5
5
5
5
5
5
5
5
5
5
5
5
5
5
5
5
5
5
5
5
5
5
5
5
5
5
5
5
5
5
5
5
5
5
5
5
5
5
5
5
5
5
5
5
5
5
5
5
5
5
5
5
5
5
5
5
5
5
5
5
5
5
5
5
5
5
5
5
5
5
5
5
5
5
5
5
5
5
5
5
5
5
5
5
5
5
5
5
5
5
5
5
5
5
5
5
5
5
5
5
5
5
5
5
5
5
5
5
5
5
5
5
5
5
5
5
5
5
5
5
5
5
5
5
5
5
5
5
5
5
5
5
5
5
5
5
5
5
5
5
5
5
5
5
5
5
5
5
5
5
5
5
5
5
5
5
5
5
5
5
5
5
5
5
5
5
5
5
5
5
5
5
5
5
5
5
5
5
5
5
5
5
5
5
5
5
5
5
5
5
5
5
5
5
5
5
5
5
5
5
5
5
5
5
5
5
5
5
5
5
5
5
5
5
5
5
5
5
5
5
5
5
5
5
5
5
5
5
5
5
5
5
5
5
5
5
5
5
5
5
5
5
5
5
5
5
5
5
5
5
5
5
5
5
5
5
5
5
5
5
5
5
5
5
5
5
5
5
5
5
5
5
5
5
5
5
5
5
5
5
5
5
5
5
5
5
5
5
5
5
5
5
5
5
5
5
5
5
5
5
5
5
5
5
5
5
5
5
5
5
5
5
5
5
5
5
5
5
5
5
5
5
5
5
5
5
5
5
5
5
5
5
5
5
5
5
5
5
5
5
5
5
5
5
5
5
5
5
5
5
5
5
5
5
5
5
5
5
5
5
5
5
5
5
5
5
5
5
5
5
5
5
5
5
5
5
5
5
5
5
5
5
5
5
5
5
5
5
5
5
5
5
5
5
5
5
5
5
5
5
5
5
5
5
5
5
5
5
5
5
5
5
5
5
5
5
5
5
5
5
5
5
5
5
5
5
5
5
5
5
5
5
5
5
5
5
5
5
5
5
5
5
5
5
5
5
5
5
5
5
5
5
5
5
5
5
5
5
5
5
5
5
5
5
5
5
5
5
5
5
5
5
5
5
5
5
5
5
5
5
5
5
5
5
5
5
5
5
5
5
5
5
5
5
5
5
5
5
5
5
5
5
5
5
5
5
5
5
5
5
5
5
5
5
5
5
5
5
5
5
5
5
5
5
5
5
5
5
5
5
5
5
5
5
5
5
5
5
5
5
5
5
5
5
5
5
5
5
5
5
5
5
5
5
5
5
5
5
5
5
5
5
5
5
5
5
5
5
5
5
5
5
5
5
5
5
5
5
5
5
5
5
5
5
5
5
5
5
5
5
5
5
5
5
5
5
5
5
5
5
5
5
5
5
5
5
5
5
5
5
5
5
5
5
5
5
5
5
5
5
5
5
5
5
5
5
5
5
5
5
5
5
5
5
5
5
5
5
5
5
5
5
5
5
5
5
5
5
5
5
5
5
5
5
5
5
5
5
5
5
5
5
5
5
5
5
5
5
5
5
5
5
5
5
5
5
5
5
5
5
5
5
5
5
5
5
5
5
5
5
5
5
5
5
5
5
5
5
5
5
5
5
5
5
5
5
5
5
5
5
5
5
5
5
5
5
5
5
5
5
5
5
5
5
5
5
5
5
5
5
5
5
5
5
5
5
5
5
5
5
5
5
5
5
5
5
5
5
5
5
5
5
5
5
5
5
5
5
5
5
5
5
5
5
5
5
5
5
5
5
5
5
5
5
5
5
5
5
5
5
5
5
5
5
5
5
5
5
5
5
5
5
5
5
5
5
5
5
5
5
5
5
5
5
5
5
5
5
5
5
5
5
5
5
5
5
5
5
5
5
5
5
5
5
5
5
5
5
5
5
5
5
5
5
5
5
5
5
5
5
5
5
5
5
5
5
5
5
5
5
5
5
5
5
5
5
5
5
5
5
5
5
5
5
5
5
5
5
5
5
5
5
5
5
5
5
5
5
5
5
5
5
5
5
5
5
5
5
5
5
5
5
5
5
5
5
5
5
5
5
5
5
5
5
5
5
5
5
5
5
5
5
5
5
5
5
5
5
5
5
5
5
5
5
5
5
5
5
5
5
5
5
5
5
5
5
5
5
5
5
5
5
5
5
5
5
5
5
5
5
5
5
5
5
5
5
5
5
5
5
5
5
5
5
5
5
5
5
5
5
5
5
5
5
5
5
5
5
5
5
5
5
5
5
5
5
5
5
5
5
5
5
5
5
5
5
5
5
5
5
5
5
5
5
5
5
5
5
5
5
5
5
5
5
5
5
5
5
5
5
5
5
5
5
5
5
5
5
5
5
5
5
5
5
5
5
5
5
5
5
5
5
5
5
5
5
5
5
5
5
5
5
5
5
5
5
5
5
5
5
5
5
5
5
5
5
5
5
5
5
5
5
5
5
5
5
5
5
5
5
5
5
5
5
5
5
5
5
5
5
5
5
5
5
5
5
5
5
5
5
5
5
5
5
5
5
5
5
5
5
5
5
5
5
5
5
5
5
5
5
5
5
5
5
5
5
5
5
5
5
5
5
5
5
5
5
5
5
5
5
5
5
5
5
5
5
5
5
5
5
5
5
5
5
5
5
5
5
5
5
5
5
5
5
5
5
5
5
5
5
5
5
5
5
5
5
5
5
5
5
5
5
5
5
5
5
5
5
5
5
5
5
5
5
5
5
5
5
5
5
5
5
5
5
5
5
5
5
5
5
5
5
5
5
5
5
5
5
5
5
5
5
5
5
5
5
5
5
5
5
5
5
5
5
5
5
5
5
5
5
5
5
5
5
5
5
5
5
5
5
5
5
5
5
5
5
5
5
5
5
5
5
5
5
5
5
5
5
5
5
5
5
5
5
5
5
5
5
5
5
5
5
5
5
5
5
5
5
5
5
5
5
5
5
5
5
5
5
5
5
5
5
5
5
5
5
5
5
5
5
5
5
5
5
5
5
5
5
5
5
5
5
5
5
5
5
5
5
5
5
5
5
5
5
5
5
5
5
5
5
5
5
5
5
5
5
5
5
5
5
5
5
5
5
5
5
5
5
5
5
5
5
5
5
5
5
5
5
5
5
5
5
5
5
5
5
5
5
5
5
5
5
5
5
5
5
5
5
5
5
5
5
5
5
5
5
5
5
5
5
5
5
5
5
5
5
5
5
5
5
5
5
5
5
5
5
5
5
5
5
5
5
5
5
5
5
5
5
5
5
5
5
5
5
5
5
5
5
5
5
5
5
5
5
5
5
5
5
5
5
5
5
5
5
5
5
5
5
5
5
5
5
5
5
5
5
5
5
5
5
5
5
5
5
5
5
5
5
5
5
5
5
5
5
5
5
5
5
5
5
5
5
5
5
5
5
5
5
5
5
5
5
5
5
5
5
5
5
5
5
5
5
5
5
5
5
5
5
5
5
5
5
5
5
5
5
5
5
5
5
5
5
5
5
5
5
5
5
5
5
5
5
5
5
5
5
5
5
5
5
5
5
5
5
5
5
5
5
5
5
5
5
5
5
5
5
5
5
5
5
5
5
5
5
5
5
5
5
5
5
5
5
5
5
5
5
5
5
5
5
5
5
5
5
5
5
5
5
5
5
5
5
5
5
5
5
5
5
5
5
5
5
5
5
5
5
5
5
5
5
5
5
5
5
5
5
5
5
5
5
5
5
5
5
5
5
5
5
5
5
5
5
5
5
5
5
5
5
5
5
5
5
5
5
5
5
5
5
5
5
5
5
5
5
5
5
5
5
5
5
5
5
5
5
5
5
5
5
5
5
5
5
5
5
5
5
5
5
5
5
5
5
5
5
5
5
5
5
5
5
5
5
5
5
5
5
5
5
5
5
5
5
5
5
5
5
5
5
5
5
5
5
5
5
5
5
5
5
5
5
5
5
5
5
5
5
5
5
5
5
5
5
5
5
5
5
5
5
5
5
5
5
5
5
5
5
5
5
5
5
5
5
5
5
5
5
5
5
5
5
5
5
5
5
5
5
5
5
5
5
5
5
5
5
5
5
5
5
5
5
5
5
5
5
5
5
5
5
5
5
5
5
5
5
5
5
5
5
5
5
5
5
5
5
5
5
5
5
5
5
5
5
5
5
5
5
5
5
5
5
5
5
5
5
5
5
5
5
5
5
5
5
5
5
5
5
5
5
5
5
5
5
5
5
5
5
5
5
5
5
5
5
5
5
5
5
5
5
5
5
5
5
5
5
5
5
5
5
5
5
5
5
5
5
5
5
5
5
5
5
5
5
5
5
5
5
5
5
5
5
5
5
5
5
5
5
5
5
5
5
5
5
5
5
5
5
5
5
5
5
5
5
5
5
5
5
5
5
5
5
5
5
5
5
5
5
5
5
5
5
5
5
5
5
5
5
5
5
5
5
5
5
5
5
5
5
5
5
5
5
5
5
5
5
5
5
5
5
5
5
5
5
5
5
5
5
5
5
5
5
5
5
5
5
5
5
5
5
5
5
5
5
5
5
5
5
5
5
5
5
5
5
5
5
5
5
5
5
5
5
5
5
5
5
5
5
5
5
5
5
5
5
5
5
5
5
5
5
5
5
5
5
5
5
5
5
5
5
5
5
5
5
5
5
5
5
5
5
5
5
5
5
5
5
5
5
5
5
5
5
5
5
5
5
5
5
5
5
5
5
5
5
5
5
5
5
5
5
5
5
5
5
5
5
5
5
5
5
5
5
5
5
5
5
5
5
5
5
5
5
5
5
5
5
5
5
5
5
5
5
5
5
5
5
5
5
5
5
5
5
5
5
5
5
5
5
5
5
5
5
5
5
5
5
5
5
5
5
5
5
5
5
5
5
5
5
5
5
5
5
5
5
5
5
5
5
5
5
5
5
5
5
5
5
5
5
5
5
5
5
5
5
5
5
5
5
5
5
5
5
5
5
5
5
5
5
5
5
5
5
5
5
5
5
5
5
5
5
5
5
5
5
5
5
5
5
5
5
5
5
5
5
5
5
5
5
5
5
5
5
5
5
5
5
5
5
5
5
5
5
5
5
5
5
5
5
5
5
5
5
5
5
5
5
5
5
5
5
5
5
5
5
5
5
5
5
5
5
5
5
5
5
5
5
5
5
5
5
5
5
5
5
5
5
5
5
5
5
5
5
5
5
5
5
5
5
5
5
5
5
5
5
5
5
5
5
5
5
5
5
5
5
5
5
5
5
5
5
5
5
5
5
5
5
5
5
5
5
5
5
5
5
5
5
5
5
5
5
5
5
5
5
5
5
5
5
5
5
5
5
5
5
5
5
5
5
5
5
5
5
5
5
5
5
5
5
5
5
5
5
5
5
5
5
5
5
5
5
5
5
5
5
5
5
5
5
5
5
5
5
5
5
5
5
5
5
5
5
5
5
5
5
5
5
5
5
5
5
5
5
5
5
5
5
5
5
5
5
5
5
5
5
5
5
5
5
5
5
5
5
5
5
5
5
5
5
5
5
5
5
5
5
5
5
5
5
5
5
5
5
5
5
5
5
5
5
5
5
5
5
5
5
5
5
5
5
5
5
5
5
5
5
5
5
5
5
5
5
5
5
5
5
5
5
5
5
5
5
5
5
5
5
5
5
5
5
5
5
5
5
5
5
5
5
5
5
5
5
5
5
5
5
5
5
5
5
5
5
5
5
5
5
5
5
5
5
5
5
5
5
5
5
5
5
5
5
5
5
5
5
5
5
5
5
5
5
5
5
5
5
5
5
5
5
5
5
5
5
5
5
5
5
5
5
5
5
5
5
5
5
5
5
5
5
5
5
5
5
5
5
5
5
5
5
5
5
5
5
5
5
5
5
5
5
5
5
5
5
5
5
5
5
5
5
5
5
5
5
5
5
5
5
5
5
5
5
5
5
5
5
5
5
5
5
5
5
5
5
5
5
5
5
5
5
5
5
5
5
5
5
5
5
5
5
5
5
5
5
5
5
5
5
5
5
5
5
5
5
5
5
5
5
5
5
5
5
5
5
5
5
5
5
5
5
5
5
5
5
5
5
5
5
5
5
5
5
5
5
5
5
5
5
5
5
5
5
5
5
5
5
5
5
5
5
5
5
5
5
5
5
5
5
5
5
5
5
5
5
5
5
5
5
5
5
5
5
5
5
5
5
5
5
5
5
5
5
5
5
5
5
5
5
5
5
5
5
5
5
5
5
5
5
5
5
5
5
5
5
5
5
5
5
5
5
5
5
5
5
5
5
5
5
5
5
5
5
5
5
5
5
5
5
5
5
5
5
5
5
5
5
5
5
5
5
5
5
5
5
5
5
5
5
5
5
5
5
5
5
5
5
5
5
5
5
5
5
5
5
5
5
5
5
5
5
5
5
5
5
5
5
5
5
5
5
5
5
5
5
5
5
5
5
5
5
5
5
5
5
5
5
5
5
5
5
5
5
5
5
5
5
5
5
5
5
5
5
5
5
5
5
5
5
5
5
5
5
5
5
5
5
5
5
5
5
5
5
5
5
5
5
5
5
5
5
5
5
5
5
5
5
5
5
5
5
5
5
5
5
5
5
5
5
5
5
5
5
5
5
5
5
5
5
5
5
5
5
5
5
5
5
5
5
5
5
5
5
5
5
5
5
5
5
5
5
5
5
5
5
5
5
5
5
5
5
5
5
5
5
5
5
5
5
5
5
5
5
5
5
5
5
5
5
5
5
5
5
5
5
5
5
5
5
5
5
5
5
5
5
5
5
5
5
5
5
5
5
5
5
5
5
5
5
5
5
5
5
5
5
5
5
5
5
5
5
5
5
5
5
5
5
5
5
5
5
5
5
5
5
5
5
5
5
5
5
5
5
5
5
5
5
5
5
5
5
5
5
5
5
5
5
5
5
5
5
5
5
5
5
5
5
5
5
5
5
5
5
5
5
5
5
5
5
5
5
5
5
5
5
5
5
5
5
5
5
5
5
5
5
5
5
5
5
5
5
5
5
5
5
5
5
5
5
5
5
5
5
5
5
5
5
5
5
5
5
5
5
5
5
5
5
5
5
5
5
5
5
5
5
5
5
5
5
5
5
5
5
5
5
5
5
5
5
5
5
5
5
5
5
5
5
5
5
5
5
5
5
5
5
5
5
5
5
5
5
5
5
5
5
5
5
5
5
5
5
5
5
5
5
5
5
5
5
5
5
5
5
5
5
5
5
5
5
5
5
5
5
5
5
5
5
5
5
5
5
5
5
5
5
5
5
5
5
5
5
5
5
5
5
5
5
5
5
5
5
5
5
5
5
5
5
5
5
5
5
5
5
5
5
5
5
5
5
5
5
5
5
5
5
5
5
5
5
5
5
5
5
5
5
5
5
5
5
5
5
5
5
5
5
5
5
5
5
5
5
5
5
5
5
5
5
5
5
5
5
5
5
5
5
5
5
5
5
5
5
5
5
5
5
5
5
5
5
5
5
5
5
5
5
5
5
5
5
5
5
5
5
5
5
5
5
5
5
5
5
5
5
5
5
5
5
5
5
5
5
5
5
5
5
5
5
5
5
5
5
5
5
5
5
5
5
5
5
5
5
5
5
5
5
5
5
5
5
5
5
5
5
5
5
5
5
5
5
5
5
5
5
5
5
5
5
5
5
5
5
5
5
5
5
5
5
5
5
5
5
5
5
5
5
5
5
5
5
5
5
5
5
5
5
5
5
5
5
5
5
5
5
5
5
5
5
5
5
5
5
5
5
5
5
5
5
5
5
5
5
5
5
5
5
5
5
5
5
5
5
5
5
5
5
5
5
5
5
5
5
5
5
5
5
5
5
5
5
5
5
5
5
5
5
5
5
5
5
5
5
5
5
5
5
5
5
5
5
5
5
5
5
5
5
5
5
5
5
5
5
5
5
5
5
5
5
5
5
5
5
5
5
5
5
5
5
5
5
5
5
5
5
5
5
5
5
5
5
5
5
5
5
5
5
5
5
5
5
5
5
5
5
5
5
5
5
5
5
5
5
5
5
5
5
5
5
5
5
5
5
5
5
5
5
5
5
5
5
5
5
5
5
5
5
5
5
5
5
5
5
5
5
5
5
5
5
5
5
5
5
5
5
5
5
5
5
5
5
5
5
5
5
5
5
5
5
5
5
5
5
5
5
5
5
5
5
5
5
5
5
5
5
5
5
5
5
5
5
5
5
5
5
5
5
5
5
5
5
5
5
5
5
5
5
5
5
5
5
5
5
5
5
5
5
5
5
5
5
5
5
5
5
5
5
5
5
5
5
5
5
5
5
5
5
5
5
5
5
5
5
5
5
5
5
5
5
5
5
5
5
5
5
5
5
5
5
5
5
5
5
5
5
5
5
5
5
5
5
5
5
5
5
5
5
5
5
5
5
5
5
5
5
5
5
5
5
5
5
5
5
5
5
5
5
5
5
5
5
5
5
5
5
5
5
5
5
5
5
5
5
5
5
5
5
5
5
5
5
5
5
5
5
5
5
5
5
5
5
5
5
5
5
5
5
5
5
5
5
5
5
5
5
5
5
5
5
5
5
5
5
5
5
5
5
5
5
5
5
5
5
5
5
5
5
5
5
5
5
5
5
5
5
5
5
5
5
5
5
5
5
5
5
5
5
5
5
5
5
5
5
5
5
5
5
5
5
5
5
5
5
5
5
5
5
5
5
5
5
5
5
5
5
5
5
5
5
5
5
5
5
5
5
5
5
5
5
5
5
5
5
5
5
5
5
5
5
5
5
5
5
5
5
5
5
5
5
5
5
5
5
5
5
5
5
5
5
5
5
5
5
5
5
5
5
5
5
5
5
5
5
5
5
5
5
5
5
5
5
5
5
5
5
5
5
5
5
5
5
5
5
5
5
5
5
5
5
5
5
5
5
5
5
5
5
5
5
5
5
5
5
5
5
5
5
5
5
5
5
5
5
5
5
5
5
5
5
5
5
5
5
5
5
5
5
5
5
5
5
5
5
5
5
5
5
5
5
5
5
5
5
5
5
5
5
5
5
5
5
5
5
5
5
5
5
5
5
5
5
5
5
5
5
5
5
5
5
5
5
5
5
5
5
5
5
5
5
5
5
5
5
5
5
5
5
5
5
5
5
5
5
5
5
5
5
5
5
5
5
5
5
5
5
5
5
5
5
5
5
5
5
5
5
5
5
5
5
5
5
5
5
5
5
5
5
5
5
5
5
5
5
5
5
5
5
5
5
5
5
5
5
5
5
5
5
5
5
5
5
5
5
5
5
5
5
5
5
5
5
5
5
5
5
5
5
5
5
5
5
5
5
5
5
5
5
5
5
5
5
5
5
5
5
5
5
5
5
5
5
5
5
5
5
5
5
5
5
5
5
5
5
5
5
5
5
5
5
5
5
5
5
5
5
5
5
5
5
5
5
5
5
5
5
5
5
5
5
5
5
5
5
5
5
5
5
5
5
5
5
5
5
5
5
5
5
5
5
5
5
5
5
5
5
5
5
5
5
5
5
5
5
5
5
5
5
5
5
5
5
5
5
5
5
5
5
5
5
5
5
5
5
5
5
5
5
5
5
5
5
5
5
5
5
5
5
5
5
5
5
5
5
5
5
5
5
5
5
5
5
5
5
5
5
5
5
5
5
5
5
5
5
5
5
5
5
5
5
5
5
5
5
5
5
5
5
5
5
5
5
5
5
5
5
5
5
5
5
5
5
5
5
5
5
5
5
5
5
5
5
5
5
5
5
5
5
5
5
5
5
5
5
5
5
5
5
5
5
5
5
5
5
5
5
5
5
5
5
5
5
5
5
5
5
5
5
5
5
5
5
5
5
5
5
5
5
5
5
5
5
5
5
5
5
5
5
5
5
5
5
5
5
5
5
5
5
5
5
5
5
5
5
5
5
5
5
5
5
5
5
5
5
5
5
5
5
5
5
5
5
5
5
5
5
5
5
5
5
5
5
5
5
5
5
5
5
5
5
5
5
5
5
5
5
5
5
5
5
5
5
5
5
5
5
5
5
5
5
5
5
5
5
5
5
5
5
5
5
5
5
5
5
5
5
5
5
5
5
5
5
5
5
5
5
5
5
5
5
5
5
5
5
5
5
5
5
5
5
5
5
5
5
5
5
5
5
5
5
5
5
5
5
5
5
5
5
5
5
5
5
5
5
5
5
5
5
5
5
5
5
5
5
5
5
5
5
5
5
5
5
5
5
5
5
5
5
5
5
5
5
5
5
5
5
5
5
5
5
5
5
5
5
5
5
5
5
5
5
5
5
5
5
5
5
5
5
5
5
5
5
5
5
5
5
5
5
5
5
5
5
5
5
5
5
5
5
5
5
5
5
5
5
5
5
5
5
5
5
5
5
5
5
5
5
5
5
5
5
5
5
5
5
5
5
5
5
5
5
5
5
5
5
5
5
5
5
5
5
5
5
5
5
5
5
5
5
5
5
5
5
5
5
5
5
5
5
5
5
5
5
5
5
5
5
5
5
5
5
5
5
5
5
5
5
5
5
5
5
5
5
5
5
5
5
5
5
5
5
5
5
5
5
5
5
5
5
5
5
5
5
5
5
5
5
5
5
5
5
5
5
5
5
5
5
5
5
5
5
5
5
5
5
5
5
5
5
5
5
5
5
5
5
5
5
5
5
5
5
5
5
5
5
5
5
5
5
5
5
5
5
5
5
5
5
5
5
5
5
5
5
5
5
5
5
5
5
5
5
5
5
5
5
5
5
5
5
5
5
5
5
5
5
5
5
5
5
5
5
5
5
5
5
5
5
5
5
5
5
5
5
5
5
5
5
5
5
5
5
5
5
5
5
5
5
5
5
5
5
5
5
5
5
5
5
5
5
5
5
5
5
5
5
5
5
5
5
5
5
5
5
5
5
5
5
5
5
5
5
5
5
5
5
5
5
5
5
5
5
5
5
5
5
5
5
5
5
5
5
5
5
5
5
5
5
5
5
5
5
5
5
5
5
5
5
5
5
5
5
5
5
5
5
5
5
5
5
5
5
5
5
5
5
5
5
5
5
5
5
5
5
5
5
5
5
5
5
5
5
5
5
5
5
5
5
5
5
5
5
5
5
5
5
5
5
5
5
5
5
5
5
5
5
5
5
5
5
5
5
5
5
5
5
5
5
5
5
5
5
5
5
5
5
5
5
5
5
5
5
5
5
5
5
5
5
5
5
5
5
5
5
5
5
5
5
5
5
5
5
5
5
5
5
5
5
5
5
5
5
5
5
5
5
5
5
5
5
5
5
5
5
5
5
5
5
5
5
5
5
5
5
5
5
5
5
5
5
5
5
5
5
5
5
5
5
5
5
5
5
5
5
5
5
5
5
5
5
5
5
5
5
5
5
5
5
5
5
5
5
5
5
5
5
5
5
5
5
5
5
5
5
5
5
5
5
5
5
5
5
5
5
5
5
5
5
5
5
5
5
5
5
5
5
5
5
5
5
5
5
5
5
5
5
5
5
5
5
5
5
5
5
5
5
5
5
5
5
5
5
5
5
5
5
5
5
5
5
5
5
5
5
5
5
5
5
5
5
5
5
5
5
5
5
5
5
5
5
5
5
5
5
5
5
5
5
5
5
5
5
5
5
5
5
5
5
5
5
5
5
5
5
5
5
5
5
5
5
5
5
5
5
5
5
5
5
5
5
5
5
5
5
5
5
5
5
5
5
5
5
5
5
5
5
5
5
5
5
5
5
5
5
5
5
5
5
5
5
5
5
5
5
5
5
5
5
5
5
5
5
5
5
5
5
5
5
5
5
5
5
5
5
5
5
5
5
5
5
5
5
5
5
5
5
5
5
5
5
5
5
5
5
5
5
5
5
5
5
5
5
5
5
5
5
5
5
5
5
5
5
5
5
5
5
5
5
5
5
5
5
5
5
5
5
5
5
5
5
5
5
5
5
5
5
5
5
5
5
5
5
5
5
5
5
5
5
5
5
5
5
5
5
5
5
5
5
5
5
5
5
5
5
5
5
5
5
5
5
5
5
5
5
5
5
5
5
5
5
5
5
5
5
5
5
5
5
5
5
5
5
5
5
5
5
5
5
5
5
5
5
5
5
5
5
5
5
5
5
5
5
5
5
5
5
5
5
5
5
5
5
5
5
5
5
5
5
5
5
5
5
5
5
5
5
5
5
5
5
5
5
5
5
5
5
5
5
5
5
5
5
5
5
5
5
5
5
5
5
5
5
5
5
5
5
5
5
5
5
5
5
5
5
5
5
5
5
5
5
5
5
5
5
5
5
5
5
5
5
5
5
5
5
5
5
5
5
5
5
5
5
5
5
5
5
5
5
5
5
5
5
5
5
5
5
5
5
5
5
5
5
5
5
5
5
5
5
5
5
5
5
5
5
5
5
5
5
5
5
5
5
5
5
5
5
5
5
5
5
5
5
5
5
5
5
5
5
5
5
5
5
5
5
5
5
5
5
5
5
5
5
5
5
5
5
5
5
5
5
5
5
5
5
5
5
5
5
5
5
5
5
5
5
5
5
5
5
5
5
5
5
5
5
5
5
5
5
5
5
5
5
5
5
5
5
5
5
5
5
5
5
5
5
5
5
5
5
5
5
5
5
5
5
5
5
5
5
5
5
5
5
5
5
5
5
5
5
5
5
5
5
5
5
5
5
5
5
5
5
5
5
5
5
5
5
5
5
5
5
5
5
5
5
5
5
5
5
5
5
5
5
5
5
5
5
5
5
5
5
5
5
5
5
5
5
5
5
5
5
5
5
5
5
5
5
5
5
5
5
5
5
5
5
5
5
5
5
5
5
5
5
5
5
5
5
5
5
5
5
5
5
5
5
5
5
5
5
5
5
5
5
5
5
5
5
5
5
5
5
5
5
5
5
5
5
5
5
5
5
5
5
5
5
5
5
5
5
5
5
5
5
5
5
5
5
5
5
5
5
5
5
5
5
5
5
5
5
5
5
5
5
5
5
5
5
5
5
5
5
5
5
5
5
5
5
5
5
5
5
5
5
5
5
5
5
5
5
5
5
5
5
5
5
5
5
5
5
5
5
5
5
5
5
5
5
5
5
5
5
5
5
5
5
5
5
5
5
5
5
5
5
5
5
5
5
5
5
5
5
5
5
5
5
5
5
5
5
5
5
5
5
5
5
5
5
5
5
5
5
5
5
5
5
5
5
5
5
5
5
5
5
5
5
5
5
5
5
5
5
5
5
5
5
5
5
5
5
5
5
5
5
5
5
5
5
5
5
5
5
5
5
5
5
5
5
5
5
5
5
5
5
5
5
5
5
5
5
5
5
5
5
5
5
5
5
5
5
5
5
5
5
5
5
5
5
5
5
5
5
5
5
5
5
5
5
5
5
5
5
5
5
5
5
5
5
5
5
5
5
5
5
5
5
5
5
5
5
5
5
5
5
5
5
5
5
5
5
5
5
5
5
5
5
5
5
5
5
5
5
5
5
5
5
5
5
5
5
5
5
5
5
5
5
5
5
5
5
5
5
5
5
5
5
5
5
5
5
5
5
5
5
5
5
5
5
5
5
5
5
5
5
5
5
5
5
5
5
5
5
5
5
5
5
5
5
5
5
5
5
5
5
5
5
5
5
5
5
5
5
5
5
5
5
5
5
5
5
5
5
5
5
5
5
5
5
5
5
5
5
5
5
5
5
5
5
5
5
5
5
5
5
5
5
5
5
5
5
5
5
5
5
5
5
5
5
5
5
5
5
5
5
5
5
5
5
5
5
5
5
5
5
5
5
5
5
5
5
5
5
5
5
5
5
5
5
5
5
5
5
5
5
5
5
5
5
5
5
5
5
5
5
5
5
5
5
5
5
5
5
5
5
5
5
5
5
5
5
5
5
5
5
5
5
5
5
5
5
5
5
5
5
5
5
5
5
5
5
5
5
5
5
5
5
5
5
5
5
5
5
5
5
5
5
5
5
5
5
5
5
5
5
5
5
5
5
5
5
5
5
5
5
5
5
5
5
5
5
5
5
5
5
5
5
5
5
5
5
5
5
5
5
5
5
5
5
5
5
5
5
5
5
5
5
5
5
5
5
5
5
5
5
5
5
5
5
5
5
5
5
5
5
5
5
5
5
5
5
5
5
5
5
5
5
5
5
5
5
5
5
5
5
5
5
5
5
5
5
5
5
5
5
5
5
5
5
5
5
5
5
5
5
5
5
5
5
5
5
5
5
5
5
5
5
5
5
5
5
5
5
5
5
5
5
5
5
5
5
5
5
5
5
5
5
5
5
5
5
5
5
5
5
5
5
5
5
5
5
5
5
5
5
5
5
5
5
5
5
5
5
5
5
5
5
5
5
5
5
5
5
5
5
5
5
5
5
5
5
5
5
5
5
5
5
5
5
5
5
5
5
5
5
5
5
5
5
5
5
5
5
5
5
5
5
5
5
5
5
5
5
5
5
5
5
5
5
5
5
5
5
5
5
5
5
5
5
5
5
5
5
5
5
5
5
5
5
5
5
5
5
5
5
5
5
5
5
5
5
5
5
5
5
5
5
5
5
5
5
5
5
5
5
5
5
5
5
5
5
5
5
5
5
5
5
5
5
5
5
5
5
5
5
5
5
5
5
5
5
5
5
5
5
5
5
5
5
5
5
5
5
5
5
5
5
5
5
5
5
5
5
5
5
5
5
5
5
5
5
5
5
5
5
5
5
5
5
5
5
5
5
5
5
5
5
5
5
5
5
5
5
5
5
5
5
5
5
5
5
5
5
5
5
5
5
5
5
5
5
5
5
5
5
5
5
5
5
5
5
5
5
5
5
5
5
5
5
5
5
5
5
5
5
5
5
5
5
5
5
5
5
5
5
5
5
5
5
5
5
5
5
5
5
5
5
5
5
5
5
5
5
5
5
5
5
5
5
5
5
5
5
5
5
5
5
5
5
5
5
5
5
5
5
5
5
5
5
5
5
5
5
5
5
5
5
5
5
5
5
5
5
5
5
5
5
5
5
5
5
5
5
5
5
5
5
5
5
5
5
5
5
5
5
5
5
5
5
5
5
5
5
5
5
5
5
5
5
5
5
5
5
5
5
5
5
5
5
5
5
5
5
5
5
5
5
5
5
5
5
5
5
5
5
5
5
5
5
5
5
5
5
5
5
5
5
5
5
5
5
5
5
5
5
5
5
5
5
5
5
5
5
5
5
5
5
5
5
5
5
5
5
5
5
5
5
5
5
5
5
5
5
5
5
5
5
5
5
5
5
5
5
5
5
5
5
5
5
5
5
5
5
5
5
5
5
5
5
5
5
5
5
5
5
5
5
5
5
5
5
5
5
5
5
5
5
5
5
5
5
5
5
5
5
5
5
5
5
5
5
5
5
5
5
5
5
5
5
5
5
5
5
5
5
5
5
5
5
5
5
5
5
5
5
5
5
5
5
5
5
5
5
5
5
5
5
5
5
5
5
5
5
5
5
5
5
5
5
5
5
5
5
5
5
5
5
5
5
5
5
5
5
5
5
5
5
5
5
5
5
5
5
5
5
5
5
5
5
5
5
5
5
5
5
5
5
5
5
5
5
5
5
5
5
5
5
5
5
5
5
5
5
5
5
5
5
5
5
5
5
5
5
5
5
5
5
5
5
5
5
5
5
5
5
5
5
5
5
5
5
5
5
5
5
5
5
5
5
5
5
5
5
5
5
5
5
5
5
5
5
5
5
5
5
5
5
5
5
5
5
5
5
5
5
5
5
5
5
5
5
5
5
5
5
5
5
5
5
5
5
5
5
5
5
5
5
5
5
5
5
5
5
5
5
5
5
5
5
5
5
5
5
5
5
5
5
5
5
5
5
5
5
5
5
5
5
5
5
5
5
5
5
5
5
5
5
5
5
5
5
5
5
5
5
5
5
5
5
5
5
5
5
5
5
5
5
5
5
5
5
5
5
5
5
5
5
5
5
5
5
5
5
5
5
5
5
5
5
5
5
5
5
5
5
5
5
5
5
5
5
5
5
5
5
5
5
5
5
5
5
5
5
5
5
5
5
5
5
5
5
5
5
5
5
5
5
5
5
5
5
5
5
5
5
5
5
5
5
5
5
5
5
5
5
5
5
5
5
5
5
5
5
5
5
5
5
5
5
5
5
5
5
5
5
5
5
5
5
5
5
5
5
5
5
5
5
5
5
5
5
5
5
5
5
5
5
5
5
5
5
5
5
5
5
5
5
5
5
5
5
5
5
5
5
5
5
5
5
5
5
5
5
5
5
5
5
5
5
5
5
5
5
5
5
5
5
5
5
5
5
5
5
5
5
5
5
5
5
5
5
5
5
5
5
5
5
5
5
5
5
5
5
5
5
5
5
5
5
5
5
5
5
5
5
5
5
5
5
5
5
5
5
5
5
5
5
5
5
5
5
5
5
5
5
5
5
5
5
5
5
5
5
5
5
5
5
5
5
5
5
5
5
5
5
5
5
5
5
5
5
5
5
5
5
5
5
5
5
5
5
5
5
5
5
5
5
5
5
5
5
5
5
5
5
5
5
5
5
5
5
5
5
5
5
5
5
5
5
5
5
5
5
5
5
5
5
5
5
5
5
5
5
5
5
5
5
5
5
5
5
5
5
5
5
5
5
5
5
5
5
5
5
5
5
5
5
5
5
5
5
5
5
5
5
5
5
5
5
5
5
5
5
5
5
5
5
5
5
5
5
5
5
5
5
5
5
5
5
5
5
5
5
5
5
5
5
5
5
5
5
5
5
5
5
5
5
5
5
5
5
5
5
5
5
5
5
5
5
5
5
5
5
5
5
5
5
5
5
5
5
5
5
5
5
5
5
5
5
5
5
5
5
5
5
5
5
5
5
5
5
5
5
5
5
5
5
5
5
5
5
5
5
5
5
5
5
5
5
5
5
5
5
5
5
5
5
5
5
5
5
5
5
5
5
5
5
5
5
5
5
5
5
5
5
5
5
5
5
5
5
5
5
5
5
5
5
5
5
5
5
5
5
5
5
5
5
5
5
5
5
5
5
5
5
5
5
5
5
5
5
5
5
5
5
5
5
5
5
5
5
5
5
5
5
5
5
5
5
5
5
5
5
5
5
5
5
5
5
5
5
5
5
5
5
5
5
5
5
5
5
5
5
5
5
5
5
5
5
5
5
5
5
5
5
5
5
5
5
5
5
5
5
5
5
5
5
5
5
5
5
5
5
5
5
5
5
5
5
5
5
5
5
5
5
5
5
5
5
5
5
5
5
5
5
5
5
5
5
5
5
5
5
5
5
5
5
5
5
5
5
5
5
5
5
5
5
5
5
5
5
5
5
5
5
5
5
5
5
5
5
5
5
5
5
5
5
5
5
5
5
5
5
5
5
5
5
5
5
5
5
5
5
5
5
5
5
5
5
5
5
5
5
5
5
5
5
5
5
5
5
5
5
5
5
5
5
5
5
5
5
5
5
5
5
5
5
5
5
5
5
5
5
5
5
5
5
5
5
5
5
5
5
5
5
5
5
5
5
5
5
5
5
5
5
5
5
5
5
5
5
5
5
5
5
5
5
5
5
5
5
5
5
5
5
5
5
5
5
5
5
5
5
5
5
5
5
5
5
5
5
5
5
5
5
5
5
5
5
5
5
5
5
5
5
5
5
5
5
5
5
5
5
5
5
5
5
5
5
5
5
5
5
5
5
5
5
5
5
5
5
5
5
5
5
5
5
5
5
5
5
5
5
5
5
5
5
5
5
5
5
5
5
5
5
5
5
5
5
5
5
5
5
5
5
5
5
5
5
5
5
5
5
5
5
5
5
5
5
5
5
5
5
5
5
5
5
5
5
5
5
5
5
5
5
5
5
5
5
5
5
5
5
5
5
5
5
5
5
5
5
5
5
5
5
5
5
5
5
5
5
5
5
5
5
5
5
5
5
5
5
5
5
5
5
5
5
5
5
5
5
5
5
5
5
5
5
5
5
5
5
5
5
5
5
5
5
5
5
5
5
5
5
5
5
5
5
5
5
5
5
5
5
5
5
5
5
5
5
5
5
5
5
5
5
5
5
5
5
5
5
5
5
5
5
5
5
5
5
5
5
5
5
5
5
5
5
5
5
5
5
5
5
5
5
5
5
5
5
5
5
5
5
5
5
5
5
5
5
5
5
5
5
5
5
5
5
5
5
5
5
5
5
5
5
5
5
5
5
5
5
5
5
5
5
5
5
5
5
5
5
5
5
5
5
5
5
5
5
5
5
5
5
5
5
5
5
5
5
5
5
5
5
5
5
5
5
5
5
5
5
5
5
5
5
5
5
5
5
5
5
5
5
5
5
5
5
5
5
5
5
5
5
5
5
5
5
5
5
5
5
5
5
5
5
5
5
5
5
5
5
5
5
5
5
5
5
5
5
5
5
5
5
5
5
5
5
5
5
5
5
5
5
5
5
5
5
5
5
5
5
5
5
5
5
5
5
5
5
5
5
5
5
5
5
5
5
5
5
5
5
5
5
5
5
5
5
5
5
5
5
5
5
5
5
5
5
5
5
5
5
5
5
5
5
5
5
5
5
5
5
5
5
5
5
5
5
5
5
5
5
5
5
5
5
5
5
5
5
5
5
5
5
5
5
5
5
5
5
5
5
5
5
5
5
5
5
5
5
5
5
5
5
5
5
5
5
5
5
5
5
5
5
5
5
5
5
5
5
5
5
5
5
5
5
5
5
5
5
5
5
5
5
5
5
5
5
5
5
5
5
5
5
5
5
5
5
5
5
5
5
5
5
5
5
5
5
5
5
5
5
5
5
5
5
5
5
5
5
5
5
5
5
5
5
5
5
5
5
5
5
5
5
5
5
5
5
5
5
5
5
5
5
5
5
5
5
5
5
5
5
5
5
5
5
5
5
5
5
5
5
5
5
5
5
5
5
5
5
5
5
5
5
5
5
5
5
5
5
5
5
5
5
5
5
5
5
5
5
5
5
5
5
5
5
5
5
5
5
5
5
5
5
5
5
5
5
5
5
5
5
5
5
5
5
5
5
5
5
5
5
5
5
5
5
5
5
5
5
5
5
5
5
5
5
5
5
5
5
5
5
5
5
5
5
5
5
5
5
5
5
5
5
5
5
5
5
5
5
5
5
5
5
5
5
5
5
5
5
5
5
5
5
5
5
5
5
5
5
5
5
5
5
5
5
5
5
5
5
5
5
5
5
5
5
5
5
5
5
5
5
5
5
5
5
5
5
5
5
5
5
5
5
5
5
5
5
5
5
5
5
5
5
5
5
5
5
5
5
5
5
5
5
5
5
5
5
5
5
5
5
5
5
5
5
5
5
5
5
5
5
5
5
5
5
5
5
5
5
5
5
5
5
5
5
5
5
5
5
5
5
5
5
5
5
5
5
5
5
5
5
5
5
5
5
5
5
5
5
5
5
5
5
5
5
5
5
5
5
5
5
5
5
5
5
5
5
5
5
5
5
5
5
5
5
5
5
5
5
5
5
5
5
5
5
5
5
5
5
5
5
5
5
5
5
5
5
5
5
5
5
5
5
5
5
5
5
5
5
5
5
5
5
5
5
5
5
5
5
5
5
5
5
5
5
5
5
5
5
5
5
5
5
5
5
5
5
5
5
5
5
5
5
5
5
5
5
5
5
5
5
5
5
5
5
5
5
5
5
5
5
5
5
5
5
5
5
5
5
5
5
5
5
5
5
5
5
5
5
5
5
5
5
5
5
5
5
5
5
5
5
5
5
5
5
5
5
5
5
5
5
5
5
5
5
5
5
5
5
5
5
5
5
5
5
5
5
5
5
5
5
5
5
5
5
5
5
5
5
5
5
5
5
5
5
5
5
5
5
5
5
5
5
5
5
5
5
5
5
5
5
5
5
5
5
5
5
5
5
5
5
5
5
5
5
5
5
5
5
5
5
5
5
5
5
5
5
5
5
5
5
5
5
5
5
5
5
5
5
5
5
5
5
5
5
5
5
5
5
5
5
5
5
5
5
5
5
5
5
5
5
5
5
5
5
5
5
5
5
5
5
5
5
5
5
5
5
5
5
5
5
5
5
5
5
5
5
5
5
5
5
5
5
5
5
5
5
5
5
5
5
5
5
5
5
5
5
5
5
5
5
5
5
5
5
5
5
5
5
5
5
5
5
5
5
5
5
5
5
5
5
5
5
5
5
5
5
5
5
5
5
5
5
5
5
5
5
5
5
5
5
5
5
5
5
5
5
5
5
5
5
5
5
5
5
5
5
5
5
5
5
5
5
5
5
5
5
5
5
5
5
5
5
5
5
5
5
5
5
5
5
5
5
5
5
5
5
5
5
5
5
5
5
5
5
5
5
5
5
5
5
5
5
5
5
5
5
5
5
5
5
5
5
5
5
5
5
5
5
5
5
5
5
5
5
5
5
5
5
5
5
5
5
5
5
5
5
5
5
5
5
5
5
5
5
5
5
5
5
5
5
5
5
5
5
5
5
5
5
5
5
5
5
5
5
5
5
5
5
5
5
5
5
5
5
5
5
5
5
5
5
5
5
5
5
5
5
5
5
5
5
5
5
5
5
5
5
5
5
5
5
5
5
5
5
5
5
5
5
5
5
5
5
5
5
5
5
5
5
5
5
5
5
5
5
5
5
5
5
5
5
5
5
5
5
5
5
5
5
5
5
5
5
5
5
5
5
5
5
5
5
5
5
5
5
5
5
5
5
5
5
5
5
5
5
5
5
5
5
5
5
5
5
5
5
5
5
5
5
5
5
5
5
5
5
5
5
5
5
5
5
5
5
5
5
5
5
5
5
5
5
5
5
5
5
5
5
5
5
5
5
5
5
5
5
5
5
5
5
5
5
5
5
5
5
5
5
5
5
5
5
5
5
5
5
5
5
5
5
5
5
5
5
5
5
5
5
5
5
5
5
5
5
5
5
5
5
5
5
5
5
5
5
5
5
5
5
5
5
5
5
5
5
5
5
5
5
5
5
5
5
5
5
5
5
5
5
5
5
5
5
5
5
5
5
5
5
5
5
5
5
5
5
5
5
5
5
5
5
5
5
5
5
5
5
5
5
5
5
5
5
5
5
5
5
5
5
5
5
5
5
5
5
5
5
5
5
5
5
5
5
5
5
5
5
5
5
5
5
5
5
5
5
5
5
5
5
5
5
5
5
5
5
5
5
5
5
5
5
5
5
5
5
5
5
5
5
5
5
5
5
5
5
5
5
5
5
5
5
5
5
5
5
5
5
5
5
5
5
5
5
5
5
5
5
5
5
5
5
5
5
5
5
5
5
5
5
5
5
5
5
5
5
5
5
5
5
5
5
5
5
5
5
5
5
5
5
5
5
5
5
5
5
5
5
5
5
5
5
5
5
5
5
5
5
5
5
5
5
5
5
5
5
5
5
5
5
5
5
5
5
5
5
5
5
5
5
5
5
5
5
5
5
5
5
5
5
5
5
5
5
5
5
5
5
5
5
5
5
5
5
5
5
5
5
5
5
5
5
5
5
5
5
5
5
5
5
5
5
5
5
5
5
5
5
5
5
5
5
5
5
5
5
5
5
5
5
5
5
5
5
5
5
5
5
5
5
5
5
5
5
5
5
5
5
5
5
5
5
5
5
5
5
5
5
5
5
5
5
5
5
5
5
5
5
5
5
5
5
5
5
5
5
5
5
5
5
5
5
5
5
5
5
5
5
5
5
5
5
5
5
5
5
5
5
5
5
5
5
5
5
5
5
5
5
5
5
5
5
5
5
5
5
5
5
5
5
5
5
5
5
5
5
5
5
5
5
5
5
5
5
5
5
5
5
5
5
5
5
5
5
5
5
5
5
5
5
5
5
5
5
5
5
5
5
5
5
5
5
5
5
5
5
5
5
5
5
5
5
5
5
5
5
5
5
5
5
5
5
5
5
5
5
5
5
5
5
5
5
5
5
5
5
5
5
5
5
5
5
5
5
5
5
5
5
5
5
5
5
5
5
5
5
5
5
5
5
5
5
5
5
5
5
5
5
5
5
5
5
5
5
5
5
5
5
5
5
5
5
5
5
5
5
5
5
5
5
5
5
5
5
5
5
5
5
5
5
5
5
5
5
5
5
5
5
5
5
5
5
5
5
5
5
5
5
5
5
5
5
5
5
5
5
5
5
5
5
5
5
5
5
5
5
5
5
5
5
5
5
5
5
5
5
5
5
5
5
5
5
5
5
5
5
5
5
5
5
5
5
5
5
5
5
5
5
5
5
5
5
5
5
5
5
5
5
5
5
5
5
5
5
5
5
5
5
5
5
5
5
5
5
5
5
5
5
5
5
5
5
5
5
5
5
5
5
5
5
5
5
5
5
5
5
5
5
5
5
5
5
5
5
5
5
5
5
5
5
5
5
5
5
5
5
5
5
5
5
5
5
5
5
5
5
5
5
5
5
5
5
5
5
5
5
5
5
5
5
5
5
5
5
5
5
5
5
5
5
5
5
5
5
5
5
5
5
5
5
5
5
5
5
5
5
5
5
5
5
5
5
5
5
5
5
5
5
5
5
5
5
5
5
5
5
5
5
5
5
5
5
5
5
5
5
5
5
5
5
5
5
5
5
5
5
5
5
5
5
5
5
5
5
5
5
5
5
5
5
5
5
5
5
5
5
5
5
5
5
5
5
5
5
5
5
5
5
5
5
5
5
5
5
5
5
5
5
5
5
5
5
5
5
5
5
5
5
5
5
5
5
5
5
5
5
5
5
5
5
5
5
5
5
5
5
5
5
5
5
5
5
5
5
5
5
5
5
5
5
5
5
5
5
5
5
5
5
5
5
5
5
5
5
5
5
5
5
5
5
5
5
5
5
5
5
5
5
5
5
5
5
5
5
5
5
5
5
5
5
5
5
5
5
5
5
5
5
5
5
5
5
5
5
5
5
5
5
5
5
5
5
5
5
5
5
5
5
5
5
5
5
5
5
5
5
5
5
5
5
5
5
5
5
5
5
5
5
5
5
5
5
5
5
5
5
5
5
5
5
5
5
5
5
5
5
5
5
5
5
5
5
5
5
5
5
5
5
5
5
5
5
5
5
5
5
5
5
5
5
5
5
5
5
5
5
5
5
5
5
5
5
5
5
5
5
5
5
5
5
5
5
5
5
5
5
5
5
5
5
5
5
5
5
5
5
5
5
5
5
5
5
5
5
5
5
5
5
5
5
5
5
5
5
5
5
5
5
5
5
5
5
5
5
5
5
5
5
5
5
5
5
5
5
5
5
5
5
5
5
5
5
5
5
5
5
5
5
5
5
5
5
5
5
5
5
5
5
5
5
5
5
5
5
5
5
5
5
5
5
5
5
5
5
5
5
5
5
5
5
5
5
5
5
5
5
5
5
5
5
5
5
5
5
5
5
5
5
5
5
5
5
5
5
5
5
5
5
5
5
5
5
5
5
5
5
5
5
5
5
5
5
5
5
5
5
5
5
5
5
5
5
5
5
5
5
5
5
5
5
5
5
5
5
5
5
5
5
5
5
5
5
5
5
5
5
5
5
5
5
5
5
5
5
5
5
5
5
5
5
5
5
5
5
5
5
5
5
5
5
5
5
5
5
5
5
5
5
5
5
5
5
5
5
5
5
5
5
5
5
5
5
5
5
5
5
5
5
5
5
5
5
5
5
5
5
5
5
5
5
5
5
5
5
5
5
5
5
5
5
5
5
5
5
5
5
5
5
5
5
5
5
5
5
5
5
5
5
5
5
5
5
5
5
5
5
5
5
5
5
5
5
5
5
5
5
5
5
5
5
5
5
5
5
5
5
5
5
5
5
5
5
5
5
5
5
5
5
5
5
5
5
5
5
5
5
5
5
5
5
5
5
5
5
5
5
5
5
5
5
5
5
5
5
5
5
5
5
5
5
5
5
5
5
5
5
5
5
5
5
5
5
5
5
5
5
5
5
5
5
5
5
5
5
5
5
5
5
5
5
5
5
5
5
5
5
5
5
5
5
5
5
5
5
5
5
5
5
5
5
5
5
5
5
5
5
5
5
5
5
5
5
5
5
5
5
5
5
5
5
5
5
5
5
5
5
5
5
5
5
5
5
5
5
5
5
5
5
5
5
5
5
5
5
5
5
5
5
5
5
5
5
5
5
5
5
5
5
5
5
5
5
5
5
5
5
5
5
5
5
5
5
5
5
5
5
5
5
5
5
5
5
5
5
5
5
5
5
5
5
5
5
5
5
5
5
5
5
5
5
5
5
5
5
5
5
5
5
5
5
5
5
5
5
5
5
5
5
5
5
5
5
5
5
5
5
5
5
5
5
5
5
5
5
5
5
5
5
5
5
5
5
5
5
5
5
5
5
5
5
5
5
5
5
5
5
5
5
5
5
5
5
5
5
5
5
5
5
5
5
5
5
5
5
5
5
5
5
5
5
5
5
5
5
5
5
5
5
5
5
5
5
5
5
5
5
5
5
5
5
5
5
5
5
5
5
5
5
5
5
5
5
5
5
5
5
5
5
5
5
5
5
5
5
5
5
5
5
5
5
5
5
5
5
5
5
5
5
5
5
5
5
5
5
5
5
5
5
5
5
5
5
5
5
5
5
5
5
5
5
5
5
5
5
5
5
5
5
5
5
5
5
5
5
5
5
5
5
5
5
5
5
5
5
5
5
5
5
5
5
5
5
5
5
5
5
5
5
5
5
5
5
5
5
5
5
5
5
5
5
5
5
5
5
5
5
5
5
5
5
5
5
5
5
5
5
5
5
5
5
5
5
5
5
5
5
5
5
5
5
5
5
5
5
5
5
5
5
5
5
5
5
5
5
5
5
5
5
5
5
5
5
5
5
5
5
5
5
5
5
5
5
5
5
5
5
5
5
5
5
5
5
5
5
5
5
5
5
5
5
5
5
5
5
5
5
5
5
5
5
5
5
5
5
5
5
5
5
5
5
5
5
5
5
5
5
5
5
5
5
5
5
5
5
5
5
5
5
5
5
5
5
5
5
5
5
5
5
5
5
5
5
5
5
5
5
5
5
5
5
5
5
5
5
5
5
5
5
5
5
5
5
5
5
5
5
5
5
5
5
5
5
5
5
5
5
5
5
5
5
5
5
5
5
5
5
5
5
5
5
5
5
5
5
5
5
5
5
5
5
5
5
5
5
5
5
5
5
5
5
5
5
5
5
5
5
5
5
5
5
5
5
5
5
5
5
5
5
5
5
5
5
5
5
5
5
5
5
5
5
5
5
5
5
5
5
5
5
5
5
5
5
5
5
5
5
5
5
5
5
5
5
5
5
5
5
5
5
5
5
5
5
5
5
5
5
5
5
5
5
5
5
5
5
5
5
5
5
5
5
5
5
5
5
5
5
5
5
5
5
5
5
5
5
5
5
5
5
5
5
5
5
5
5
5
5
5
5
5
5
5
5
5
5
5
5
5
5
5
5
5
5
5
5
5
5
5
5
5
5
5
5
5
5
5
5
5
5
5
5
5
5
5
5
5
5
5
5
5
5
5
5
5
5
5
5
5
5
5
5
5
5
5
5
5
5
5
5
5
5
5
5
5
5
5
5
5
5
5
5
5
5
5
5
5
5
5
5
5
5
5
5
5
5
5
5
5
5
5
5
5
5
5
5
5
5
5
5
5
5
5
5
5
5
5
5
5
5
5
5
5
5
5
5
5
5
5
5
5
5
5
5
5
5
5
5
5
5
5
5
5
5
5
5
5
5
5
5
5
5
5
5
5
5
5
5
5
5
5
5
5
5
5
5
5
5
5
5
5
5
5
5
5
5
5
5
5
5
5
5
5
5
5
5
5
5
5
5
5
5
5
5
5
5
5
5
5
5
5
5
5
5
5
5
5
5
5
5
5
5
5
5
5
5
5
5
5
5
5
5
5
5
5
5
5
5
5
5
5
5
5
5
5
5
5
5
5
5
5
5
5
5
5
5
5
5
5
5
5
5
5
5
5
5
5
5
5
5
5
5
5
5
5
5
5
5
5
5
5
5
5
5
5
5
5
5
5
5
5
5
5
5
5
5
5
5
5
5
5
5
5
5
5
5
5
5
5
5
5
5
5
5
5
5
5
5
5
5
5
5
5
5
5
5
5
5
5
5
5
5
5
5
5
5
5
5
5
5
5
5
5
5
5
5
5
5
5
5
5
5
5
5
5
5
5
5
5
5
5
5
5
5
5
5
5
5
5
5
5
5
5
5
5
5
5
5
5
5
5
5
5
5
5
5
5
5
5
5
5
5
5
5
5
5
5
5
5
5
5
5
5
5
5
5
5
5
5
5
5
5
5
5
5
5
5
5
5
5
5
5
5
5
5
5
5
5
5
5
5
5
5
5
5
5
5
5
5
5
5
5
5
5
5
5
5
5
5
5
5
5
5
5
5
5
5
5
5
5
5
5
5
5
5
5
5
5
5
5
5
5
5
5
5
5
5
5
5
5
5
5
5
5
5
5
5
5
5
5
5
5
5
5
5
5
5
5
5
5
5
5
5
5
5
5
5
5
5
5
5
5
5
5
5
5
5
5
5
5
5
5
5
5
5
5
5
5
5
5
5
5
5
5
5
5
5
5
5
5
5
5
5
5
5
5
5
5
5
5
5
5
5
5
5
5
5
5
5
5
5
5
5
5
5
5
5
5
5
5
5
5
5
5
5
5
5
5
5
5
5
5
5
5
5
5
5
5
5
5
5
5
5
5
5
5
5
5
5
5
5
5
5
5
5
5
5
5
5
5
5
5
5
5
5
5
5
5
5
5
5
5
5
5
5
5
5
5
5
5
5
5
5
5
5
5
5
5
5
5
5
5
5
5
5
5
5
5
5
5
5
5
5
5
5
5
5
5
5
5
5
5
5
5
5
5
5
5
5
5
5
5
5
5
5
5
5
5
5
5
5
5
5
5
5
5
5
5
5
5
5
5
5
5
5
5
5
5
5
5
5
5
5
5
5
5
5
5
5
5
5
5
5
5
5
5
5
5
5
5
5
5
5
5
5
5
5
5
5
5
5
5
5
5
5
5
5
5
5
5
5
5
5
5
5
5
5
5
5
5
5
5
5
5
5
5
5
5
5
5
5
5
5
5
5
5
5
5
5
5
5
5
5
5
5
5
5
5
5
5
5
5
5
5
5
5
5
5
5
5
5
5
5
5
5
5
5
5
5
5
5
5
5
5
5
5
5
5
5
5
5
5
5
5
5
5
5
5
5
5
5
5
5
5
5
5
5
5
5
5
5
5
5
5
5
5
5
5
5
5
5
5
5
5
5
5
5
5
5
5
5
5
5
5
5
5
5
5
5
5
5
5
5
5
5
5
5
5
5
5
5
5
5
5
5
5
5
5
5
5
5
5
5
5
5
5
5
5
5
5
5
5
5
5
5
5
5
5
5
5
5
5
5
5
5
5
5
5
5
5
5
5
5
5
5
5
5
5
5
5
5
5
5
5
5
5
5
5
5
5
5
5
5
5
5
5
5
5
5
5
5
5
5
5
5
5
5
5
5
5
5
5
5
5
5
5
5
5
5
5
5
5
5
5
5
5
5
5
5
5
5
5
5
5
5
5
5
5
5
5
5
5
5
5
5
5
5
5
5
5
5
5
5
5
5
5
5
5
5
5
5
5
5
5
5
5
5
5
5
5
5
5
5
5
5
5
5
5
5
5
5
5
5
5
5
5
5
5
5
5
5
5
5
5
5
5
5
5
5
5
5
5
5
5
5
5
5
5
5
5
5
5
5
5
5
5
5
5
5
5
5
5
5
5
5
5
5
5
5
5
5
5
5
5
5
5
5
5
5
5
5
5
5
5
5
5
5
5
5
5
5
5
5
5
5
5
5
5
5
5
5
5
5
5
5
5
5
5
5
5
5
5
5
5
5
5
5
5
5
5
5
5
5
5
5
5
5
5
5
5
5
5
5
5
5
5
5
5
5
5
5
5
5
5
5
5
5
5
5
5
5
5
5
5
5
5
5
5
5
5
5
5
5
5
5
5
5
5
5
5
5
5
5
5
5
5
5
5
5
5
5
5
5
5
5
5
5
5
5
5
5
5
5
5
5
5
5
5
5
5
5
5
5
5
5
5
5
5
5
5
5
5
5
5
5
5
5
5
5
5
5
5
5
5
5
5
5
5
5
5
5
5
5
5
5
5
5
5
5
5
5
5
5
5
5
5
5
5
5
5
5
5
5
5
5
5
5
5
5
5
5
5
5
5
5
5
5
5
5
5
5
5
5
5
5
5
5
5
5
5
5
5
5
5
5
5
5
5
5
5
5
5
5
5
5
5
5
5
5
5
5
5
5
5
5
5
5
5
5
5
5
5
5
5
5
5
5
5
5
5
5
5
5
5
5
5
5
5
5
5
5
5
5
5
5
5
5
5
5
5
5
5
5
5
5
5
5
5
5
5
5
5
5
5
5
5
5
5
5
5
5
5
5
5
5
5
5
5
5
5
5
5
5
5
5
5
5
5
5
5
5
5
5
5
5
5
5
5
5
5
5
5
5
5
5
5
5
5
5
5
5
5
5
5
5
5
5
5
5
5
5
5
5
5
5
5
5
5
5
5
5
5
5
5
5
5
5
5
5
5
5
5
5
5
5
5
5
5
5
5
5
5
5
5
5
5
5
5
5
5
5
5
5
5
5
5
5
5
5
5
5
5
5
5
5
5
5
5
5
5
5
5
5
5
5
5
5
5
5
5
5
5
5
5
5
5
5
5
5
5
5
5
5
5
5
5
5
5
5
5
5
5
5
5
5
5
5
5
5
5
5
5
5
5
5
5
5
5
5
5
5
5
5
5
5
5
5
5
5
5
5
5
5
5
5
5
5
5
5
5
5
5
5
5
5
5
5
5
5
5
5
5
5
5
5
5
5
5
5
5
5
5
5
5
5
5
5
5
5
5
5
5
5
5
5
5
5
5
5
5
5
5
5
5
5
5
5
5
5
5
5
5
5
5
5
5
5
5
5
5
5
5
5
5
5
5
5
5
5
5
5
5
5
5
5
5
5
5
5
5
5
5
5
5
5
5
5
5
5
5
5
5
5
5
5
5
5
5
5
5
5
5
5
5
5
5
5
5
5
5
5
5
5
5
5
5
5
5
5
5
5
5
5
5
5
5
5
5
5
5
5
5
5
5
5
5
5
5
5
5
5
5
5
5
5
5
5
5
5
5
5
5
5
5
5
5
5
5
5
5
5
5
5
5
5
5
5
5
5
5
5
5
5
5
5
5
5
5
5
5
5
5
5
5
5
5
5
5
5
5
5
5
5
5
5
5
5
5
5
5
5
5
5
5
5
5
5
5
5
5
5
5
5
5
5
5
5
5
5
5
5
5
5
5
5
5
5
5
5
5
5
5
5
5
5
5
5
5
5
5
5
5
5
5
5
5
5
5
5
5
5
5
5
5
5
5
5
5
5
5
5
5
5
5
5
5
5
5
5
5
5
5
5
5
5
5
5
5
5
5
5
5
5
5
5
5
5
5
5
5
5
5
5
5
5
5
5
5
5
5
5
5
5
5
5
5
5
5
5
5
5
5
5
5
5
5
5
5
5
5
5
5
5
5
5
5
5
5
5
5
5
5
5
5
5
5
5
5
5
5
5
5
5
5
5
5
5
5
5
5
5
5
5
5
5
5
5
5
5
5
5
5
5
5
5
5
5
5
5
5
5
5
5
5
5
5
5
5
5
5
5
5
5
5
5
5
5
5
5
5
5
5
5
5
5
5
5
5
5
5
5
5
5
5
5
5
5
5
5
5
5
5
5
5
5
5
5
5
5
5
5
5
5
5
5
5
5
5
5
5
5
5
5
5
5
5
5
5
5
5
5
5
5
5
5
5
5
5
5
5
5
5
5
5
5
5
5
5
5
5
5
5
5
5
5
5
5
5
5
5
5
5
5
5
5
5
5
5
5
5
5
5
5
5
5
5
5
5
5
5
5
5
5
5
5
5
5
5
5
5
5
5
5
5
5
5
5
5
5
5
5
5
5
5
5
5
5
5
5
5
5
5
5
5
5
5
5
5
5
5
5
5
5
5
5
5
5
5
5
5
5
5
5
5
5
5
5
5
5
5
5
5
5
5
5
5
5
5
5
5
5
5
5
5
5
5
5
5
5
5
5
5
5
5
5
5
5
5
5
5
5
5
5
5
5
5
5
5
5
5
5
5
5
5
5
5
5
5
5
5
5
5
5
5
5
5
5
5
5
5
5
5
5
5
5
5
5
5
5
5
5
5
5
5
5
5
5
5
5
5
5
5
5
5
5
5
5
5
5
5
5
5
5
5
5
5
5
5
5
5
5
5
5
5
5
5
5
5
5
5
5
5
5
5
5
5
5
5
5
5
5
5
5
5
5
5
5
5
5
5
5
5
5
5
5
5
5
5
5
5
5
5
5
5
5
5
5
5
5
5
5
5
5
5
5
5
5
5
5
5
5
5
5
5
5
5
5
5
5
5
5
5
5
5
5
5
5
5
5
5
5
5
5
5
5
5
5
5
5
5
5
5
5
5
5
5
5
5
5
5
5
5
5
5
5
5
5
5
5
5
5
5
5
5
5
5
5
5
5
5
5
5
5
5
5
5
5
5
5
5
5
5
5
5
5
5
5
5
5
5
5
5
5
5
5
5
5
5
5
5
5
5
5
5
5
5
5
5
5
5
5
5
5
5
5
5
5
5
5
5
5
5
5
5
5
5
5
5
5
5
5
5
5
5
5
5
5
5
5
5
5
5
5
5
5
5
5
5
5
5
5
5
5
5
5
5
5
5
5
5
5
5
5
5
5
5
5
5
5
5
5
5
5
5
5
5
5
5
5
5
5
5
5
5
5
5
5
5
5
5
5
5
5
5
5
5
5
5
5
5
5
5
5
5
5
5
5
5
5
5
5
5
5
5
5
5
5
5
5
5
5
5
5
5
5
5
5
5
5
5
5
5
5
5
5
5
5
5
5
5
5
5
5
5
5
5
5
5
5
5
5
5
5
5
5
5
5
5
5
5
5
5
5
5
5
5
5
5
5
5
5
5
5
5
5
5
5
5
5
5
5
5
5
5
5
5
5
5
5
5
5
5
5
5
5
5
5
5
5
5
5
5
5
5
5
5
5
5
5
5
5
5
5
5
5
5
5
5
5
5
5
5
5
5
5
5
5
5
5
5
5
5
5
5
5
5
5
5
5
5
5
5
5
5
5
5
5
5
5
5
5
5
5
5
5
5
5
5
5
5
5
5
5
5
5
5
5
5
5
5
5
5
5
5
5
5
5
5
5
5
5
5
5
5
5
5
5
5
5
5
5
5
5
5
5
5
5
5
5
5
5
5
5
5
5
5
5
5
5
5
5
5
5
5
5
5
5
5
5
5
5
5
5
5
5
5
5
5
5
5
5
5
5
5
5
5
5
5
5
5
5
5
5
5
5
5
5
5
5
5
5
5
5
5
5
5
5
5
5
5
5
5
5
5
5
5
5
5
5
5
5
5
5
5
5
5
5
5
5
5
5
5
5
5
5
5
5
5
5
5
5
5
5
5
5
5
5
5
5
5
5
5
5
5
5
5
5
5
5
5
5
5
5
5
5
5
5
5
5
5
5
5
5
5
5
5
5
5
5
5
5
5
5
5
5
5
5
5
5
5
5
5
5
5
5
5
5
5
5
5
5
5
5
5
5
5
5
5
5
5
5
5
5
5
5
5
5
5
5
5
5
5
5
5
5
5
5
5
5
5
5
5
5
5
5
5
5
5
5
5
5
5
5
5
5
5
5
5
5
5
5
5
5
5
5
5
5
5
5
5
5
5
5
5
5
5
5
5
5
5
5
5
5
5
5
5
5
5
5
5
5
5
5
5
5
5
5
5
5
5
5
5
5
5
5
5
5
5
5
5
5
5
5
5
5
5
5
5
5
5
5
5
5
5
5
5
5
5
5
5
5
5
5
5
5
5
5
5
5
5
5
5
5
5
5
5
5
5
5
5
5
5
5
5
5
5
5
5
5
5
5
5
5
5
5
5
5
5
5
5
5
5
5
5
5
5
5
5
5
5
5
5
5
5
5
5
5
5
5
5
5
5
5
5
5
5
5
5
5
5
5
5
5
5
5
5
5
5
5
5
5
5
5
5
5
5
5
5
5
5
5
5
5
5
5
5
5
5
5
5
5
5
5
5
5
5
5
5
5
5
5
5
5
5
5
5
5
5
5
5
5
5
5
5
5
5
5
5
5
5
5
5
5
5
5
5
5
5
5
5
5
5
5
5
5
5
5
5
5
5
5
5
5
5
5
5
5
5
5
5
5
5
5
5
5
5
5
5
5
5
5
5
5
5
5
5
5
5
5
5
5
5
5
5
5
5
5
5
5
5
5
5
5
5
5
5
5
5
5
5
5
5
5
5
5
5
5
5
5
5
5
5
5
5
5
5
5
5
5
5
5
5
5
5
5
5
5
5
5
5
5
5
5
5
5
5
5
5
5
5
5
5
5
5
5
5
5
5
5
5
5
5
5
5
5
5
5
5
5
5
5
5
5
5
5
5
5
5
5
5
5
5
5
5
5
5
5
5
5
5
5
5
5
5
5
5
5
5
5
5
5
5
5
5
5
5
5
5
5
5
5
5
5
5
5
5
5
5
5
5
5
5
5
5
5
5
5
5
5
5
5
5
5
5
5
5
5
5
5
5
5
5
5
5
5
5
5
5
5
5
5
5
5
5
5
5
5
5
5
5
5
5
5
5
5
5
5
5
5
5
5
5
5
5
5
5
5
5
5
5
5
5
5
5
5
5
5
5
5
5
5
5
5
5
5
5
5
5
5
5
5
5
5
5
5
5
5
5
5
5
5
5
5
5
5
5
5
5
5
5
5
5
5
5
5
5
5
5
5
5
5
5
5
5
5
5
5
5
5
5
5
5
5
5
5
5
5
5
5
5
5
5
5
5
5
5
5
5
5
5
5
5
5
5
5
5
5
5
5
5
5
5
5
5
5
5
5
5
5
5
5
5
5
5
5
5
5
5
5
5
5
5
5
5
5
5
5
5
5
5
5
5
5
5
5
5
5
5
5
5
5
5
5
5
5
5
5
5
5
5
5
5
5
5
5
5
5
5
5
5
5
5
5
5
5
5
5
5
5
5
5
5
5
5
5
5
5
5
5
5
5
5
5
5
5
5
5
5
5
5
5
5
5
5
5
5
5
5
5
5
5
5
5
5
5
5
5
5
5
5
5
5
5
5
5
5
5
5
5
5
5
5
5
5
5
5
5
5
5
5
5
5
5
5
5
5
5
5
5
5
5
5
5
5
5
5
5
5
5
5
5
5
5
5
5
5
5
5
5
5
5
5
5
5
5
5
5
5
5
5
5
5
5
5
5
5
5
5
5
5
5
5
5
5
5
5
5
5
5
5
5
5
5
5
5
5
5
5
5
5
5
5
5
5
5
5
5
5
5
5
5
5
5
5
5
5
5
5
5
5
5
5
5
5
5
5
5
5
5
5
5
5
5
5
5
5
5
5
5
5
5
5
5
5
5
5
5
5
5
5
5
5
5
5
5
5
5
5
5
5
5
5
5
5
5
5
5
5
5
5
5
5
5
5
5
5
5
5
5
5
5
5
5
5
5
5
5
5
5
5
5
5
5
5
5
5
5
5
5
5
5
5
5
5
5
5
5
5
5
5
5
5
5
5
5
5
5
5
5
5
5
5
5
5
5
5
5
5
5
5
5
5
5
5
5
5
5
5
5
5
5
5
5
5
5
5
5
5
5
5
5
5
5
5
5
5
5
5
5
5
5
5
5
5
5
5
5
5
5
5
5
5
5
5
5
5
5
5
5
5
5
5
5
5
5
5
5
5
5
5
5
5
5
5
5
5
5
5
5
5
5
5
5
5
5
5
5
5
5
5
5
5
5
5
5
5
5
5
5
5
5
5
5
5
5
5
5
5
5
5
5
5
5
5
5
5
5
5
5
5
5
5
5
5
5
5
5
5
5
5
5
5
5
5
5
5
5
5
5
5
5
5
5
5
5
5
5
5
5
5
5
5
5
5
5
5
5
5
5
5
5
5
5
5
5
5
5
5
5
5
5
5
5
5
5
5
5
5
5
5
5
5
5
5
5
5
5
5
5
5
5
5
5
5
5
5
5
5
5
5
5
5
5
5
5
5
5
5
5
5
5
5
5
5
5
5
5
5
5
5
5
5
5
5
5
5
5
5
5
5
5
5
5
5
5
5
5
5
5
5
5
5
5
5
5
5
5
5
5
5
5
5
5
5
5
5
5
5
5
5
5
5
5
5
5
5
5
5
5
5
5
5
5
5
5
5
5
5
5
5
5
5
5
5
5
5
5
5
5
5
5
5
5
5
5
5
5
5
5
5
5
5
5
5
5
5
5
5
5
5
5
5
5
5
5
5
5
5
5
5
5
5
5
5
5
5
5
5
5
5
5
5
5
5
5
5
5
5
5
5
5
5
5
5
5
5
5
5
5
5
5
5
5
5
5
5
5
5
5
5
5
5
5
5
5
5
5
5
5
5
5
5
5
5
5
5
5
5
5
5
5
5
5
5
5
5
5
5
5
5
5
5
5
5
5
5
5
5
5
5
5
5
5
5
5
5
5
5
5
5
5
5
5
5
5
5
5
5
5
5
5
5
5
5
5
5
5
5
5
5
5
5
5
5
5
5
5
5
5
5
5
5
5
5
5
5
5
5
5
5
5
5
5
5
5
5
5
5
5
5
5
5
5
5
5
5
5
5
5
5
5
5
5
5
5
5
5
5
5
5
5
5
5
5
5
5
5
5
5
5
5
5
5
5
5
5
5
5
5
5
5
5
5
5
5
5
5
5
5
5
5
5
5
5
5
5
5
5
5
5
5
5
5
5
5
5
5
5
5
5
5
5
5
5
5
5
5
5
5
5
5
5
5
5
5
5
5
5
5
5
5
5
5
5
5
5
5
5
5
5
5
5
5
5
5
5
5
5
5
5
5
5
5
5
5
5
5
5
5
5
5
5
5
5
5
5
5
5
5
5
5
5
5
5
5
5
5
5
5
5
5
5
5
5
5
5
5
5
5
5
5
5
5
5
5
5
5
5
5
5
5
5
5
5
5
5
5
5
5
5
5
5
5
5
5
5
5
5
5
5
5
5
5
5
5
5
5
5
5
5
5
5
5
5
5
5
5
5
5
5
5
5
5
5
5
5
5
5
5
5
5
5
5
5
5
5
5
5
5
5
5
5
5
5
5
5
5
5
5
5
5
5
5
5
5
5
5
5
5
5
5
5
5
5
5
5
5
5
5
5
5
5
5
5
5
5
5
5
5
5
5
5
5
5
5
5
5
5
5
5
5
5
5
5
5
5
5
5
5
5
5
5
5
5
5
5
5
5
5
5
5
5
5
5
5
5
5
5
5
5
5
5
5
5
5
5
5
5
5
5
5
5
5
5
5
5
5
5
5
5
5
5
5
5
5
5
5
5
5
5
5
5
5
5
5
5
5
5
5
5
5
5
5
5
5
5
5
5
5
5
5
5
5
5
5
5
5
5
5
5
5
5
5
5
5
5
5
5
5
5
5
5
5
5
5
5
5
5
5
5
5
5
5
5
5
5
5
5
5
5
5
5
5
5
5
5
5
5
5
5
5
5
5
5
5
5
5
5
5
5
5
5
5
5
5
5
5
5
5
5
5
5
5
5
5
5
5
5
5
5
5
5
5
5
5
5
5
5
5
5
5
5
5
5
5
5
5
5
5
5
5
5
5
5
5
5
5
5
5
5
5
5
5
5
5
5
5
5
5
5
5
5
5
5
5
5
5
5
5
5
5
5
5
5
5
5
5
5
5
5
5
5
5
5
5
5
5
5
5
5
5
5
5
5
5
5
5
5
5
5
5
5
5
5
5
5
5
5
5
5
5
5
5
5
5
5
5
5
5
5
5
5
5
5
5
5
5
5
5
5
5
5
5
5
5
5
5
5
5
5
5
5
5
5
5
5
5
5
5
5
5
5
5
5
5
5
5
5
5
5
5
5
5
5
5
5
5
5
5
5
5
5
5
5
5
5
5
5
5
5
5
5
5
5
5
5
5
5
5
5
5
5
5
5
5
5
5
5
5
5
5
5
5
5
5
5
5
5
5
5
5
5
5
5
5
5
5
5
5
5
5
5
5
5
5
5
5
5
5
5
5
5
5
5
5
5
5
5
5
5
5
5
5
5
5
5
5
5
5
5
5
5
5
5
5
5
5
5
5
5
5
5
5
5
5
5
5
5
5
5
5
5
5
5
5
5
5
5
5
5
5
5
5
5
5
5
5
5
5
5
5
5
5
5
5
5
5
5
5
5
5
5
5
5
5
5
5
5
5
5
5
5
5
5
5
5
5
5
5
5
5
5
5
5
5
5
5
5
5
5
5
5
5
5
5
5
5
5
5
5
5
5
5
5
5
5
5
5
5
5
5
5
5
5
5
5
5
5
5
5
5
5
5
5
5
5
5
5
5
5
5
5
5
5
5
5
5
5
5
5
5
5
5
5
5
5
5
5
5
5
5
5
5
5
5
5
5
5
5
5
5
5
5
5
5
5
5
5
5
5
5
5
5
5
5
5
5
5
5
5
5
5
5
5
5
5
5
5
5
5
5
5
5
5
5
5
5
5
5
5
5
5
5
5
5
5
5
5
5
5
5
5
5
5
5
5
5
5
5
5
5
5
5
5
5
5
5
5
5
5
5
5
5
5
5
5
5
5
5
5
5
5
5
5
5
5
5
5
5
5
5
5
5
5
5
5
5
5
5
5
5
5
5
5
5
5
5
5
5
5
5
5
5
5
5
5
5
5
5
5
5
5
5
5
5
5
5
5
5
5
5
5
5
5
5
5
5
5
5
5
5
5
5
5
5
5
5
5
5
5
5
5
5
5
5
5
5
5
5
5
5
5
5
5
5
5
5
5
5
5
5
5
5
5
5
5
5
5
5
5
5
5
5
5
5
5
5
5
5
5
5
5
5
5
5
5
5
5
5
5
5
5
5
5
5
5
5
5
5
5
5
5
5
5
5
5
5
5
5
5
5
5
5
5
5
5
5
5
5
5
5
5
5
5
5
5
5
5
5
5
5
5
5
5
5
5
5
5
5
5
5
5
5
5
5
5
5
5
5
5
5
5
5
5
5
5
5
5
5
5
5
5
5
5
5
5
5
5
5
5
5
5
5
5
5
5
5
5
5
5
5
5
5
5
5
5
5
5
5
5
5
5
5
5
5
5
5
5
5
5
5
5
5
5
5
5
5
5
5
5
5
5
5
5
5
5
5
5
5
5
5
5
5
5
5
5
5
5
5
5
5
5
5
5
5
5
5
5
5
5
5
5
5
5
5
5
5
5
5
5
5
5
5
5
5
5
5
5
5
5
5
5
5
5
5
5
5
5
5
5
5
5
5
5
5
5
5
5
5
5
5
5
5
5
5
5
5
5
5
5
5
5
5
5
5
5
5
5
5
5
5
5
5
5
5
5
5
5
5
5
5
5
5
5
5
5
5
5
5
5
5
5
5
5
5
5
5
5
5
5
5
5
5
5
5
5
5
5
5
5
5
5
5
5
5
5
5
5
5
5
5
5
5
5
5
5
5
5
5
5
5
5
5
5
5
5
5
5
5
5
5
5
5
5
5
5
5
5
5
5
5
5
5
5
5
5
5
5
5
5
5
5
5
5
5
5
5
5
5
5
5
5
5
5
5
5
5
5
5
5
5
5
5
5
5
5
5
5
5
5
5
5
5
5
5
5
5
5
5
5
5
5
5
5
5
5
5
5
5
5
5
5
5
5
5
5
5
5
5
5
5
5
5
5
5
5
5
5
5
5
5
5
5
5
5
5
5
5
5
5
5
5
5
5
5
5
5
5
5
5
5
5
5
5
5
5
5
5
5
5
5
5
5
5
5
5
5
5
5
5
5
5
5
5
5
5
5
5
5
5
5
5
5
5
5
5
5
5
5
5
5
5
5
5
5
5
5
5
5
5
5
5
5
5
5
5
5
5
5
5
5
5
5
5
5
5
5
5
5
5
5
5
5
5
5
5
5
5
5
5
5
5
5
5
5
5
5
5
5
5
5
5
5
5
5
5
5
5
5
5
5
5
5
5
5
5
5
5
5
5
5
5
5
5
5
5
5
5
5
5
5
5
5
5
5
5
5
5
5
5
5
5
5
5
5
5
5
5
5
5
5
5
5
5
5
5
5
5
5
5
5
5
5
5
5
5
5
5
5
5
5
5
5
5
5
5
5
5
5
5
5
5
5
5
5
5
5
5
5
5
5
5
5
5
5
5
5
5
5
5
5
5
5
5
5
5
5
5
5
5
5
5
5
5
5
5
5
5
5
5
5
5
5
5
5
5
5
5
5
5
5
5
5
5
5
5
5
5
5
5
5
5
5
5
5
5
5
5
5
5
5
5
5
5
5
5
5
5
5
5
5
5
5
5
5
5
5
5
5
5
5
5
5
5
5
5
5
5
5
5
5
5
5
5
5
5
5
5
5
5
5
5
5
5
5
5
5
5
5
5
5
5
5
5
5
5
5
5
5
5
5
5
5
5
5
5
5
5
5
5
5
5
5
5
5
5
5
5
5
5
5
5
5
5
5
5
5
5
5
5
5
5
5
5
5
5
5
5
5
5
5
5
5
5
5
5
5
5
5
5
5
5
5
5
5
5
5
5
5
5
5
5
5
5
5
5
5
5
5
5
5
5
5
5
5
5
5
5
5
5
5
5
5
5
5
5
5
5
5
5
5
5
5
5
5
5
5
5
5
5
5
5
5
5
5
5
5
5
5
5
5
5
5
5
5
5
5
5
5
5
5
5
5
5
5
5
5
5
5
5
5
5
5
5
5
5
5
5
5
5
5
5
5
5
5
5
5
5
5
5
5
5
5
5
5
5
5
5
5
5
5
5
5
5
5
5
5
5
5
5
5
5
5
5
5
5
5
5
5
5
5
5
5
5
5
5
5
5
5
5
5
5
5
5
5
5
5
5
5
5
5
5
5
5
5
5
5
5
5
5
5
5
5
5
5
5
5
5
5
5
5
5
5
5
5
5
5
5
5
5
5
5
5
5
5
5
5
5
5
5
5
5
5
5
5
5
5
5
5
5
5
5
5
5
5
5
5
5
5
5
5
5
5
5
5
5
5
5
5
5
5
5
5
5
5
5
5
5
5
5
5
5
5
5
5
5
5
5
5
5
5
5
5
5
5
5
5
5
5
5
5
5
5
5
5
5
5
5
5
5
5
5
5
5
5
5
5
5
5
5
5
5
5
5
5
5
5
5
5
5
5
5
5
5
5
5
5
5
5
5
5
5
5
5
5
5
5
5
5
5
5
5
5
5
5
5
5
5
5
5
5
5
5
5
5
5
5
5
5
5
5
5
5
5
5
5
5
5
5
5
5
5
5
5
5
5
5
5
5
5
5
5
5
5
5
5
5
5
5
5
5
5
5
5
5
5
5
5
5
5
5
5
5
5
5
5
5
5
5
5
5
5
5
5
5
5
5
5
5
5
5
5
5
5
5
5
5
5
5
5
5
5
5
5
5
5
5
5
5
5
5
5
5
5
5
5
5
5
5
5
5
5
5
5
5
5
5
5
5
5
5
5
5
5
5
5
5
5
5
5
5
5
5
5
5
5
5
5
5
5
5
5
5
5
5
5
5
5
5
5
5
5
5
5
5
5
5
5
5
5
5
5
5
5
5
5
5
5
5
5
5
5
5
5
5
5
5
5
5
5
5
5
5
5
5
5
5
5
5
5
5
5
5
5
5
5
5
5
5
5
5
5
5
5
5
5
5
5
5
5
5
5
5
5
5
5
5
5
5
5
5
5
5
5
5
5
5
5
5
5
5
5
5
5
5
5
5
5
5
5
5
5
5
5
5
5
5
5
5
5
5
5
5
5
5
5
5
5
5
5
5
5
5
5
5
5
5
5
5
5
5
5
5
5
5
5
5
5
5
5
5
5
5
5
5
5
5
5
5
5
5
5
5
5
5
5
5
5
5
5
5
5
5
5
5
5
5
5
5
5
5
5
5
5
5
5
5
5
5
5
5
5
5
5
5
5
5
5
5
5
5
5
5
5
5
5
5
5
5
5
5
5
5
5
5
5
5
5
5
5
5
5
5
5
5
5
5
5
5
5
5
5
5
5
5
5
5
5
5
5
5
5
5
5
5
5
5
5
5
5
5
5
5
5
5
5
5
5
5
5
5
5
5
5
5
5
5
5
5
5
5
5
5
5
5
5
5
5
5
5
5
5
5
5
5
5
5
5
5
5
5
5
5
5
5
5
5
5
5
5
5
5
5
5
5
5
5
5
5
5
5
5
5
5
5
5
5
5
5
5
5
5
5
5
5
5
5
5
5
5
5
5
5
5
5
5
5
5
5
5
5
5
5
5
5
5
5
5
5
5
5
5
5
5
5
5
5
5
5
5
5
5
5
5
5
5
5
5
5
5
5
5
5
5
5
5
5
5
5
5
5
5
5
5
5
5
5
5
5
5
5
5
5
5
5
5
5
5
5
5
5
5
5
5
5
5
5
5
5
5
5
5
5
5
5
5
5
5
5
5
5
5
5
5
5
5
5
5
5
5
5
5
5
5
5
5
5
5
5
5
5
5
5
5
5
5
5
5
5
5
5
5
5
5
5
5
5
5
5
5
5
5
5
5
5
5
5
5
5
5
5
5
5
5
5
5
5
5
5
5
5
5
5
5
5
5
5
5
5
5
5
5
5
5
5
5
5
5
5
5
5
5
5
5
5
5
5
5
5
5
5
5
5
5
5
5
5
5
5
5
5
5
5
5
5
5
5
5
5
5
5
5
5
5
5
5
5
5
5
5
5
5
5
5
5
5
5
5
5
5
5
5
5
5
5
5
5
5
5
5
5
5
5
5
5
5
5
5
5
5
5
5
5
5
5
5
5
5
5
5
5
5
5
5
5
5
5
5
5
5
5
5
5
5
5
5
5
5
5
5
5
5
5
5
5
5
5
5
5
5
5
5
5
5
5
5
5
5
5
5
5
5
5
5
5
5
5
5
5
5
5
5
5
5
5
5
5
5
5
5
5
5
5
5
5
5
5
5
5
5
5
5
5
5
5
5
5
5
5
5
5
5
5
5
5
5
5
5
5
5
5
5
5
5
5
5
5
5
5
5
5
5
5
5
5
5
5
5
5
5
5
5
5
5
5
5
5
5
5
5
5
5
5
5
5
5
5
5
5
5
5
5
5
5
5
5
5
5
5
5
5
5
5
5
5
5
5
5
5
5
5
5
5
5
5
5
5
5
5
5
5
5
5
5
5
5
5
5
5
5
5
5
5
5
5
5
5
5
5
5
5
5
5
5
5
5
5
5
5
5
5
5
5
5
5
5
5
5
5
5
5
5
5
5
5
5
5
5
5
5
5
5
5
5
5
5
5
5
5
5
5
5
5
5
5
5
5
5
5
5
5
5
5
5
5
5
5
5
5
5
5
5
5
5
5
5
5
5
5
5
5
5
5
5
5
5
5
5
5
5
5
5
5
5
5
5
5
5
5
5
5
5
5
5
5
5
5
5
5
5
5
5
5
5
5
5
5
5
5
5
5
5
5
5
5
5
5
5
5
5
5
5
5
5
5
5
5
5
5
5
5
5
5
5
5
5
5
5
5
5
5
5
5
5
5
5
5
5
5
5
5
5
5
5
5
5
5
5
5
5
5
5
5
5
5
5
5
5
5
5
5
5
5
5
5
5
5
5
5
5
5
5
5
5
5
5
5
5
5
5
5
5
5
5
5
5
5
5
5
5
5
5
5
5
5
5
5
5
5
5
5
5
5
5
5
5
5
5
5
5
5
5
5
5
5
5
5
5
5
5
5
5
5
5
5
5
5
5
5
5
5
5
5
5
5
5
5
5
5
5
5
5
5
5
5
5
5
5
5
5
5
5
5
5
5
5
5
5
5
5
5
5
5
5
5
5
5
5
5
5
5
5
5
5
5
5
5
5
5
5
5
5
5
5
5
5
5
5
5
5
5
5
5
5
5
5
5
5
5
5
5
5
5
5
5
5
5
5
5
5
5
5
5
5
5
5
5
5
5
5
5
5
5
5
5
5
5
5
5
5
5
5
5
5
5
5
5
5
5
5
5
5
5
5
5
5
5
5
5
5
5
5
5
5
5
5
5
5
5
5
5
5
5
5
5
5
5
5
5
5
5
5
5
5
5
5
5
5
5
5
5
5
5
5
5
5
5
5
5
5
5
5
5
5
5
5
5
5
5
5
5
5
5
5
5
5
5
5
5
5
5
5
5
5
5
5
5
5
5
5
5
5
5
5
5
5
5
5
5
5
5
5
5
5
5
5
5
5
5
5
5
5
5
5
5
5
5
5
5
5
5
5
5
5
5
5
5
5
5
5
5
5
5
5
5
5
5
5
5
5
5
5
5
5
5
5
5
5
5
5
5
5
5
5
5
5
5
5
5
5
5
5
5
5
5
5
5
5
5
5
5
5
5
5
5
5
5
5
5
5
5
5
5
5
5
5
5
5
5
5
5
5
5
5
5
5
5
5
5
5
5
5
5
5
5
5
5
5
5
5
5
5
5
5
5
5
5
5
5
5
5
5
5
5
5
5
5
5
5
5
5
5
5
5
5
5
5
5
5
5
5
5
5
5
5
5
5
5
5
5
5
5
5
5
5
5
5
5
5
5
5
5
5
5
5
5
5
5
5
5
5
5
5
5
5
5
5
5
5
5
5
5
5
5
5
5
5
5
5
5
5
5
5
5
5
5
5
5
5
5
5
5
5
5
5
5
5
5
5
5
5
5
5
5
5
5
5
5
5
5
5
5
5
5
5
5
5
5
5
5
5
5
5
5
5
5
5
5
5
5
5
5
5
5
5
5
5
5
5
5
5
5
5
5
5
5
5
5
5
5
5
5
5
5
5
5
5
5
5
5
5
5
5
5
5
5
5
5
5
5
5
5
5
5
5
5
5
5
5
5
5
5
5
5
5
5
5
5
5
5
5
5
5
5
5
5
5
5
5
5
5
5
5
5
5
5
5
5
5
5
5
5
5
5
5
5
5
5
5
5
5
5
5
5
5
5
5
5
5
5
5
5
5
5
5
5
5
5
5
5
5
5
5
5
5
5
5
5
5
5
5
5
5
5
5
5
5
5
5
5
5
5
5
5
5
5
5
5
5
5
5
5
5
5
5
5
5
5
5
5
5
5
5
5
5
5
5
5
5
5
5
5
5
5
5
5
5
5
5
5
5
5
5
5
5
5
5
5
5
5
5
5
5
5
5
5
5
5
5
5
5
5
5
5
5
5
5
5
5
5
5
5
5
5
5
5
5
5
5
5
5
5
5
5
5
5
5
5
5
5
5
5
5
5
5
5
5
5
5
5
5
5
5
5
5
5
5
5
5
5
5
5
5
5
5
5
5
5
5
5
5
5
5
5
5
5
5
5
5
5
5
5
5
5
5
5
5
5
5
5
5
5
5
5
5
5
5
5
5
5
5
5
5
5
5
5
5
5
5
5
5
5
5
5
5
5
5
5
5
5
5
5
5
5
5
5
5
5
5
5
5
5
5
5
5
5
5
5
5
5
5
5
5
5
5
5
5
5
5
5
5
5
5
5
5
5
5
5
5
5
5
5
5
5
5
5
5
5
5
5
5
5
5
5
5
5
5
5
5
5
5
5
5
5
5
5
5
5
5
5
5
5
5
5
5
5
5
5
5
5
5
5
5
5
5
5
5
5
5
5
5
5
5
5
5
5
5
5
5
5
5
5
5
5
5
5
5
5
5
5
5
5
5
5
5
5
5
5
5
5
5
5
5
5
5
5
5
5
5
5
5
5
5
5
5
5
5
5
5
5
5
5
5
5
5
5
5
5
5
5
5
5
5
5
5
5
5
5
5
5
5
5
5
5
5
5
5
5
5
5
5
5
5
5
5
5
5
5
5
5
5
5
5
5
5
5
5
5
5
5
5
5
5
5
5
5
5
5
5
5
5
5
5
5
5
5
5
5
5
5
5
5
5
5
5
5
5
5
5
5
5
5
5
5
5
5
5
5
5
5
5
5
5
5
5
5
5
5
5
5
5
5
5
5
5
5
5
5
5
5
5
5
5
5
5
5
5
5
5
5
5
5
5
5
5
5
5
5
5
5
5
5
5
5
5
5
5
5
5
5
5
5
5
5
5
5
5
5
5
5
5
5
5
5
5
5
5
5
5
5
5
5
5
5
5
5
5
5
5
5
5
5
5
5
5
5
5
5
5
5
5
5
5
5
5
5
5
5
5
5
5
5
5
5
5
5
5
5
5
5
5
5
5
5
5
5
5
5
5
5
5
5
5
5
5
5
5
5
5
5
5
5
5
5
5
5
5
5
5
5
5
5
5
5
5
5
5
5
5
5
5
5
5
5
5
5
5
5
5
5
5
5
5
5
5
5
5
5
5
5
5
5
5
5
5
5
5
5
5
5
5
5
5
5
5
5
5
5
5
5
5
5
5
5
5
5
5
5
5
5
5
5
5
5
5
5
5
5
5
5
5
5
5
5
5
5
5
5
5
5
5
5
5
5
5
5
5
5
5
5
5
5
5
5
5
5
5
5
5
5
5
5
5
5
5
5
5
5
5
5
5
5
5
5
5
5
5
5
5
5
5
5
5
5
5
5
5
5
5
5
5
5
5
5
5
5
5
5
5
5
5
5
5
5
5
5
5
5
5
5
5
5
5
5
5
5
5
5
5
5
5
5
5
5
5
5
5
5
5
5
5
5
5
5
5
5
5
5
5
5
5
5
5
5
5
5
5
5
5
5
5
5
5
5
5
5
5
5
5
5
5
5
5
5
5
5
5
5
5
5
5
5
5
5
5
5
5
5
5
5
5
5
5
5
5
5
5
5
5
5
5
5
5
5
5
5
5
5
5
5
5
5
5
5
5
5
5
5
5
5
5
5
5
5
5
5
5
5
5
5
5
5
5
5
5
5
5
5
5
5
5
5
5
5
5
5
5
5
5
5
5
5
5
5
5
5
5
5
5
5
5
5
5
5
5
5
5
5
5
5
5
5
5
5
5
5
5
5
5
5
5
5
5
5
5
5
5
5
5
5
5
5
5
5
5
5
5
5
5
5
5
5
5
5
5
5
5
5
5
5
5
5
5
5
5
5
5
5
5
5
5
5
5
5
5
5
5
5
5
5
5
5
5
5
5
5
5
5
5
5
5
5
5
5
5
5
5
5
5
5
5
5
5
5
5
5
5
5
5
5
5
5
5
5
5
5
5
5
5
5
5
5
5
5
5
5
5
5
5
5
5
5
5
5
5
5
5
5
5
5
5
5
5
5
5
5
5
5
5
5
5
5
5
5
5
5
5
5
5
5
5
5
5
5
5
5
5
5
5
5
5
5
5
5
5
5
5
5
5
5
5
5
5
5
5
5
5
5
5
5
5
5
5
5
5
5
5
5
5
5
5
5
5
5
5
5
5
5
5
5
5
5
5
5
5
5
5
5
5
5
5
5
5
5
5
5
5
5
5
5
5
5
5
5
5
5
5
5
5
5
5
5
5
5
5
5
5
5
5
5
5
5
5
5
5
5
5
5
5
5
5
5
5
5
5
5
5
5
5
5
5
5
5
5
5
5
5
5
5
5
5
5
5
5
5
5
5
5
5
5
5
5
5
5
5
5
5
5
5
5
5
5
5
5
5
5
5
5
5
5
5
5
5
5
5
5
5
5
5
5
5
5
5
5
5
5
5
5
5
5
5
5
5
5
5
5
5
5
5
5
5
5
5
5
5
5
5
5
5
5
5
5
5
5
5
5
5
5
5
5
5
5
5
5
5
5
5
5
5
5
5
5
5
5
5
5
5
5
5
5
5
5
5
5
5
5
5
5
5
5
5
5
5
5
5
5
5
5
5
5
5
5
5
5
5
5
5
5
5
5
5
5
5
5
5
5
5
5
5
5
5
5
5
5
5
5
5
5
5
5
5
5
5
5
5
5
5
5
5
5
5
5
5
5
5
5
5
5
5
5
5
5
5
5
5
5
5
5
5
5
5
5
5
5
5
5
5
5
5
5
5
5
5
5
5
5
5
5
5
5
5
5
5
5
5
5
5
5
5
5
5
5
5
5
5
5
5
5
5
5
5
5
5
5
5
5
5
5
5
5
5
5
5
5
5
5
5
5
5
5
5
5
5
5
5
5
5
5
5
5
5
5
5
5
5
5
5
5
5
5
5
5
5
5
5
5
5
5
5
5
5
5
5
5
5
5
5
5
5
5
5
5
5
5
5
5
5
5
5
5
5
5
5
5
5
5
5
5
5
5
5
5
5
5
5
5
5
5
5
5
5
5
5
5
5
5
5
5
5
5
5
5
5
5
5
5
5
5
5
5
5
5
5
5
5
5
5
5
5
5
5
5
5
5
5
5
5
5
5
5
5
5
5
5
5
5
5
5
5
5
5
5
5
5
5
5
5
5
5
5
5
5
5
5
5
5
5
5
5
5
5
5
5
5
5
5
5
5
5
5
5
5
5
5
5
5
5
5
5
5
5
5
5
5
5
5
5
5
5
5
5
5
5
5
5
5
5
5
5
5
5
5
5
5
5
5
5
5
5
5
5
5
5
5
5
5
5
5
5
5
5
5
5
5
5
5
5
5
5
5
5
5
5
5
5
5
5
5
5
5
5
5
5
5
5
5
5
5
5
5
5
5
5
5
5
5
5
5
5
5
5
5
5
5
5
5
5
5
5
5
5
5
5
5
5
5
5
5
5
5
5
5
5
5
5
5
5
5
5
5
5
5
5
5
5
5
5
5
5
5
5
5
5
5
5
5
5
5
5
5
5
5
5
5
5
5
5
5
5
5
5
5
5
5
5
5
5
5
5
5
5
5
5
5
5
5
5
5
5
5
5
5
5
5
5
5
5
5
5
5
5
5
5
5
5
5
5
5
5
5
5
5
5
5
5
5
5
5
5
5
5
5
5
5
5
5
5
5
5
5
5
5
5
5
5
5
5
5
5
5
5
5
5
5
5
5
5
5
5
5
5
5
5
5
5
5
5
5
5
5
5
5
5
5
5
5
5
5
5
5
5
5
5
5
5
5
5
5
5
5
5
5
5
5
5
5
5
5
5
5
5
5
5
5
5
5
5
5
5
5
5
5
5
5
5
5
5
5
5
5
5
5
5
5
5
5
5
5
5
5
5
5
5
5
5
5
5
5
5
5
5
5
5
5
5
5
5
5
5
5
5
5
5
5
5
5
5
5
5
5
5
5
5
5
5
5
5
5
5
5
5
5
5
5
5
5
5
5
5
5
5
5
5
5
5
5
5
5
5
5
5
5
5
5
5
5
5
5
5
5
5
5
5
5
5
5
5
5
5
5
5
5
5
5
5
5
5
5
5
5
5
5
5
5
5
5
5
5
5
5
5
5
5
5
5
5
5
5
5
5
5
5
5
5
5
5
5
5
5
5
5
5
5
5
5
5
5
5
5
5
5
5
5
5
5
5
5
5
5
5
5
5
5
5
5
5
5
5
5
5
5
5
5
5
5
5
5
5
5
5
5
5
5
5
5
5
5
5
5
5
5
5
5
5
5
5
5
5
5
5
5
5
5
5
5
5
5
5
5
5
5
5
5
5
5
5
5
5
5
5
5
5
5
5
5
5
5
5
5
5
5
5
5
5
5
5
5
5
5
5
5
5
5
5
5
5
5
5
5
5
5
5
5
5
5
5
5
5
5
5
5
5
5
5
5
5
5
5
5
5
5
5
5
5
5
5
5
5
5
5
5
5
5
5
5
5
5
5
5
5
5
5
5
5
5
5
5
5
5
5
5
5
5
5
5
5
5
5
5
5
5
5
5
5
5
5
5
5
5
5
5
5
5
5
5
5
5
5
5
5
5
5
5
5
5
5
5
5
5
5
5
5
5
5
5
5
5
5
5
5
5
5
5
5
5
5
5
5
5
5
5
5
5
5
5
5
5
5
5
5
5
5
5
5
5
5
5
5
5
5
5
5
5
5
5
5
5
5
5
5
5
5
5
5
5
5
5
5
5
5
5
5
5
5
5
5
5
5
5
5
5
5
5
5
5
5
5
5
5
5
5
5
5
5
5
5
5
5
5
5
5
5
5
5
5
5
5
5
5
5
5
5
5
5
5
5
5
5
5
5
5
5
5
5
5
5
5
5
5
5
5
5
5
5
5
5
5
5
5
5
5
5
5
5
5
5
5
5
5
5
5
5
5
5
5
5
5
5
5
5
5
5
5
5
5
5
5
5
5
5
5
5
5
5
5
5
5
5
5
5
5
5
5
5
5
5
5
5
5
5
5
5
5
5
5
5
5
5
5
5
5
5
5
5
5
5
5
5
5
5
5
5
5
5
5
5
5
5
5
5
5
5
5
5
5
5
5
5
5
5
5
5
5
5
5
5
5
5
5
5
5
5
5
5
5
5
5
5
5
5
5
5
5
5
5
5
5
5
5
5
5
5
5
5
5
5
5
5
5
5
5
5
5
5
5
5
5
5
5
5
5
5
5
5
5
5
5
5
5
5
5
5
5
5
5
5
5
5
5
5
5
5
5
5
5
5
5
5
5
5
5
5
5
5
5
5
5
5
5
5
5
5
5
5
5
5
5
5
5
5
5
5
5
5
5
5
5
5
5
5
5
5
5
5
5
5
5
5
5
5
5
5
5
5
5
5
5
5
5
5
5
5
5
5
5
5
5
5
5
5
5
5
5
5
5
5
5
5
5
5
5
5
5
5
5
5
5
5
5
5
5
5
5
5
5
5
5
5
5
5
5
5
5
5
5
5
5
5
5
5
5
5
5
5
5
5
5
5
5
5
5
5
5
5
5
5
5
5
5
5
5
5
5
5
5
5
5
5
5
5
5
5
5
5
5
5
5
5
5
5
5
5
5
5
5
5
5
5
5
5
5
5
5
5
5
5
5
5
5
5
5
5
5
5
5
5
5
5
5
5
5
5
5
5
5
5
5
5
5
5
5
5
5
5
5
5
5
5
5
5
5
5
5
5
5
5
5
5
5
5
5
5
5
5
5
5
5
5
5
5
5
5
5
5
5
5
5
5
5
5
5
5
5
5
5
5
5
5
5
5
5
5
5
5
5
5
5
5
5
5
5
5
5
5
5
5
5
5
5
5
5
5
5
5
5
5
5
5
5
5
5
5
5
5
5
5
5
5
5
5
5
5
5
5
5
5
5
5
5
5
5
5
5
5
5
5
5
5
5
5
5
5
5
5
5
5
5
5
5
5
5
5
5
5
5
5
5
5
5
5
5
5
5
5
5
5
5
5
5
5
5
5
5
5
5
5
5
5
5
5
5
5
5
5
5
5
5
5
5
5
5
5
5
5
5
5
5
5
5
5
5
5
5
5
5
5
5
5
5
5
5
5
5
5
5
5
5
5
5
5
5
5
5
5
5
5
5
5
5
5
5
5
5
5
5
5
5
5
5
5
5
5
5
5
5
5
5
5
5
5
5
5
5
5
5
5
5
5
5
5
5
5
5
5
5
5
5
5
5
5
5
5
5
5
5
5
5
5
5
5
5
5
5
5
5
5
5
5
5
5
5
5
5
5
5
5
5
5
5
5
5
5
5
5
5
5
5
5
5
5
5
5
5
5
5
5
5
5
5
5
5
5
5
5
5
5
5
5
5
5
5
5
5
5
5
5
5
5
5
5
5
5
5
5
5
5
5
5
5
5
5
5
5
5
5
5
5
5
5
5
5
5
5
5
5
5
5
5
5
5
5
5
5
5
5
5
5
5
5
5
5
5
5
5
5
5
5
5
5
5
5
5
5
5
5
5
5
5
5
5
5
5
5
5
5
5
5
5
5
5
5
5
5
5
5
5
5
5
5
5
5
5
5
5
5
5
5
5
5
5
5
5
5
5
5
5
5
5
5
5
5
5
5
5
5
5
5
5
5
5
5
5
5
5
5
5
5
5
5
5
5
5
5
5
5
5
5
5
5
5
5
5
5
5
5
5
5
5
5
5
5
5
5
5
5
5
5
5
5
5
5
5
5
5
5
5
5
5
5
5
5
5
5
5
5
5
5
5
5
5
5
5
5
5
5
5
5
5
5
5
5
5
5
5
5
5
5
5
5
5
5
5
5
5
5
5
5
5
5
5
5
5
5
5
5
5
5
5
5
5
5
5
5
5
5
5
5
5
5
5
5
5
5
5
5
5
5
5
5
5
5
5
5
5
5
5
5
5
5
5
5
5
5
5
5
5
5
5
5
5
5
5
5
5
5
5
5
5
5
5
5
5
5
5
5
5
5
5
5
5
5
5
5
5
5
5
5
5
5
5
5
5
5
5
5
5
5
5
5
5
5
5
5
5
5
5
5
5
5
5
5
5
5
5
5
5
5
5
5
5
5
5
5
5
5
5
5
5
5
5
5
5
5
5
5
5
5
5
5
5
5
5
5
5
5
5
5
5
5
5
5
5
5
5
5
5
5
5
5
5
5
5
5
5
5
5
5
5
5
5
5
5
5
5
5
5
5
5
5
5
5
5
5
5
5
5
5
5
5
5
5
5
5
5
5
5
5
5
5
5
5
5
5
5
5
5
5
5
5
5
5
5
5
5
5
5
5
5
5
5
5
5
5
5
5
5
5
5
5
5
5
5
5
5
5
5
5
5
5
5
5
5
5
5
5
5
5
5
5
5
5
5
5
5
5
5
5
5
5
5
5
5
5
5
5
5
5
5
5
5
5
5
5
5
5
5
5
5
5
5
5
5
5
5
5
5
5
5
5
5
5
5
5
5
5
5
5
5
5
5
5
5
5
5
5
5
5
5
5
5
5
5
5
5
5
5
5
5
5
5
5
5
5
5
5
5
5
5
5
5
5
5
5
5
5
5
5
5
5
5
5
5
5
5
5
5
5
5
5
5
5
5
5
5
5
5
5
5
5
5
5
5
5
5
5
5
5
5
5
5
5
5
5
5
5
5
5
5
5
5
5
5
5
5
5
5
5
5
5
5
5
5
5
5
5
5
5
5
5
5
5
5
5
5
5
5
5
5
5
5
5
5
5
5
5
5
5
5
5
5
5
5
5
5
5
5
5
5
5
5
5
5
5
5
5
5
5
5
5
5
5
5
5
5
5
5
5
5
5
5
5
5
5
5
5
5
5
5
5
5
5
5
5
5
5
5
5
5
5
5
5
5
5
5
5
5
5
5
5
5
5
5
5
5
5
5
5
5
5
5
5
5
5
5
5
5
5
5
5
5
5
5
5
5
5
5
5
5
5
5
5
5
5
5
5
5
5
5
5
5
5
5
5
5
5
5
5
5
5
5
5
5
5
5
5
5
5
5
5
5
5
5
5
5
5
5
5
5
5
5
5
5
5
5
5
5
5
5
5
5
5
5
5
5
5
5
5
5
5
5
5
5
5
5
5
5
5
5
5
5
CELL_DATA 23976
VECTORS total_strain double
4.223737e-05 -1.655125e-05 -3.218088e-07
4.216574e-05 -1.650718e-05 -4.900094e-08
4.223518e-05 -1.652441e-05 5.466368e-08
4.233191e-05 -1.655539e-05 2.060024e-08
4.230595e-05 -1.654778e-05 -3.313553e-08
4.223474e-05 -1.652253e-05 -4.835789e-08
4.216911e-05 -1.649947e-05 -2.489007e-08
4.216596e-05 -1.649874e-05 2.464122e-08
4.223194e-05 -1.652423e-05 7.273945e-08
4.235878e-05 -1.657351e-05 1.171122e-07
4.254572e-05 -1.664551e-05 1.555128e-07
4.279461e-05 -1.673929e-05 1.566193e-07
4.299257e-05 -1.681350e-05 1.051976e-07
4.308779e-05 -1.684761e-05 3.106364e-09
4.297983e-05 -1.681044e-05 -1.005183e-07
4.280232e-05 -1.674755e-05 -9.916489e-08
4.269199e-05 -1.671105e-05 5.557456e-11
4.282433e-05 -1.676251e-05 1.859467e-07
4.322049e-05 -1.690829e-05 2.770389e-07
4.362213e-05 -1.705742e-05 2.335839e-07
4.387996e-05 -1.715236e-05 5.159957e-08
4.378243e-05 -1.712190e-05 -1.083088e-07
4.356394e-05 -1.704383e-05 -1.381447e-07
4.337513e-05 -1.697805e-05 -4.370502e-08
4.344042e-05 -1.700136e-05 1.103830e-07
4.369779e-05 -1.709710e-05 1.963777e-07
4.402748e-05 -1.722134e-05 2.057542e-07
4.432402e-05 -1.733496e-05 1.428241e-07
4.448272e-05 -1.739637e-05 6.167503e-08
4.450958e-05 -1.740606e-05 -3.389104e-08
4.437781e-05 -1.735487e-05 -1.374759e-07
4.407857e-05 -1.724043e-05 -2.108961e-07
4.373221e-05 -1.710750e-05 -2.328054e-07
4.336594e-05 -1.696719e-05 -2.076117e-07
4.308057e-05 -1.685879e-05 -1.315687e-07
4.295353e-05 -1.681227e-05 -4.365241e-09
4.305638e-05 -1.685283e-05 1.548429e-07
4.343117e-05 -1.698941e-05 2.351276e-07
4.381849e-05 -1.713070e-05 1.296975e-07
4.385560e-05 -1.713967e-05 -1.382816e-07
4.340423e-05 -1.697329e-05 -3.302309e-07
4.277783e-05 -1.674012e-05 -3.182753e-07
4.238697e-05 -1.659477e-05 -1.264544e-07
4.237788e-05 -1.658445e-05 5.044922e-08
4.255355e-05 -1.664616e-05 1.010992e-07
4.269478e-05 -1.669827e-05 4.038219e-08
4.270120e-05 -1.670358e-05 -6.587538e-09
4.267276e-05 -1.669523e-05 -2.545562e-09
4.270348e-05 -1.670800e-05 4.438846e-08
4.281242e-05 -1.674974e-05 8.065916e-08
4.297986e-05 -1.681434e-05 1.028094e-07
4.317144e-05 -1.688933e-05 1.159821e-07
4.339003e-05 -1.697506e-05 1.338946e-07
4.366684e-05 -1.708261e-05 1.555859e-07
4.394795e-05 -1.718862e-05 1.222221e-07
4.409820e-05 -1.724322e-05 -2.892962e-09
4.389037e-05 -1.716362e-05 -1.837727e-07
4.343309e-05 -1.698970e-05 -2.536945e-07
4.293650e-05 -1.679988e-05 -2.117656e-07
4.277690e-05 -1.673734e-05 -1.798462e-07
4.277640e-05 -1.673358e-05 -1.749824e-07
4.275842e-05 -1.672656e-05 -1.712282e-07
4.274083e-05 -1.671970e-05 -1.675109e-07
4.272364e-05 -1.671298e-05 -1.638304e-07
4.270683e-05 -1.670642e-05 -1.601864e-07
4.267435e-05 -1.669375e-05 -1.530074e-07
4.265868e-05 -1.668763e-05 -1.494720e-07
4.264337e-05 -1.668166e-05 -1.459723e-07
4.262844e-05 -1.667583e-05 -1.425083e-07
4.261386e-05 -1.667014e-05 -1.390795e-07
4.259965e-05 -1.666459e-05 -1.356860e-07
4.255814e-05 -1.665150e-05 -1.295101e-07
4.255912e-05 -1.664878e-05 -1.257151e-07
4.254630e-05 -1.664377e-05 -1.224609e-07
4.253383e-05 -1.663890e-05 -1.192411e-07
4.252169e-05 -1.663416e-05 -1.160558e-07
4.250988e-05 -1.662956e-05 -1.129047e-07
4.248724e-05 -1.662072e-05 -1.067048e-07
4.247641e-05 -1.661649e-05 -1.036558e-07
4.246589e-05 -1.661239e-05 -1.006406e-07
4.245569e-05 -1.660840e-05 -9.765897e-08
4.244579e-05 -1.660454e-05 -9.471080e-08
4.243620e-05 -1.660080e-05 -9.179580e-08
4.242692e-05 -1.659718e-05 -8.891365e-08
4.239863e-05 -1.658877e-05 -8.323713e-08
4.240082e-05 -1.658699e-05 -8.045858e-08
4.239269e-05 -1.658382e-05 -7.770074e-08
4.238485e-05 -1.658076e-05 -7.497020e-08
4.237727e-05 -1.657780e-05 -7.226367e-08
4.236997e-05 -1.657495e-05 -6.957607e-08
4.236293e-05 -1.657220e-05 -6.690043e-08
4.235615e-05 -1.656955e-05 -6.422956e-08
4.234341e-05 -1.656457e-05 -5.888235e-08
4.233745e-05 -1.656224e-05 -5.620025e-08
4.233176e-05 -1.656002e-05 -5.351027e-08
4.232634e-05 -1.655790e-05 -5.081147e-08
4.232121e-05 -1.655590e-05 -4.810319e-08
4.231635e-05 -1.655400e-05 -4.538500e-08
4.231178e-05 -1.655221e-05 -4.265657e-08
4.230749e-05 -1.655053e-05 -3.991769e-08
4.230348e-05 -1.654897e-05 -3.716820e-08
4.229633e-05 -1.654617e-05 -3.163697e-08
4.229318e-05 -1.654494e-05 -2.885507e-08
4.229032e-05 -1.654382e-05 -2.606222e-08
4.228775e-05 -1.654282e-05 -2.325836e-08
4.228547e-05 -1.654193e-05 -2.044345e-08
4.228348e-05 -1.654115e-05 -1.761742e-08
4.228178e-05 -1.654048e-05 -1.478021e-08
4.228038e-05 -1.653994e-05 -1.193176e-08
4.227927e-05 -1.653950e-05 -9.071998e-09
4.227794e-05 -1.653898e-05 -3.318185e-09
4.227772e-05 -1.653889e-05 -4.239489e-10
4.227780e-05 -1.653892e-05 2.481981e-09
4.227818e-05 -1.653907e-05 5.399721e-09
4.227886e-05 -1.653934e-05 8.329395e-09
4.227984e-05 -1.653972e-05 1.127113e-08
4.228112e-05 -1.654022e-05 1.422504e-08
4.228271e-05 -1.654084e-05 1.719124e-08
4.228460e-05 -1.654158e-05 2.016979e-08
4.228680e-05 -1.654243e-05 2.316069e-08
4.228931e-05 -1.654341e-05 2.616385e-08
4.229213e-05 -1.654451e-05 2.917901e-08
4.229341e-05 -1.654793e-05 3.738619e-08
4.230246e-05 -1.654853e-05 3.828938e-08
4.230654e-05 -1.655012e-05 4.134288e-08
4.231095e-05 -1.655183e-05 4.440002e-08
4.231570e-05 -1.655368e-05 4.745570e-08
4.232080e-05 -1.655566e-05 5.050205e-08
4.232625e-05 -1.655778e-05 5.352685e-08
4.233208e-05 -1.656005e-05 5.651087e-08
4.233829e-05 -1.656248e-05 5.942357e-08
4.234490e-05 -1.656507e-05 6.221933e-08
4.235187e-05 -1.656781e-05 6.484374e-08
4.235919e-05 -1.657070e-05 6.724967e-08
4.236681e-05 -1.657370e-05 6.940506e-08
4.237469e-05 -1.657681e-05 7.128950e-08
4.238279e-05 -1.658000e-05 7.288994e-08
4.240198e-05 -1.658827e-05 7.698344e-08
4.240796e-05 -1.658992e-05 7.591524e-08
4.241653e-05 -1.659329e-05 7.631821e-08
4.242512e-05 -1.659668e-05 7.641461e-08
4.243371e-05 -1.660006e-05 7.620316e-08
4.244227e-05 -1.660343e-05 7.568287e-08
4.245075e-05 -1.660677e-05 7.485302e-08
4.245914e-05 -1.661008e-05 7.371299e-08
4.246739e-05 -1.661333e-05 7.226224e-08
4.247548e-05 -1.661652e-05 7.050021e-08
4.248337e-05 -1.661963e-05 6.842633e-08
4.249104e-05 -1.662265e-05 6.603996e-08
4.249845e-05 -1.662558e-05 6.334042e-08
4.250558e-05 -1.662839e-05 6.032691e-08
4.251238e-05 -1.663108e-05 5.699862e-08
4.251884e-05 -1.663363e-05 5.335473e-08
4.252492e-05 -1.663604e-05 4.939447e-08
4.253059e-05 -1.663829e-05 4.511731e-08
4.253583e-05 -1.664037e-05 4.052315e-08
4.254059e-05 -1.664227e-05 3.561262e-08
4.254484e-05 -1.664397e-05 3.038757e-08
4.254855e-05 -1.664547e-05 2.485168e-08
4.255168e-05 -1.664674e-05 1.901140e-08
4.255417e-05 -1.664778e-05 1.287720e-08
4.255597e-05 -1.664855e-05 6.465227e-09
4.255701e-05 -1.664904e-05 -2.003432e-10
4.255719e-05 -1.664920e-05 -7.084058e-09
4.255640e-05 -1.664900e-05 -1.413457e-08
4.255448e-05 -1.664836e-05 -2.127774e-08
4.255125e-05 -1.664721e-05 -2.840575e-08
4.254647e-05 -1.664545e-05 -3.535928e-08
4.253986e-05 -1.664295e-05 -4.189682e-08
4.253114e-05 -1.663955e-05 -4.764219e-08
4.251994e-05 -1.663506e-05 -5.210885e-08
4.250640e-05 -1.662951e-05 -5.440371e-08
4.249318e-05 -1.662340e-05 -5.184476e-08
4.247443e-05 -1.661686e-05 -4.505448e-08
4.233328e-05 -1.657467e-05 -1.489387e-08
4.239278e-05 -1.658494e-05 7.610923e-08
4.228987e-05 -1.654653e-05 3.429234e-08
4.245852e-05 -1.661262e-05 -2.687047e-08
4.227152e-05 -1.653922e-05 -4.845840e-09
4.250369e-05 -1.665425e-05 -2.045447e-09
4.229163e-05 -1.654698e-05 -3.359278e-08
4.252249e-05 -1.666035e-05 -4.007208e-10
4.234040e-05 -1.656593e-05 -6.125331e-08
4.240710e-05 -1.659211e-05 -8.608674e-08
4.253158e-05 -1.666198e-05 -1.083000e-11
4.248572e-05 -1.662305e-05 -1.100761e-07
4.257140e-05 -1.665671e-05 -1.328715e-07
4.251596e-05 -1.666006e-05 -2.874932e-09
4.267419e-05 -1.669705e-05 -1.573997e-07
4.250375e-05 -1.665346e-05 2.212248e-09
4.279539e-05 -1.674459e-05 -1.837174e-07
4.233351e-05 -1.657487e-05 1.501118e-08
4.281428e-05 -1.675200e-05 -1.876256e-07
4.283358e-05 -1.675956e-05 -1.915700e-07
4.240845e-05 -1.661262e-05 3.485074e-08
4.252792e-05 -1.666301e-05 -1.657264e-09
4.285329e-05 -1.676729e-05 -1.955497e-07
4.247447e-05 -1.661664e-05 4.565540e-08
4.287343e-05 -1.677518e-05 -1.995628e-07
4.249108e-05 -1.662270e-05 5.257547e-08
4.289400e-05 -1.678324e-05 -2.036066e-07
4.250620e-05 -1.662938e-05 5.455120e-08
4.291501e-05 -1.679147e-05 -2.076766e-07
4.251977e-05 -1.663500e-05 5.222534e-08
4.295848e-05 -1.680847e-05 -2.158626e-07
4.298101e-05 -1.681725e-05 -2.199494e-07
4.253970e-05 -1.664289e-05 4.193753e-08
4.300415e-05 -1.682624e-05 -2.239964e-07
4.254630e-05 -1.664539e-05 3.538448e-08
4.302800e-05 -1.683545e-05 -2.279551e-07
4.255108e-05 -1.664714e-05 2.842084e-08
4.305260e-05 -1.684488e-05 -2.317600e-07
4.255431e-05 -1.664829e-05 2.128670e-08
4.307786e-05 -1.685452e-05 -2.353481e-07
4.255623e-05 -1.664892e-05 1.414000e-08
4.310364e-05 -1.686434e-05 -2.386754e-07
4.255702e-05 -1.664913e-05 7.087422e-09
4.312988e-05 -1.687432e-05 -2.417148e-07
4.255684e-05 -1.664897e-05 2.024402e-10
4.315648e-05 -1.688444e-05 -2.444492e-07
4.255580e-05 -1.664848e-05 -6.463978e-09
4.318341e-05 -1.689467e-05 -2.468677e-07
4.255400e-05 -1.664771e-05 -1.287657e-08
4.321060e-05 -1.690501e-05 -2.489629e-07
4.255150e-05 -1.664667e-05 -1.901125e-08
4.323802e-05 -1.691544e-05 -2.507298e-07
4.254838e-05 -1.664540e-05 -2.485190e-08
4.326562e-05 -1.692594e-05 -2.521648e-07
4.329337e-05 -1.693650e-05 -2.532653e-07
4.254041e-05 -1.664220e-05 -3.561337e-08
4.332123e-05 -1.694710e-05 -2.540294e-07
4.253566e-05 -1.664030e-05 -4.052408e-08
4.334917e-05 -1.695774e-05 -2.544555e-07
4.337715e-05 -1.696839e-05 -2.545424e-07
4.252475e-05 -1.663597e-05 -4.939561e-08
4.340513e-05 -1.697905e-05 -2.542891e-07
4.251868e-05 -1.663356e-05 -5.335593e-08
4.346098e-05 -1.700032e-05 -2.527580e-07
4.251222e-05 -1.663101e-05 -5.699986e-08
4.348877e-05 -1.701091e-05 -2.514786e-07
4.250541e-05 -1.662832e-05 -6.032817e-08
4.351643e-05 -1.702145e-05 -2.498556e-07
4.249829e-05 -1.662551e-05 -6.334168e-08
4.354392e-05 -1.703192e-05 -2.478882e-07
4.249088e-05 -1.662259e-05 -6.604122e-08
4.357120e-05 -1.704231e-05 -2.455757e-07
4.248321e-05 -1.661956e-05 -6.842758e-08
4.359824e-05 -1.705261e-05 -2.429172e-07
4.247532e-05 -1.661645e-05 -7.050145e-08
4.362500e-05 -1.706280e-05 -2.399121e-07
4.246723e-05 -1.661326e-05 -7.226347e-08
4.365144e-05 -1.707287e-05 -2.365596e-07
4.245898e-05 -1.661001e-05 -7.371421e-08
4.367753e-05 -1.708280e-05 -2.328590e-07
4.370324e-05 -1.709258e-05 -2.288095e-07
4.244211e-05 -1.660337e-05 -7.568405e-08
4.372851e-05 -1.710220e-05 -2.244104e-07
4.375332e-05 -1.711163e-05 -2.196610e-07
4.377763e-05 -1.712087e-05 -2.145606e-07
4.241637e-05 -1.659323e-05 -7.631930e-08
4.380141e-05 -1.712990e-05 -2.091085e-07
4.240781e-05 -1.658986e-05 -7.591630e-08
4.382460e-05 -1.713870e-05 -2.033042e-07
4.384719e-05 -1.714727e-05 -1.971471e-07
4.386912e-05 -1.715558e-05 -1.906367e-07
4.238264e-05 -1.657994e-05 -7.289087e-08
4.391090e-05 -1.717138e-05 -1.765552e-07
4.237455e-05 -1.657675e-05 -7.129038e-08
4.393066e-05 -1.717884e-05 -1.689843e-07
4.236667e-05 -1.657364e-05 -6.940589e-08
4.394962e-05 -1.718599e-05 -1.610607e-07
4.235905e-05 -1.657064e-05 -6.725045e-08
4.396774e-05 -1.719281e-05 -1.527860e-07
4.235173e-05 -1.656775e-05 -6.484445e-08
4.398497e-05 -1.719928e-05 -1.441625e-07
4.400128e-05 -1.720539e-05 -1.351944e-07
4.233815e-05 -1.656242e-05 -5.942414e-08
4.401660e-05 -1.721112e-05 -1.258880e-07
4.233194e-05 -1.656000e-05 -5.651138e-08
4.403088e-05 -1.721645e-05 -1.162532e-07
4.404405e-05 -1.722135e-05 -1.063057e-07
4.232066e-05 -1.655560e-05 -5.050244e-08
4.405600e-05 -1.722581e-05 -9.607082e-08
4.406661e-05 -1.722978e-05 -8.558947e-08
4.231081e-05 -1.655178e-05 -4.440032e-08
4.407571e-05 -1.723323e-05 -7.492970e-08
4.230640e-05 -1.655006e-05 -4.134313e-08
4.408312e-05 -1.723614e-05 -6.419472e-08
4.230232e-05 -1.654847e-05 -3.828961e-08
4.408889e-05 -1.723851e-05 -5.350127e-08
4.409319e-05 -1.724036e-05 -4.294107e-08
4.229512e-05 -1.654567e-05 -3.220582e-08
4.409618e-05 -1.724174e-05 -3.257124e-08
4.229199e-05 -1.654445e-05 -2.917915e-08
4.409797e-05 -1.724266e-05 -2.242672e-08
4.228917e-05 -1.654335e-05 -2.616398e-08
4.409862e-05 -1.724315e-05 -1.252932e-08
4.228667e-05 -1.654238e-05 -2.316081e-08
4.409675e-05 -1.724289e-05 6.473297e-09
4.228447e-05 -1.654152e-05 -2.016990e-08
4.409433e-05 -1.724218e-05 1.556348e-08
4.228257e-05 -1.654078e-05 -1.719135e-08
4.409096e-05 -1.724110e-05 2.437359e-08
4.228099e-05 -1.654016e-05 -1.422515e-08
4.408667e-05 -1.723966e-05 3.290100e-08
4.227970e-05 -1.653966e-05 -1.127124e-08
4.408151e-05 -1.723788e-05 4.114396e-08
4.407549e-05 -1.723576e-05 4.910135e-08
4.406866e-05 -1.723332e-05 5.677247e-08
4.227766e-05 -1.653887e-05 -2.482113e-09
4.406104e-05 -1.723057e-05 6.415689e-08
4.227758e-05 -1.653884e-05 4.238078e-10
4.405265e-05 -1.722752e-05 7.125438e-08
4.404354e-05 -1.722419e-05 7.806483e-08
4.227832e-05 -1.653913e-05 6.200677e-09
4.403373e-05 -1.722058e-05 8.458824e-08
4.227913e-05 -1.653945e-05 9.071832e-09
4.402324e-05 -1.721670e-05 9.082464e-08
4.228024e-05 -1.653988e-05 1.193159e-08
4.401212e-05 -1.721258e-05 9.677410e-08
4.228165e-05 -1.654043e-05 1.478003e-08
4.400038e-05 -1.720822e-05 1.024368e-07
4.398807e-05 -1.720363e-05 1.078127e-07
4.228533e-05 -1.654187e-05 2.044325e-08
4.397521e-05 -1.719883e-05 1.129022e-07
4.228761e-05 -1.654276e-05 2.325815e-08
4.396182e-05 -1.719382e-05 1.177052e-07
4.229018e-05 -1.654377e-05 2.606199e-08
4.393363e-05 -1.718325e-05 1.264531e-07
4.229304e-05 -1.654488e-05 2.885484e-08
4.391887e-05 -1.717770e-05 1.303982e-07
4.390372e-05 -1.717201e-05 1.340578e-07
4.229963e-05 -1.654746e-05 3.440774e-08
4.388821e-05 -1.716617e-05 1.374321e-07
4.230335e-05 -1.654891e-05 3.716794e-08
4.387235e-05 -1.716019e-05 1.405213e-07
4.230736e-05 -1.655048e-05 3.991741e-08
4.385619e-05 -1.715410e-05 1.433257e-07
4.231165e-05 -1.655215e-05 4.265628e-08
4.383975e-05 -1.714791e-05 1.458457e-07
4.231622e-05 -1.655394e-05 4.538469e-08
4.382307e-05 -1.714161e-05 1.480816e-07
4.232107e-05 -1.655584e-05 4.810288e-08
4.380617e-05 -1.713523e-05 1.500340e-07
4.232621e-05 -1.655785e-05 5.081114e-08
4.378908e-05 -1.712878e-05 1.517032e-07
4.233162e-05 -1.655996e-05 5.350993e-08
4.377183e-05 -1.712227e-05 1.530902e-07
4.375446e-05 -1.711571e-05 1.541960e-07
4.373699e-05 -1.710911e-05 1.550220e-07
4.234951e-05 -1.656696e-05 6.155765e-08
4.371945e-05 -1.710249e-05 1.555703e-07
4.235602e-05 -1.656950e-05 6.422915e-08
4.370189e-05 -1.709586e-05 1.558438e-07
4.368434e-05 -1.708922e-05 1.558468e-07
4.236983e-05 -1.657490e-05 6.957563e-08
4.364944e-05 -1.707602e-05 1.550711e-07
4.363221e-05 -1.706949e-05 1.543184e-07
4.238471e-05 -1.658070e-05 7.496971e-08
4.361523e-05 -1.706302e-05 1.533537e-07
4.239256e-05 -1.658377e-05 7.770024e-08
4.359860e-05 -1.705665e-05 1.522185e-07
4.240069e-05 -1.658694e-05 8.045806e-08
4.358237e-05 -1.705037e-05 1.509671e-07
4.356648e-05 -1.704419e-05 1.496489e-07
4.241779e-05 -1.659361e-05 8.606332e-08
4.355085e-05 -1.703809e-05 1.482973e-07
4.242678e-05 -1.659712e-05 8.891309e-08
4.353545e-05 -1.703207e-05 1.469322e-07
4.243607e-05 -1.660074e-05 9.179523e-08
4.352023e-05 -1.702611e-05 1.455659e-07
4.350519e-05 -1.702021e-05 1.442061e-07
4.245556e-05 -1.660835e-05 9.765837e-08
4.349030e-05 -1.701438e-05 1.428577e-07
4.246576e-05 -1.661233e-05 1.006400e-07
4.347556e-05 -1.700860e-05 1.415236e-07
4.247628e-05 -1.661644e-05 1.036552e-07
4.346097e-05 -1.700288e-05 1.402060e-07
4.344651e-05 -1.699721e-05 1.389061e-07
4.249827e-05 -1.662502e-05 1.097871e-07
4.343219e-05 -1.699160e-05 1.376247e-07
4.341801e-05 -1.698603e-05 1.363621e-07
4.252156e-05 -1.663411e-05 1.160551e-07
4.340395e-05 -1.698052e-05 1.351187e-07
4.253370e-05 -1.663885e-05 1.192405e-07
4.337623e-05 -1.696965e-05 1.326897e-07
4.254618e-05 -1.664372e-05 1.224602e-07
4.336256e-05 -1.696429e-05 1.315040e-07
4.255899e-05 -1.664872e-05 1.257144e-07
4.334901e-05 -1.695898e-05 1.303375e-07
4.333559e-05 -1.695371e-05 1.291901e-07
4.258566e-05 -1.665913e-05 1.323268e-07
4.332228e-05 -1.694849e-05 1.280617e-07
4.259952e-05 -1.666454e-05 1.356853e-07
4.330910e-05 -1.694332e-05 1.269523e-07
4.329604e-05 -1.693820e-05 1.258616e-07
4.262831e-05 -1.667578e-05 1.425075e-07
4.328309e-05 -1.693312e-05 1.247898e-07
4.264324e-05 -1.668161e-05 1.459716e-07
4.327025e-05 -1.692809e-05 1.237367e-07
4.265855e-05 -1.668758e-05 1.494712e-07
4.325753e-05 -1.692310e-05 1.227023e-07
4.267422e-05 -1.669370e-05 1.530067e-07
4.324491e-05 -1.691815e-05 1.216866e-07
4.323241e-05 -1.691324e-05 1.206894e-07
4.270670e-05 -1.670637e-05 1.601856e-07
4.322001e-05 -1.690838e-05 1.197109e-07
4.272351e-05 -1.671293e-05 1.638296e-07
4.320771e-05 -1.690356e-05 1.187509e-07
4.274071e-05 -1.671964e-05 1.675101e-07
4.319552e-05 -1.689877e-05 1.178094e-07
4.275829e-05 -1.672651e-05 1.712274e-07
4.318343e-05 -1.689403e-05 1.168865e-07
4.277628e-05 -1.673352e-05 1.749816e-07
4.315954e-05 -1.688466e-05 1.150961e-07
4.314774e-05 -1.688003e-05 1.142286e-07
4.313604e-05 -1.687544e-05 1.133795e-07
4.312442e-05 -1.687088e-05 1.125486e-07
4.311289e-05 -1.686635e-05 1.117358e-07
4.310145e-05 -1.686187e-05 1.109409e-07
4.309010e-05 -1.685741e-05 1.101634e-07
4.291366e-05 -1.678711e-05 2.022496e-07
4.307882e-05 -1.685299e-05 1.094029e-07
4.293502e-05 -1.679543e-05 2.062618e-07
4.306763e-05 -1.684859e-05 1.086584e-07
4.305651e-05 -1.684423e-05 1.079285e-07
4.304545e-05 -1.683989e-05 1.072113e-07
4.303445e-05 -1.683558e-05 1.065035e-07
4.302349e-05 -1.683130e-05 1.057997e-07
4.301256e-05 -1.682703e-05 1.050913e-07
4.300163e-05 -1.682278e-05 1.043654e-07
4.299073e-05 -1.681855e-05 1.036083e-07
4.296906e-05 -1.681016e-05 1.019622e-07
4.295834e-05 -1.680602e-05 1.010626e-07
4.294771e-05 -1.680191e-05 1.001084e-07
4.293718e-05 -1.679785e-05 9.909783e-08
4.292675e-05 -1.679382e-05 9.803005e-08
4.291644e-05 -1.678984e-05 9.690442e-08
4.290626e-05 -1.678591e-05 9.572054e-08
4.289620e-05 -1.678203e-05 9.447820e-08
4.288627e-05 -1.677820e-05 9.317727e-08
4.287649e-05 -1.677443e-05 9.181768e-08
4.339040e-05 -1.697368e-05 2.501997e-07
4.286685e-05 -1.677071e-05 9.039943e-08
4.341762e-05 -1.698435e-05 2.497849e-07
4.285737e-05 -1.676705e-05 8.892251e-08
4.284804e-05 -1.676346e-05 8.738696e-08
4.283887e-05 -1.675993e-05 8.579282e-08
4.282988e-05 -1.675646e-05 8.414011e-08
4.282106e-05 -1.675307e-05 8.242888e-08
4.280397e-05 -1.674649e-05 7.883097e-08
4.279571e-05 -1.674331e-05 7.694433e-08
4.278765e-05 -1.674021e-05 7.499925e-08
4.277979e-05 -1.673719e-05 7.299573e-08
4.277215e-05 -1.673426e-05 7.093377e-08
4.276472e-05 -1.673140e-05 6.881335e-08
4.275751e-05 -1.672864e-05 6.663444e-08
4.275052e-05 -1.672596e-05 6.439699e-08
4.274377e-05 -1.672337e-05 6.210098e-08
4.273726e-05 -1.672088e-05 5.974636e-08
4.273099e-05 -1.671848e-05 5.733309e-08
4.272497e-05 -1.671618e-05 5.486116e-08
4.271920e-05 -1.671398e-05 5.233059e-08
4.386460e-05 -1.715994e-05 1.841104e-07
4.271369e-05 -1.671188e-05 4.974147e-08
4.270845e-05 -1.670989e-05 4.709397e-08
4.269879e-05 -1.670622e-05 4.162551e-08
4.269438e-05 -1.670455e-05 3.880610e-08
4.269027e-05 -1.670299e-05 3.593171e-08
4.268646e-05 -1.670155e-05 3.300466e-08
4.268298e-05 -1.670024e-05 3.002852e-08
4.267982e-05 -1.669905e-05 2.700886e-08
4.267704e-05 -1.669799e-05 2.395446e-08
4.267465e-05 -1.669708e-05 2.087939e-08
4.267272e-05 -1.669632e-05 1.780653e-08
4.267131e-05 -1.669571e-05 1.477246e-08
4.267043e-05 -1.669528e-05 1.182368e-08
4.267002e-05 -1.669498e-05 9.001476e-09
4.267000e-05 -1.669482e-05 6.333301e-09
4.267030e-05 -1.669478e-05 3.835885e-09
4.267088e-05 -1.669484e-05 1.519622e-09
4.267171e-05 -1.669500e-05 -6.089300e-10
4.407627e-05 -1.724336e-05 1.722929e-08
4.267401e-05 -1.669555e-05 -4.287551e-09
4.407705e-05 -1.724364e-05 7.622697e-09
4.267542e-05 -1.669592e-05 -5.833107e-09
4.267697e-05 -1.669636e-05 -7.181082e-09
4.267865e-05 -1.669684e-05 -8.330726e-09
4.268044e-05 -1.669737e-05 -9.281583e-09
4.268231e-05 -1.669792e-05 -1.003336e-08
4.268424e-05 -1.669851e-05 -1.058591e-08
4.268622e-05 -1.669911e-05 -1.093916e-08
4.268822e-05 -1.669971e-05 -1.109304e-08
4.269022e-05 -1.670033e-05 -1.104757e-08
4.269221e-05 -1.670093e-05 -1.080272e-08
4.269416e-05 -1.670152e-05 -1.035849e-08
4.269605e-05 -1.670209e-05 -9.714892e-09
4.269787e-05 -1.670263e-05 -8.871885e-09
4.269959e-05 -1.670313e-05 -7.829448e-09
4.270266e-05 -1.670398e-05 -5.146095e-09
4.270398e-05 -1.670432e-05 -3.505056e-09
4.270511e-05 -1.670460e-05 -1.664329e-09
4.395792e-05 -1.719655e-05 -1.134036e-07
4.270605e-05 -1.670479e-05 3.761680e-10
4.394491e-05 -1.719143e-05 -1.179878e-07
4.270677e-05 -1.670490e-05 2.616537e-09
4.270725e-05 -1.670491e-05 5.056862e-09
4.270748e-05 -1.670483e-05 7.697192e-09
4.270744e-05 -1.670464e-05 1.053754e-08
4.270710e-05 -1.670433e-05 1.357782e-08
4.270645e-05 -1.670390e-05 1.681776e-08
4.270546e-05 -1.670333e-05 2.025687e-08
4.270413e-05 -1.670263e-05 2.389427e-08
4.270241e-05 -1.670178e-05 2.772849e-08
4.270030e-05 -1.670078e-05 3.175724e-08
4.269777e-05 -1.669961e-05 3.597695e-08
4.269129e-05 -1.669673e-05 4.496469e-08
4.268727e-05 -1.669500e-05 4.971180e-08
4.268264e-05 -1.669305e-05 5.460382e-08
4.267732e-05 -1.669086e-05 5.960962e-08
4.267117e-05 -1.668840e-05 6.467917e-08
4.369315e-05 -1.709252e-05 -1.532767e-07
4.266403e-05 -1.668564e-05 6.973068e-08
4.367626e-05 -1.708589e-05 -1.531508e-07
4.265574e-05 -1.668257e-05 7.464651e-08
4.264642e-05 -1.667921e-05 7.930326e-08
4.263630e-05 -1.667560e-05 8.360928e-08
4.262555e-05 -1.667178e-05 8.750821e-08
4.261430e-05 -1.666778e-05 9.096549e-08
4.260265e-05 -1.666364e-05 9.395961e-08
4.259068e-05 -1.665939e-05 9.647710e-08
4.257847e-05 -1.665504e-05 9.850941e-08
4.256607e-05 -1.665062e-05 1.000512e-07
4.254096e-05 -1.664167e-05 1.016514e-07
4.252836e-05 -1.663717e-05 1.017070e-07
4.251578e-05 -1.663269e-05 1.012655e-07
4.250330e-05 -1.662824e-05 1.003270e-07
4.249094e-05 -1.662385e-05 9.889178e-08
4.247877e-05 -1.661952e-05 9.696024e-08
4.246683e-05 -1.661529e-05 9.453293e-08
4.245517e-05 -1.661117e-05 9.161038e-08
4.341359e-05 -1.698316e-05 -1.335228e-07
4.244384e-05 -1.660717e-05 8.819308e-08
4.339955e-05 -1.697767e-05 -1.323078e-07
4.243289e-05 -1.660333e-05 8.428151e-08
4.242236e-05 -1.659965e-05 7.987609e-08
4.241232e-05 -1.659616e-05 7.497714e-08
4.240280e-05 -1.659288e-05 6.958489e-08
4.239385e-05 -1.658982e-05 6.369948e-08
4.238553e-05 -1.658700e-05 5.732096e-08
4.237095e-05 -1.658218e-05 4.308408e-08
4.236479e-05 -1.658021e-05 3.522525e-08
4.235944e-05 -1.657856e-05 2.687231e-08
4.235496e-05 -1.657724e-05 1.802478e-08
4.235139e-05 -1.657628e-05 8.682157e-09
4.234878e-05 -1.657570e-05 -1.156072e-09
4.234718e-05 -1.657551e-05 -1.149028e-08
4.234663e-05 -1.657573e-05 -2.232060e-08
4.234718e-05 -1.657637e-05 -3.364669e-08
4.234889e-05 -1.657747e-05 -4.546747e-08
4.319138e-05 -1.689630e-05 -1.154170e-07
4.235181e-05 -1.657904e-05 -5.778066e-08
4.317930e-05 -1.689158e-05 -1.145178e-07
4.235599e-05 -1.658110e-05 -7.058215e-08
4.236152e-05 -1.658368e-05 -8.386508e-08
4.236845e-05 -1.658679e-05 -9.761834e-08
4.237690e-05 -1.659048e-05 -1.118242e-07
4.239884e-05 -1.659971e-05 -1.414635e-07
4.241271e-05 -1.660535e-05 -1.567777e-07
4.242892e-05 -1.661175e-05 -1.722757e-07
4.244783e-05 -1.661897e-05 -1.877649e-07
4.246949e-05 -1.662701e-05 -2.030052e-07
4.249352e-05 -1.663582e-05 -2.177883e-07
4.251956e-05 -1.664533e-05 -2.319775e-07
4.254734e-05 -1.665546e-05 -2.454883e-07
4.257666e-05 -1.666616e-05 -2.582678e-07
4.260738e-05 -1.667740e-05 -2.702816e-07
4.263936e-05 -1.668912e-05 -2.815069e-07
4.267249e-05 -1.670128e-05 -2.919284e-07
4.299761e-05 -1.682055e-05 -1.022595e-07
4.270667e-05 -1.671386e-05 -3.015352e-07
4.298683e-05 -1.681633e-05 -1.014925e-07
4.274181e-05 -1.672682e-05 -3.103194e-07
4.281463e-05 -1.675373e-05 -3.253983e-07
4.285214e-05 -1.676763e-05 -3.316847e-07
4.289028e-05 -1.678178e-05 -3.371312e-07
4.292895e-05 -1.679614e-05 -3.417350e-07
4.296809e-05 -1.681069e-05 -3.454934e-07
4.300760e-05 -1.682539e-05 -3.484035e-07
4.304739e-05 -1.684020e-05 -3.504627e-07
4.308739e-05 -1.685511e-05 -3.516681e-07
4.312751e-05 -1.687006e-05 -3.520171e-07
4.316767e-05 -1.688504e-05 -3.515067e-07
4.320776e-05 -1.689999e-05 -3.501340e-07
4.324771e-05 -1.691490e-05 -3.478960e-07
4.328742e-05 -1.692972e-05 -3.447897e-07
4.332680e-05 -1.694441e-05 -3.408121e-07
4.336577e-05 -1.695895e-05 -3.359601e-07
4.282916e-05 -1.675462e-05 -8.189238e-08
4.344210e-05 -1.698740e-05 -3.236214e-07
4.282056e-05 -1.675126e-05 -8.018064e-08
4.347927e-05 -1.700124e-05 -3.161288e-07
4.351565e-05 -1.701478e-05 -3.077505e-07
4.355116e-05 -1.702798e-05 -2.984841e-07
4.358571e-05 -1.704081e-05 -2.883274e-07
4.361918e-05 -1.705322e-05 -2.772789e-07
4.365151e-05 -1.706517e-05 -2.653378e-07
4.368257e-05 -1.707664e-05 -2.525041e-07
4.371229e-05 -1.708758e-05 -2.387797e-07
4.374055e-05 -1.709795e-05 -2.241684e-07
4.376724e-05 -1.710771e-05 -2.086773e-07
4.379225e-05 -1.711681e-05 -1.923181e-07
4.381542e-05 -1.712521e-05 -1.751097e-07
4.383661e-05 -1.713285e-05 -1.570817e-07
4.387213e-05 -1.714560e-05 -1.187855e-07
4.388584e-05 -1.715056e-05 -9.871766e-08
4.271690e-05 -1.671069e-05 -4.760091e-08
4.389622e-05 -1.715445e-05 -7.828352e-08
4.271194e-05 -1.670875e-05 -4.496840e-08
4.390296e-05 -1.715721e-05 -5.777460e-08
4.390630e-05 -1.715888e-05 -3.748858e-08
4.390674e-05 -1.715955e-05 -1.764154e-08
4.390465e-05 -1.715931e-05 1.634492e-09
4.390029e-05 -1.715822e-05 2.025809e-08
4.389383e-05 -1.715632e-05 3.817804e-08
4.388544e-05 -1.715368e-05 5.536155e-08
4.387525e-05 -1.715034e-05 7.178728e-08
4.386337e-05 -1.714634e-05 8.744127e-08
4.384988e-05 -1.714170e-05 1.023144e-07
4.383490e-05 -1.713648e-05 1.164010e-07
4.380076e-05 -1.712440e-05 1.422019e-07
4.378177e-05 -1.711761e-05 1.539135e-07
4.376163e-05 -1.711036e-05 1.648322e-07
4.374039e-05 -1.710268e-05 1.749583e-07
4.371816e-05 -1.709462e-05 1.842929e-07
4.369501e-05 -1.708619e-05 1.928370e-07
4.267658e-05 -1.669498e-05 1.520054e-09
4.367103e-05 -1.707744e-05 2.005918e-07
4.364629e-05 -1.706840e-05 2.075589e-07
4.362089e-05 -1.705910e-05 2.137396e-07
4.359489e-05 -1.704957e-05 2.191357e-07
4.356839e-05 -1.703984e-05 2.237487e-07
4.354147e-05 -1.702995e-05 2.275804e-07
4.351421e-05 -1.701993e-05 2.306324e-07
4.348668e-05 -1.700982e-05 2.329064e-07
4.345898e-05 -1.699963e-05 2.344043e-07
4.340335e-05 -1.697918e-05 2.350780e-07
4.337558e-05 -1.696898e-05 2.342574e-07
4.334796e-05 -1.695884e-05 2.326674e-07
4.332054e-05 -1.694879e-05 2.303098e-07
4.329342e-05 -1.693885e-05 2.271865e-07
4.326667e-05 -1.692907e-05 2.232997e-07
4.324037e-05 -1.691946e-05 2.186519e-07
4.269750e-05 -1.670338e-05 7.061261e-09
4.321459e-05 -1.691006e-05 2.132463e-07
4.318942e-05 -1.690089e-05 2.070868e-07
4.316494e-05 -1.689200e-05 2.001790e-07
4.314123e-05 -1.688341e-05 1.925303e-07
4.311841e-05 -1.687516e-05 1.841518e-07
4.309656e-05 -1.686729e-05 1.750593e-07
4.307583e-05 -1.685983e-05 1.652771e-07
4.303840e-05 -1.684634e-05 1.438165e-07
4.302217e-05 -1.684043e-05 1.322955e-07
4.300802e-05 -1.683515e-05 1.204315e-07
4.299595e-05 -1.683050e-05 1.084055e-07
4.298571e-05 -1.682646e-05 9.636730e-08
4.297707e-05 -1.682297e-05 8.441235e-08
4.296987e-05 -1.682001e-05 7.259834e-08
4.296400e-05 -1.681754e-05 6.096068e-08
4.268922e-05 -1.670035e-05 -3.333599e-08
4.295939e-05 -1.681556e-05 4.952135e-08
4.268595e-05 -1.669909e-05 -3.757580e-08
4.295598e-05 -1.681403e-05 3.829409e-08
4.295372e-05 -1.681295e-05 2.728750e-08
4.295258e-05 -1.681230e-05 1.650690e-08
4.295252e-05 -1.681208e-05 5.955417e-09
4.295557e-05 -1.681286e-05 -1.445430e-08
4.295862e-05 -1.681385e-05 -2.431159e-08
4.296267e-05 -1.681522e-05 -3.393732e-08
4.296768e-05 -1.681697e-05 -4.333194e-08
4.297364e-05 -1.681909e-05 -5.249598e-08
4.298053e-05 -1.682158e-05 -6.143006e-08
4.298832e-05 -1.682441e-05 -7.013474e-08
4.299700e-05 -1.682760e-05 -7.861060e-08
4.300653e-05 -1.683111e-05 -8.685812e-08
4.301691e-05 -1.683496e-05 -9.487777e-08
4.302810e-05 -1.683912e-05 -1.026699e-07
4.256848e-05 -1.665284e-05 -9.753328e-08
4.304008e-05 -1.684359e-05 -1.102348e-07
4.255719e-05 -1.664839e-05 -9.880796e-08
4.305284e-05 -1.684837e-05 -1.175728e-07
4.306634e-05 -1.685344e-05 -1.246840e-07
4.309551e-05 -1.686441e-05 -1.382267e-07
4.311113e-05 -1.687031e-05 -1.446583e-07
4.312741e-05 -1.687646e-05 -1.508634e-07
4.314432e-05 -1.688286e-05 -1.568420e-07
4.316185e-05 -1.688950e-05 -1.625939e-07
4.317998e-05 -1.689637e-05 -1.681191e-07
4.319867e-05 -1.690347e-05 -1.734174e-07
4.321791e-05 -1.691078e-05 -1.784886e-07
4.323767e-05 -1.691830e-05 -1.833326e-07
4.325793e-05 -1.692601e-05 -1.879491e-07
4.327867e-05 -1.693390e-05 -1.923378e-07
4.329986e-05 -1.694198e-05 -1.964987e-07
4.332149e-05 -1.695023e-05 -2.004314e-07
4.240395e-05 -1.658801e-05 -5.942880e-08
4.334353e-05 -1.695863e-05 -2.041358e-07
4.239708e-05 -1.658530e-05 -5.291436e-08
4.338872e-05 -1.697589e-05 -2.108593e-07
4.341184e-05 -1.698472e-05 -2.138786e-07
4.343526e-05 -1.699368e-05 -2.166703e-07
4.345897e-05 -1.700275e-05 -2.192357e-07
4.348294e-05 -1.701192e-05 -2.215766e-07
4.350714e-05 -1.702119e-05 -2.236949e-07
4.353156e-05 -1.703055e-05 -2.255917e-07
4.355618e-05 -1.703998e-05 -2.272677e-07
4.358098e-05 -1.704949e-05 -2.287229e-07
4.360593e-05 -1.705905e-05 -2.299573e-07
4.363101e-05 -1.706867e-05 -2.309706e-07
4.365621e-05 -1.707834e-05 -2.317625e-07
4.368149e-05 -1.708803e-05 -2.323325e-07
4.370683e-05 -1.709776e-05 -2.326803e-07
4.375762e-05 -1.711725e-05 -2.327073e-07
4.240563e-05 -1.658795e-05 1.030743e-07
4.378301e-05 -1.712700e-05 -2.323855e-07
4.241612e-05 -1.659196e-05 1.172459e-07
4.380838e-05 -1.713673e-05 -2.318395e-07
4.383369e-05 -1.714645e-05 -2.310688e-07
4.385893e-05 -1.715614e-05 -2.300730e-07
4.388406e-05 -1.716578e-05 -2.288514e-07
4.390907e-05 -1.717538e-05 -2.274037e-07
4.393393e-05 -1.718493e-05 -2.257293e-07
4.395861e-05 -1.719440e-05 -2.238278e-07
4.398310e-05 -1.720380e-05 -2.216986e-07
4.400736e-05 -1.721311e-05 -2.193413e-07
4.403138e-05 -1.722233e-05 -2.167554e-07
4.405512e-05 -1.723144e-05 -2.139405e-07
4.410170e-05 -1.724930e-05 -2.076217e-07
4.412448e-05 -1.725804e-05 -2.041170e-07
4.414689e-05 -1.726663e-05 -2.003815e-07
4.274394e-05 -1.671984e-05 3.007443e-07
4.416891e-05 -1.727507e-05 -1.964149e-07
4.277758e-05 -1.673301e-05 3.089789e-07
4.419051e-05 -1.728334e-05 -1.922167e-07
4.421166e-05 -1.729144e-05 -1.877865e-07
4.423234e-05 -1.729935e-05 -1.831242e-07
4.425252e-05 -1.730708e-05 -1.782294e-07
4.427219e-05 -1.731460e-05 -1.731020e-07
4.429131e-05 -1.732190e-05 -1.677420e-07
4.430986e-05 -1.732898e-05 -1.621496e-07
4.432781e-05 -1.733583e-05 -1.563254e-07
4.434514e-05 -1.734244e-05 -1.502704e-07
4.436182e-05 -1.734879e-05 -1.439863e-07
4.439308e-05 -1.736068e-05 -1.307435e-07
4.440759e-05 -1.736619e-05 -1.237961e-07
4.442128e-05 -1.737139e-05 -1.166449e-07
4.443410e-05 -1.737627e-05 -1.093085e-07
4.444595e-05 -1.738081e-05 -1.018175e-07
4.333540e-05 -1.695192e-05 3.326929e-07
4.445674e-05 -1.738498e-05 -9.421969e-08
4.337220e-05 -1.696641e-05 3.274898e-07
4.446646e-05 -1.738879e-05 -8.657089e-08
4.447521e-05 -1.739224e-05 -7.891632e-08
4.448304e-05 -1.739536e-05 -7.128442e-08
4.448999e-05 -1.739814e-05 -6.369253e-08
4.449611e-05 -1.740059e-05 -5.615143e-08
4.450140e-05 -1.740273e-05 -4.866805e-08
4.450589e-05 -1.740455e-05 -4.124691e-08
4.451250e-05 -1.740726e-05 -2.660254e-08
4.451464e-05 -1.740816e-05 -1.938284e-08
4.451601e-05 -1.740876e-05 -1.223296e-08
4.451663e-05 -1.740907e-05 -5.153634e-09
4.451650e-05 -1.740908e-05 1.854581e-09
4.451562e-05 -1.740879e-05 8.791256e-09
4.451401e-05 -1.740822e-05 1.565606e-08
4.378523e-05 -1.712984e-05 1.632339e-07
4.451166e-05 -1.740736e-05 2.244867e-08
4.380330e-05 -1.713706e-05 1.451364e-07
4.450860e-05 -1.740622e-05 2.916886e-08
4.450482e-05 -1.740480e-05 3.581635e-08
4.450034e-05 -1.740310e-05 4.239094e-08
4.449515e-05 -1.740112e-05 4.889238e-08
4.448928e-05 -1.739888e-05 5.532049e-08
4.447549e-05 -1.739359e-05 6.795584e-08
4.446759e-05 -1.739055e-05 7.416271e-08
4.445904e-05 -1.738725e-05 8.029549e-08
4.444983e-05 -1.738370e-05 8.635402e-08
4.443999e-05 -1.737990e-05 9.233816e-08
4.442951e-05 -1.737585e-05 9.824778e-08
4.441841e-05 -1.737156e-05 1.040828e-07
4.440669e-05 -1.736702e-05 1.098430e-07
4.439438e-05 -1.736225e-05 1.155284e-07
4.438146e-05 -1.735724e-05 1.211388e-07
4.379744e-05 -1.713431e-05 -1.209274e-07
4.436796e-05 -1.735201e-05 1.266739e-07
4.435388e-05 -1.734655e-05 1.321336e-07
4.433923e-05 -1.734086e-05 1.375172e-07
4.430826e-05 -1.732883e-05 1.480531e-07
4.429195e-05 -1.732250e-05 1.532024e-07
4.427509e-05 -1.731595e-05 1.582695e-07
4.425770e-05 -1.730919e-05 1.632501e-07
4.423975e-05 -1.730223e-05 1.681377e-07
4.422124e-05 -1.729505e-05 1.729223e-07
4.420214e-05 -1.728766e-05 1.775874e-07
4.418240e-05 -1.728005e-05 1.821062e-07
4.416195e-05 -1.727221e-05 1.864343e-07
4.414077e-05 -1.726414e-05 1.905126e-07
4.411896e-05 -1.725588e-05 1.942850e-07
4.409664e-05 -1.724744e-05 1.977137e-07
4.346939e-05 -1.700477e-05 -2.297369e-07
4.407390e-05 -1.723886e-05 2.007762e-07
4.344334e-05 -1.699453e-05 -2.308291e-07
4.405083e-05 -1.723015e-05 2.034590e-07
4.400391e-05 -1.721244e-05 2.076570e-07
4.398017e-05 -1.720349e-05 2.091647e-07
4.395630e-05 -1.719448e-05 2.102759e-07
4.393236e-05 -1.718545e-05 2.109899e-07
4.390838e-05 -1.717641e-05 2.113066e-07
4.388441e-05 -1.716736e-05 2.112264e-07
4.386048e-05 -1.715834e-05 2.107498e-07
4.383665e-05 -1.714936e-05 2.098775e-07
4.381294e-05 -1.714042e-05 2.086102e-07
4.378941e-05 -1.713156e-05 2.069488e-07
4.376608e-05 -1.712278e-05 2.048940e-07
4.374301e-05 -1.711410e-05 2.024468e-07
4.372023e-05 -1.710553e-05 1.996077e-07
4.310873e-05 -1.686311e-05 -1.672901e-07
4.367571e-05 -1.708881e-05 1.927574e-07
4.309033e-05 -1.685587e-05 -1.573584e-07
4.365405e-05 -1.708068e-05 1.887475e-07
4.363284e-05 -1.707273e-05 1.843485e-07
4.361212e-05 -1.706498e-05 1.795610e-07
4.359193e-05 -1.705743e-05 1.743854e-07
4.357231e-05 -1.705011e-05 1.688221e-07
4.355330e-05 -1.704302e-05 1.628714e-07
4.353493e-05 -1.703619e-05 1.565335e-07
4.351725e-05 -1.702963e-05 1.498086e-07
4.350029e-05 -1.702335e-05 1.426967e-07
4.348409e-05 -1.701737e-05 1.351980e-07
4.346868e-05 -1.701170e-05 1.273127e-07
4.345412e-05 -1.700636e-05 1.190408e-07
4.342764e-05 -1.699671e-05 1.013401e-07
4.297609e-05 -1.681158e-05 -1.108916e-08
4.341580e-05 -1.699244e-05 9.191375e-08
4.297600e-05 -1.681157e-05 -8.219496e-10
4.340496e-05 -1.698855e-05 8.210649e-08
4.339516e-05 -1.698507e-05 7.192260e-08
4.338646e-05 -1.698201e-05 6.136875e-08
4.337890e-05 -1.697940e-05 5.045541e-08
4.337259e-05 -1.697725e-05 3.919898e-08
4.336760e-05 -1.697559e-05 2.762541e-08
4.336408e-05 -1.697447e-05 1.577636e-08
4.336222e-05 -1.697392e-05 3.719707e-09
4.336230e-05 -1.697398e-05 -8.431917e-09
4.336458e-05 -1.697471e-05 -2.050797e-08
4.336896e-05 -1.697609e-05 -3.231598e-08
4.338279e-05 -1.698054e-05 -5.458122e-08
4.339177e-05 -1.698350e-05 -6.488734e-08
4.340191e-05 -1.698690e-05 -7.458785e-08
4.307527e-05 -1.685047e-05 1.191129e-07
4.341309e-05 -1.699069e-05 -8.366025e-08
4.308863e-05 -1.685569e-05 1.259963e-07
4.342522e-05 -1.699485e-05 -9.209000e-08
4.343819e-05 -1.699933e-05 -9.986755e-08
4.345195e-05 -1.700412e-05 -1.069866e-07
4.346640e-05 -1.700919e-05 -1.134428e-07
4.348148e-05 -1.701450e-05 -1.192333e-07
4.349712e-05 -1.702003e-05 -1.243560e-07
4.351326e-05 -1.702575e-05 -1.288096e-07
4.352982e-05 -1.703165e-05 -1.325928e-07
4.354674e-05 -1.703768e-05 -1.357048e-07
4.358137e-05 -1.705007e-05 -1.399118e-07
4.359895e-05 -1.705637e-05 -1.410052e-07
4.361661e-05 -1.706270e-05 -1.414240e-07
4.363429e-05 -1.706905e-05 -1.411675e-07
4.365191e-05 -1.707537e-05 -1.402347e-07
4.334056e-05 -1.695419e-05 1.989484e-07
4.366941e-05 -1.708164e-05 -1.386247e-07
4.336228e-05 -1.696268e-05 2.024812e-07
4.368671e-05 -1.708784e-05 -1.363364e-07
4.370374e-05 -1.709394e-05 -1.333689e-07
4.372044e-05 -1.709990e-05 -1.297212e-07
4.373673e-05 -1.710571e-05 -1.253923e-07
4.375254e-05 -1.711133e-05 -1.203812e-07
4.376779e-05 -1.711674e-05 -1.146870e-07
4.379637e-05 -1.712679e-05 -1.012458e-07
4.380956e-05 -1.713138e-05 -9.349756e-08
4.382191e-05 -1.713565e-05 -8.506378e-08
4.383335e-05 -1.713956e-05 -7.594464e-08
4.384382e-05 -1.714309e-05 -6.614098e-08
4.385325e-05 -1.714620e-05 -5.565459e-08
4.386155e-05 -1.714888e-05 -4.448863e-08
4.386864e-05 -1.715108e-05 -3.264835e-08
4.369481e-05 -1.709285e-05 2.287029e-07
4.387444e-05 -1.715278e-05 -2.014192e-08
4.371969e-05 -1.710259e-05 2.289372e-07
4.387886e-05 -1.715394e-05 -6.982018e-09
4.388178e-05 -1.715453e-05 6.811919e-09
4.388306e-05 -1.715449e-05 2.120978e-08
4.388253e-05 -1.715379e-05 3.616425e-08
4.387500e-05 -1.715013e-05 6.739219e-08
4.386724e-05 -1.714703e-05 8.334212e-08
4.385654e-05 -1.714303e-05 9.918769e-08
4.384325e-05 -1.713820e-05 1.146898e-07
4.382777e-05 -1.713262e-05 1.296873e-07
4.381040e-05 -1.712636e-05 1.440834e-07
4.379135e-05 -1.711947e-05 1.578185e-07
4.377079e-05 -1.711201e-05 1.708557e-07
4.374886e-05 -1.710401e-05 1.831717e-07
4.403704e-05 -1.722702e-05 2.118459e-07
4.372566e-05 -1.709553e-05 1.947521e-07
4.406015e-05 -1.723609e-05 2.089650e-07
4.370130e-05 -1.708660e-05 2.055876e-07
4.367586e-05 -1.707725e-05 2.156731e-07
4.364945e-05 -1.706751e-05 2.250056e-07
4.359399e-05 -1.704702e-05 2.414080e-07
4.356511e-05 -1.703632e-05 2.484787e-07
4.353556e-05 -1.702536e-05 2.547972e-07
4.350542e-05 -1.701418e-05 2.603651e-07
4.347478e-05 -1.700280e-05 2.651845e-07
4.344370e-05 -1.699125e-05 2.692572e-07
4.341227e-05 -1.697956e-05 2.725855e-07
4.338055e-05 -1.696777e-05 2.751713e-07
4.334864e-05 -1.695591e-05 2.770169e-07
4.331660e-05 -1.694400e-05 2.781244e-07
4.328451e-05 -1.693207e-05 2.784959e-07
4.433973e-05 -1.734593e-05 1.447368e-07
4.325245e-05 -1.692016e-05 2.781334e-07
4.435554e-05 -1.735216e-05 1.384430e-07
4.318870e-05 -1.689649e-05 2.752144e-07
4.315716e-05 -1.688479e-05 2.726618e-07
4.312594e-05 -1.687322e-05 2.693827e-07
4.309512e-05 -1.686181e-05 2.653789e-07
4.306477e-05 -1.685059e-05 2.606520e-07
4.303495e-05 -1.683958e-05 2.552038e-07
4.300574e-05 -1.682881e-05 2.490359e-07
4.297720e-05 -1.681831e-05 2.421503e-07
4.294942e-05 -1.680811e-05 2.345490e-07
4.292246e-05 -1.679823e-05 2.262349e-07
4.289639e-05 -1.678870e-05 2.172115e-07
4.287129e-05 -1.677955e-05 2.074838e-07
4.284724e-05 -1.677081e-05 1.970588e-07
4.448752e-05 -1.740403e-05 4.424727e-08
4.280267e-05 -1.675469e-05 1.741624e-07
4.449179e-05 -1.740570e-05 3.697702e-08
4.278237e-05 -1.674738e-05 1.617286e-07
4.276357e-05 -1.674063e-05 1.486803e-07
4.274649e-05 -1.673449e-05 1.350724e-07
4.273137e-05 -1.672902e-05 1.209933e-07
4.271858e-05 -1.672428e-05 1.065878e-07
4.270845e-05 -1.672034e-05 9.206917e-08
4.270083e-05 -1.671717e-05 7.766836e-08
4.269535e-05 -1.671469e-05 6.356115e-08
4.269171e-05 -1.671286e-05 4.985594e-08
4.268969e-05 -1.671162e-05 3.661887e-08
4.268914e-05 -1.671093e-05 2.389088e-08
4.268994e-05 -1.671075e-05 1.169768e-08
4.269521e-05 -1.671181e-05 -1.102504e-08
4.447834e-05 -1.740035e-05 -5.126564e-08
4.269953e-05 -1.671298e-05 -2.153757e-08
4.447228e-05 -1.739797e-05 -5.755454e-08
4.270488e-05 -1.671456e-05 -3.147789e-08
4.271120e-05 -1.671652e-05 -4.084352e-08
4.271844e-05 -1.671884e-05 -4.963302e-08
4.272652e-05 -1.672149e-05 -5.784562e-08
4.273541e-05 -1.672445e-05 -6.548096e-08
4.274503e-05 -1.672770e-05 -7.253889e-08
4.275535e-05 -1.673122e-05 -7.901936e-08
4.276629e-05 -1.673499e-05 -8.492231e-08
4.277780e-05 -1.673898e-05 -9.024767e-08
4.278983e-05 -1.674318e-05 -9.499528e-08
4.281521e-05 -1.675208e-05 -1.027562e-07
4.282844e-05 -1.675675e-05 -1.057687e-07
4.284195e-05 -1.676153e-05 -1.082019e-07
4.433484e-05 -1.734399e-05 -1.326563e-07
4.285569e-05 -1.676640e-05 -1.100552e-07
4.432005e-05 -1.733819e-05 -1.379155e-07
4.286960e-05 -1.677134e-05 -1.113280e-07
4.288362e-05 -1.677631e-05 -1.120195e-07
4.289768e-05 -1.678131e-05 -1.121288e-07
4.291174e-05 -1.678631e-05 -1.116553e-07
4.292573e-05 -1.679128e-05 -1.105981e-07
4.293960e-05 -1.679620e-05 -1.089564e-07
4.295327e-05 -1.680105e-05 -1.067295e-07
4.296671e-05 -1.680581e-05 -1.039169e-07
4.299260e-05 -1.681494e-05 -9.653368e-08
4.300494e-05 -1.681927e-05 -9.196386e-08
4.301679e-05 -1.682340e-05 -8.681037e-08
4.302808e-05 -1.682732e-05 -8.107606e-08
4.303875e-05 -1.683100e-05 -7.476571e-08
4.304872e-05 -1.683441e-05 -6.788699e-08
4.405620e-05 -1.723460e-05 -1.988115e-07
4.305789e-05 -1.683752e-05 -6.045192e-08
4.403389e-05 -1.722582e-05 -2.012584e-07
4.306617e-05 -1.684029e-05 -5.247944e-08
4.307342e-05 -1.684269e-05 -4.399964e-08
4.307948e-05 -1.684467e-05 -3.506089e-08
4.308411e-05 -1.684619e-05 -2.574228e-08
4.308705e-05 -1.684719e-05 -1.617032e-08
4.308820e-05 -1.684765e-05 -6.506310e-09
4.308604e-05 -1.684711e-05 1.257231e-08
4.308311e-05 -1.684618e-05 2.183336e-08
4.307910e-05 -1.684485e-05 3.085331e-08
4.307411e-05 -1.684314e-05 3.960925e-08
4.306819e-05 -1.684107e-05 4.808643e-08
4.306140e-05 -1.683867e-05 5.627523e-08
4.305378e-05 -1.683594e-05 6.416935e-08
4.373773e-05 -1.710963e-05 -1.977313e-07
4.304536e-05 -1.683290e-05 7.176470e-08
4.371598e-05 -1.710110e-05 -1.947454e-07
4.303619e-05 -1.682956e-05 7.905866e-08
4.302629e-05 -1.682594e-05 8.604964e-08
4.301570e-05 -1.682205e-05 9.273671e-08
4.300445e-05 -1.681790e-05 9.911941e-08
4.298008e-05 -1.680886e-05 1.109714e-07
4.296703e-05 -1.680400e-05 1.164408e-07
4.295343e-05 -1.679893e-05 1.216063e-07
4.293933e-05 -1.679366e-05 1.264681e-07
4.292475e-05 -1.678820e-05 1.310266e-07
4.290972e-05 -1.678257e-05 1.352821e-07
4.289427e-05 -1.677678e-05 1.392350e-07
4.287844e-05 -1.677083e-05 1.428857e-07
4.286226e-05 -1.676475e-05 1.462345e-07
4.347956e-05 -1.700854e-05 -1.211305e-07
4.284575e-05 -1.675854e-05 1.492819e-07
4.346631e-05 -1.700335e-05 -1.128010e-07
4.282895e-05 -1.675222e-05 1.520283e-07
4.281190e-05 -1.674580e-05 1.544739e-07
4.277712e-05 -1.673270e-05 1.584647e-07
4.275947e-05 -1.672605e-05 1.600107e-07
4.274167e-05 -1.671934e-05 1.612577e-07
4.272377e-05 -1.671259e-05 1.622061e-07
4.270579e-05 -1.670581e-05 1.628566e-07
4.268777e-05 -1.669902e-05 1.632096e-07
4.266973e-05 -1.669222e-05 1.632661e-07
4.265170e-05 -1.668543e-05 1.630271e-07
4.263372e-05 -1.667865e-05 1.624938e-07
4.261582e-05 -1.667191e-05 1.616682e-07
4.259802e-05 -1.666521e-05 1.605526e-07
4.339440e-05 -1.697495e-05 2.594414e-08
4.258038e-05 -1.665857e-05 1.591509e-07
4.339853e-05 -1.697661e-05 3.733556e-08
4.256293e-05 -1.665200e-05 1.574682e-07
4.252880e-05 -1.663913e-05 1.532969e-07
4.251224e-05 -1.663287e-05 1.508404e-07
4.249614e-05 -1.662675e-05 1.481754e-07
4.248058e-05 -1.662079e-05 1.453476e-07
4.246552e-05 -1.661498e-05 1.424049e-07
4.245091e-05 -1.660932e-05 1.393828e-07
4.243669e-05 -1.660381e-05 1.363033e-07
4.242285e-05 -1.659843e-05 1.331798e-07
4.240936e-05 -1.659318e-05 1.300208e-07
4.239621e-05 -1.658807e-05 1.268316e-07
4.238340e-05 -1.658309e-05 1.236158e-07
4.237093e-05 -1.657823e-05 1.203755e-07
4.354504e-05 -1.703446e-05 1.318880e-07
4.234697e-05 -1.656891e-05 1.138268e-07
4.356062e-05 -1.704059e-05 1.346192e-07
4.233550e-05 -1.656445e-05 1.105198e-07
4.232436e-05 -1.656012e-05 1.071916e-07
4.231355e-05 -1.655592e-05 1.038422e-07
4.230309e-05 -1.655185e-05 1.004717e-07
4.229297e-05 -1.654792e-05 9.708017e-08
4.228320e-05 -1.654412e-05 9.366740e-08
4.227378e-05 -1.654046e-05 9.023333e-08
4.226470e-05 -1.653694e-05 8.677786e-08
4.225598e-05 -1.653355e-05 8.330086e-08
4.224761e-05 -1.653031e-05 7.980221e-08
4.223960e-05 -1.652720e-05 7.628178e-08
4.222465e-05 -1.652140e-05 6.917510e-08
4.374766e-05 -1.711434e-05 1.155391e-07
4.221772e-05 -1.651872e-05 6.558860e-08
4.376111e-05 -1.711967e-05 1.096000e-07
4.221116e-05 -1.651617e-05 6.197981e-08
4.220496e-05 -1.651377e-05 5.834861e-08
4.219913e-05 -1.651152e-05 5.469487e-08
4.219367e-05 -1.650941e-05 5.101843e-08
4.218858e-05 -1.650744e-05 4.731919e-08
4.218386e-05 -1.650562e-05 4.359701e-08
4.217952e-05 -1.650395e-05 3.985182e-08
4.217556e-05 -1.650242e-05 3.608356e-08
4.217198e-05 -1.650105e-05 3.229225e-08
4.216878e-05 -1.649982e-05 2.847804e-08
4.216353e-05 -1.649781e-05 2.078236e-08
4.216149e-05 -1.649704e-05 1.690239e-08
4.215985e-05 -1.649642e-05 1.300282e-08
4.384863e-05 -1.715476e-05 -2.828492e-08
4.215861e-05 -1.649595e-05 9.085969e-09
4.384569e-05 -1.715367e-05 -4.321091e-08
4.215779e-05 -1.649565e-05 5.155484e-09
4.215739e-05 -1.649551e-05 1.217047e-09
4.215745e-05 -1.649553e-05 -2.720390e-09
4.215799e-05 -1.649573e-05 -6.642460e-09
4.215908e-05 -1.649611e-05 -1.052583e-08
4.216076e-05 -1.649668e-05 -1.433378e-08
4.216305e-05 -1.649745e-05 -1.802095e-08
4.216586e-05 -1.649838e-05 -2.154826e-08
4.217276e-05 -1.650071e-05 -2.803059e-08
4.217674e-05 -1.650207e-05 -3.095998e-08
4.218103e-05 -1.650355e-05 -3.367191e-08
4.218560e-05 -1.650513e-05 -3.616232e-08
4.219041e-05 -1.650681e-05 -3.842850e-08
4.364198e-05 -1.707288e-05 -2.166164e-07
4.219543e-05 -1.650857e-05 -4.046869e-08
4.361680e-05 -1.706293e-05 -2.254273e-07
4.220066e-05 -1.651041e-05 -4.228166e-08
4.220605e-05 -1.651232e-05 -4.386664e-08
4.221158e-05 -1.651428e-05 -4.522309e-08
4.221724e-05 -1.651629e-05 -4.635065e-08
4.222301e-05 -1.651834e-05 -4.724908e-08
4.222884e-05 -1.652042e-05 -4.791820e-08
4.224066e-05 -1.652464e-05 -4.856803e-08
4.224660e-05 -1.652676e-05 -4.854853e-08
4.225252e-05 -1.652888e-05 -4.829928e-08
4.225840e-05 -1.653098e-05 -4.782015e-08
4.226423e-05 -1.653306e-05 -4.711101e-08
4.226997e-05 -1.653510e-05 -4.617172e-08
4.326917e-05 -1.692608e-05 -2.736498e-07
4.227561e-05 -1.653711e-05 -4.500210e-08
4.323878e-05 -1.691414e-05 -2.729328e-07
4.228111e-05 -1.653906e-05 -4.360197e-08
4.228647e-05 -1.654096e-05 -4.197110e-08
4.229166e-05 -1.654279e-05 -4.010927e-08
4.229665e-05 -1.654454e-05 -3.801622e-08
4.230142e-05 -1.654620e-05 -3.569172e-08
4.231022e-05 -1.654924e-05 -3.034746e-08
4.231420e-05 -1.655060e-05 -2.732743e-08
4.231788e-05 -1.655183e-05 -2.407549e-08
4.232123e-05 -1.655294e-05 -2.059199e-08
4.232423e-05 -1.655391e-05 -1.687768e-08
4.232686e-05 -1.655473e-05 -1.293396e-08
4.232908e-05 -1.655540e-05 -8.763154e-09
4.233088e-05 -1.655589e-05 -4.368989e-09
4.288289e-05 -1.677464e-05 -1.988359e-07
4.233222e-05 -1.655621e-05 2.427208e-10
4.286112e-05 -1.676611e-05 -1.882444e-07
4.233305e-05 -1.655634e-05 5.063115e-09
4.233333e-05 -1.655626e-05 1.007864e-08
4.233298e-05 -1.655595e-05 1.526848e-08
4.232999e-05 -1.655455e-05 2.602268e-08
4.232700e-05 -1.655338e-05 3.145348e-08
4.232267e-05 -1.655185e-05 3.675862e-08
4.231682e-05 -1.654993e-05 4.174986e-08
4.230965e-05 -1.654767e-05 4.623615e-08
4.230154e-05 -1.654514e-05 5.007873e-08
4.229275e-05 -1.654240e-05 5.319253e-08
4.228350e-05 -1.653950e-05 5.552507e-08
4.227394e-05 -1.653651e-05 5.704364e-08
4.226421e-05 -1.653346e-05 5.772760e-08
4.271750e-05 -1.671024e-05 -1.759938e-08
4.225444e-05 -1.653040e-05 5.756389e-08
4.271751e-05 -1.671031e-05 -5.878517e-09
4.224473e-05 -1.652737e-05 5.654429e-08
4.222589e-05 -1.652154e-05 5.191901e-08
4.221695e-05 -1.651881e-05 4.830854e-08
4.220844e-05 -1.651625e-05 4.383128e-08
4.220045e-05 -1.651389e-05 3.848665e-08
4.219308e-05 -1.651177e-05 3.227405e-08
4.218640e-05 -1.650992e-05 2.519264e-08
4.218050e-05 -1.650837e-05 1.724092e-08
4.217546e-05 -1.650716e-05 8.416535e-09
4.217137e-05 -1.650632e-05 -1.284268e-09
4.216828e-05 -1.650588e-05 -1.186699e-08
4.216628e-05 -1.650585e-05 -2.333950e-08
4.279437e-05 -1.674080e-05 9.100958e-08
4.216542e-05 -1.650628e-05 -3.571262e-08
4.280533e-05 -1.674511e-05 9.539421e-08
4.216728e-05 -1.650856e-05 -6.322366e-08
4.217003e-05 -1.651044e-05 -7.840547e-08
4.217397e-05 -1.651281e-05 -9.457754e-08
4.217905e-05 -1.651565e-05 -1.117784e-07
4.218515e-05 -1.651895e-05 -1.300543e-07
4.219212e-05 -1.652266e-05 -1.494597e-07
4.219973e-05 -1.652670e-05 -1.700560e-07
4.220768e-05 -1.653099e-05 -1.919100e-07
4.221560e-05 -1.653541e-05 -2.150885e-07
4.222304e-05 -1.653982e-05 -2.396516e-07
4.222950e-05 -1.654405e-05 -2.656391e-07
4.223445e-05 -1.654792e-05 -2.930501e-07
4.295365e-05 -1.680357e-05 1.034901e-07
4.223789e-05 -1.655388e-05 -3.517087e-07
4.296560e-05 -1.680830e-05 1.004341e-07
4.223597e-05 -1.655571e-05 -3.823179e-07
4.223218e-05 -1.655677e-05 -4.128428e-07
4.222838e-05 -1.655777e-05 -4.422170e-07
4.222718e-05 -1.655777e-05 -4.674411e-07
4.223543e-05 -1.655490e-05 -4.805908e-07
4.229038e-05 -1.656466e-05 -4.754001e-07
4.235787e-05 -1.651867e-05 -3.997346e-07
4.256974e-05 -1.644829e-05 -2.205341e-07
4.306533e-05 -1.684798e-05 1.687079e-09
4.299583e-05 -1.682032e-05 -9.428328e-08
4.298495e-05 -1.681603e-05 -1.004108e-07
4.281492e-05 -1.674914e-05 -1.506512e-07
4.279842e-05 -1.674266e-05 -1.529079e-07
4.257563e-05 -1.665521e-05 -1.556175e-07
4.255897e-05 -1.664868e-05 -1.538308e-07
4.238453e-05 -1.658048e-05 -1.199486e-07
4.237225e-05 -1.657569e-05 -1.167504e-07
4.225154e-05 -1.652855e-05 -7.672439e-08
4.224376e-05 -1.652551e-05 -7.325219e-08
4.217903e-05 -1.650022e-05 -2.986634e-08
4.217609e-05 -1.649907e-05 -2.610480e-08
4.217282e-05 -1.649777e-05 1.942414e-08
4.217537e-05 -1.649878e-05 2.279607e-08
4.222743e-05 -1.651934e-05 4.674447e-08
4.223277e-05 -1.652145e-05 4.728972e-08
4.229377e-05 -1.654550e-05 3.619427e-08
4.229789e-05 -1.654713e-05 3.379432e-08
4.232044e-05 -1.655626e-05 -1.250120e-08
4.231916e-05 -1.655579e-05 -1.766213e-08
4.225154e-05 -1.652878e-05 -5.594917e-08
4.224395e-05 -1.652575e-05 -5.452674e-08
4.219314e-05 -1.650528e-05 2.915506e-08
4.219475e-05 -1.650586e-05 4.178347e-08
4.232260e-05 -1.655104e-05 3.055950e-07
4.242826e-05 -1.657603e-05 4.511957e-07
4.242063e-05 -1.653240e-05 3.580368e-07
4.256790e-05 -1.648901e-05 1.759628e-07
4.231450e-05 -1.655811e-05 4.498245e-07
4.249913e-05 -1.620421e-05 5.824533e-08
4.224841e-05 -1.655140e-05 4.672978e-07
4.275730e-05 -1.638461e-05 3.481701e-08
4.260155e-05 -1.638352e-05 1.042373e-07
4.263416e-05 -1.628457e-05 7.804696e-10
4.261165e-05 -1.636933e-05 -7.860979e-08
4.257782e-05 -1.621426e-05 -4.833347e-08
4.222952e-05 -1.654407e-05 2.656828e-07
4.216633e-05 -1.650587e-05 2.333476e-08
4.225444e-05 -1.653040e-05 -5.756657e-08
4.233330e-05 -1.655625e-05 -1.007892e-08
4.229663e-05 -1.654453e-05 3.801685e-08
4.217198e-05 -1.650104e-05 -3.229245e-08
4.224760e-05 -1.653030e-05 -7.980244e-08
4.238339e-05 -1.658308e-05 -1.236162e-07
4.282891e-05 -1.675221e-05 -1.520293e-07
4.308698e-05 -1.684716e-05 1.617055e-08
4.295322e-05 -1.680104e-05 1.067312e-07
4.277778e-05 -1.673897e-05 9.024948e-08
4.287128e-05 -1.677955e-05 -2.074859e-07
4.328446e-05 -1.693205e-05 -2.784983e-07
4.367577e-05 -1.707721e-05 -2.156750e-07
4.388295e-05 -1.715445e-05 -2.120904e-08
4.352977e-05 -1.703163e-05 1.325947e-07
4.346865e-05 -1.701169e-05 -1.273140e-07
4.374295e-05 -1.711407e-05 -2.024480e-07
4.407382e-05 -1.723882e-05 -2.007770e-07
4.435378e-05 -1.734651e-05 -1.321338e-07
4.449505e-05 -1.740108e-05 -4.889268e-08
4.450129e-05 -1.740268e-05 4.866771e-08
4.434503e-05 -1.734240e-05 1.502705e-07
4.403128e-05 -1.722229e-05 2.167555e-07
4.368140e-05 -1.708800e-05 2.323327e-07
4.295252e-05 -1.681228e-05 -1.650658e-08
4.309650e-05 -1.686726e-05 -1.750609e-07
4.348657e-05 -1.700977e-05 -2.329087e-07
4.384972e-05 -1.714164e-05 -1.023164e-07
4.381525e-05 -1.712514e-05 1.751104e-07
4.332667e-05 -1.694436e-05 3.408139e-07
4.270659e-05 -1.671383e-05 3.015371e-07
4.236839e-05 -1.658677e-05 9.761738e-08
4.257834e-05 -1.665499e-05 -9.851071e-08
4.270016e-05 -1.670073e-05 -3.175695e-08
4.269774e-05 -1.670258e-05 8.872387e-09
4.267076e-05 -1.669480e-05 -1.519304e-09
4.271357e-05 -1.671184e-05 -4.974167e-08
4.282975e-05 -1.675642e-05 -8.414027e-08
4.319538e-05 -1.689872e-05 -1.178092e-07
4.370173e-05 -1.709580e-05 -1.558442e-07
4.397502e-05 -1.719876e-05 -1.129029e-07
4.384699e-05 -1.714720e-05 1.971472e-07
4.337698e-05 -1.696833e-05 2.545425e-07
4.275881e-05 -1.673025e-05 -1.760122e-07
4.274111e-05 -1.672330e-05 -1.722155e-07
4.269019e-05 -1.670334e-05 1.610475e-07
4.272380e-05 -1.671652e-05 -1.684561e-07
4.270688e-05 -1.670988e-05 -1.647337e-07
4.269035e-05 -1.670339e-05 -1.610483e-07
4.265841e-05 -1.669086e-05 -1.537875e-07
4.261312e-05 -1.667309e-05 1.431678e-07
4.264300e-05 -1.668482e-05 -1.502118e-07
4.262795e-05 -1.667891e-05 -1.466721e-07
4.261328e-05 -1.667315e-05 -1.431685e-07
4.257124e-05 -1.665665e-05 1.328709e-07
4.259896e-05 -1.666753e-05 -1.397006e-07
4.258500e-05 -1.666205e-05 -1.362683e-07
4.258579e-05 -1.665918e-05 -1.323275e-07
4.254523e-05 -1.664643e-05 -1.261838e-07
4.250837e-05 -1.663195e-05 1.164142e-07
4.253266e-05 -1.664149e-05 -1.228926e-07
4.252043e-05 -1.663669e-05 -1.196363e-07
4.248556e-05 -1.662299e-05 1.100754e-07
4.250853e-05 -1.663201e-05 -1.164149e-07
4.249696e-05 -1.662747e-05 -1.132282e-07
4.247480e-05 -1.661875e-05 -1.069584e-07
4.244379e-05 -1.660656e-05 9.781068e-08
4.246420e-05 -1.661459e-05 -1.038752e-07
4.245392e-05 -1.661054e-05 -1.008262e-07
4.244395e-05 -1.660662e-05 -9.781124e-08
4.243429e-05 -1.660281e-05 -9.483014e-08
4.240694e-05 -1.659205e-05 8.608623e-08
4.242493e-05 -1.659913e-05 -9.188262e-08
4.241587e-05 -1.659556e-05 -8.896833e-08
4.241793e-05 -1.659367e-05 -8.606387e-08
4.237473e-05 -1.657936e-05 7.486573e-08
4.239044e-05 -1.658555e-05 -8.041843e-08
4.238253e-05 -1.658243e-05 -7.762897e-08
4.236019e-05 -1.657366e-05 6.940135e-08
4.237489e-05 -1.657942e-05 -7.486618e-08
4.236750e-05 -1.657652e-05 -7.212593e-08
4.236035e-05 -1.657372e-05 -6.940177e-08
4.235345e-05 -1.657102e-05 -6.668576e-08
4.233411e-05 -1.656349e-05 5.852928e-08
4.234679e-05 -1.656842e-05 -6.397109e-08
4.233427e-05 -1.656354e-05 -5.852963e-08
4.232841e-05 -1.656127e-05 -5.579832e-08
4.232283e-05 -1.655910e-05 -5.305827e-08
4.231753e-05 -1.655703e-05 -5.030873e-08
4.231251e-05 -1.655508e-05 -4.754921e-08
4.230776e-05 -1.655324e-05 -4.477936e-08
4.230330e-05 -1.655151e-05 -4.199895e-08
4.229147e-05 -1.654692e-05 3.359255e-08
4.229913e-05 -1.654989e-05 -3.920779e-08
4.229524e-05 -1.654838e-05 -3.640577e-08
4.228831e-05 -1.654569e-05 -3.076876e-08
4.228528e-05 -1.654452e-05 -2.793363e-08
4.227777e-05 -1.654162e-05 1.936088e-08
4.228254e-05 -1.654346e-05 -2.508734e-08
4.228009e-05 -1.654251e-05 -2.222984e-08
4.227793e-05 -1.654168e-05 -1.936106e-08
4.227606e-05 -1.654096e-05 -1.648095e-08
4.227448e-05 -1.654035e-05 -1.358944e-08
4.227136e-05 -1.653916e-05 4.845706e-09
4.227320e-05 -1.653986e-05 -1.068647e-08
4.227221e-05 -1.653948e-05 -7.771967e-09
4.227113e-05 -1.653908e-05 -1.908006e-09
4.227107e-05 -1.653908e-05 -4.003299e-09
4.227157e-05 -1.653929e-05 -6.976875e-09
4.227103e-05 -1.653905e-05 1.041637e-09
4.227123e-05 -1.653914e-05 4.003191e-09
4.227173e-05 -1.653935e-05 6.976776e-09
4.227253e-05 -1.653967e-05 9.962502e-09
4.227364e-05 -1.654011e-05 1.296049e-08
4.227504e-05 -1.654067e-05 1.597085e-08
4.227675e-05 -1.654135e-05 1.899366e-08
4.227876e-05 -1.654215e-05 2.202896e-08
4.228108e-05 -1.654306e-05 2.507672e-08
4.228970e-05 -1.654647e-05 -3.429247e-08
4.228370e-05 -1.654410e-05 2.813681e-08
4.228663e-05 -1.654526e-05 3.120887e-08
4.229525e-05 -1.654573e-05 3.220565e-08
4.230582e-05 -1.655281e-05 -4.670950e-08
4.229728e-05 -1.654945e-05 4.048885e-08
4.230146e-05 -1.655110e-05 4.359782e-08
4.231592e-05 -1.655675e-05 -5.291262e-08
4.230598e-05 -1.655287e-05 4.670926e-08
4.231085e-05 -1.655477e-05 4.981720e-08
4.231609e-05 -1.655681e-05 5.291230e-08
4.233430e-05 -1.656375e-05 -6.192055e-08
4.232173e-05 -1.655899e-05 5.597969e-08
4.232783e-05 -1.656132e-05 5.899535e-08
4.233447e-05 -1.656382e-05 6.192008e-08
4.234169e-05 -1.656648e-05 6.469856e-08
4.234943e-05 -1.656930e-05 6.727440e-08
4.235758e-05 -1.657224e-05 6.960637e-08
4.238352e-05 -1.658160e-05 -7.492958e-08
4.236605e-05 -1.657530e-05 7.166906e-08
4.239260e-05 -1.658488e-05 -7.611002e-08
4.237478e-05 -1.657845e-05 7.344657e-08
4.238370e-05 -1.658167e-05 7.492882e-08
4.239105e-05 -1.658326e-05 7.419786e-08
4.242038e-05 -1.659492e-05 -7.780326e-08
4.242970e-05 -1.659829e-05 -7.774454e-08
4.241125e-05 -1.659162e-05 7.754851e-08
4.242056e-05 -1.659498e-05 7.780238e-08
4.244824e-05 -1.660499e-05 -7.668533e-08
4.242988e-05 -1.659836e-05 7.774363e-08
4.243918e-05 -1.660172e-05 7.737122e-08
4.244842e-05 -1.660506e-05 7.668438e-08
4.245758e-05 -1.660837e-05 7.568247e-08
4.246662e-05 -1.661163e-05 7.436495e-08
4.247551e-05 -1.661484e-05 7.273131e-08
4.248422e-05 -1.661797e-05 7.078104e-08
4.249272e-05 -1.662102e-05 6.851355e-08
4.250098e-05 -1.662398e-05 6.592825e-08
4.250897e-05 -1.662684e-05 6.302445e-08
4.251667e-05 -1.662957e-05 5.980143e-08
4.253749e-05 -1.663689e-05 -4.821061e-08
4.252404e-05 -1.663218e-05 5.625843e-08
4.253105e-05 -1.663465e-05 5.239472e-08
4.253769e-05 -1.663697e-05 4.820973e-08
4.255485e-05 -1.664283e-05 -3.372720e-08
4.254392e-05 -1.663912e-05 4.370312e-08
4.254972e-05 -1.664111e-05 3.887510e-08
4.255506e-05 -1.664291e-05 3.372671e-08
4.255991e-05 -1.664451e-05 2.826034e-08
4.256423e-05 -1.664592e-05 2.248039e-08
4.256800e-05 -1.664710e-05 1.639423e-08
4.257117e-05 -1.664804e-05 1.001353e-08
4.257365e-05 -1.664873e-05 3.356000e-09
4.257538e-05 -1.664913e-05 -3.551997e-09
4.257623e-05 -1.664921e-05 -1.067189e-08
4.257602e-05 -1.664892e-05 -1.794742e-08
4.257451e-05 -1.664818e-05 -2.529614e-08
4.255771e-05 -1.664220e-05 4.625243e-08
4.257134e-05 -1.664691e-05 -3.259540e-08
4.256603e-05 -1.664500e-05 -3.965883e-08
4.253158e-05 -1.666313e-05 4.938968e-10
4.255782e-05 -1.664227e-05 -4.619912e-08
4.254561e-05 -1.663848e-05 -5.179103e-08
4.252785e-05 -1.663351e-05 -5.565428e-08
4.250217e-05 -1.662776e-05 -5.592318e-08
4.246505e-05 -1.661978e-05 -5.106499e-08
4.249084e-05 -1.665235e-05 4.702210e-09
4.249574e-05 -1.664141e-05 -2.972385e-10
4.240991e-05 -1.661307e-05 -3.465494e-08
4.251110e-05 -1.665108e-05 3.473106e-10
4.239946e-05 -1.658657e-05 7.520758e-08
4.229870e-05 -1.654707e-05 3.524291e-08
4.247784e-05 -1.663390e-05 -1.122581e-08
4.248239e-05 -1.663343e-05 -9.750004e-09
4.227845e-05 -1.653918e-05 -6.200835e-09
4.251706e-05 -1.666050e-05 2.746634e-09
4.250647e-05 -1.663050e-05 -2.567976e-08
4.229976e-05 -1.654751e-05 -3.440800e-08
4.252353e-05 -1.666035e-05 3.280811e-09
4.251999e-05 -1.663103e-05 -2.860046e-08
4.252794e-05 -1.666287e-05 1.564394e-09
4.234965e-05 -1.656701e-05 -6.155804e-08
4.234024e-05 -1.656587e-05 6.125294e-08
4.252196e-05 -1.666016e-05 4.555793e-10
4.252976e-05 -1.666178e-05 5.460846e-11
4.252968e-05 -1.666178e-05 1.740566e-09
4.240923e-05 -1.659027e-05 -8.324582e-08
4.253157e-05 -1.666316e-05 -5.350604e-10
4.249840e-05 -1.662507e-05 -1.097877e-07
4.257228e-05 -1.665391e-05 -1.290040e-07
4.251653e-05 -1.665003e-05 6.698375e-10
4.245819e-05 -1.661246e-05 2.708639e-08
4.269040e-05 -1.670001e-05 -1.565788e-07
4.249064e-05 -1.665239e-05 -5.037578e-09
4.279479e-05 -1.674075e-05 -1.787733e-07
4.279523e-05 -1.674453e-05 1.837167e-07
4.281357e-05 -1.674808e-05 -1.826008e-07
4.281413e-05 -1.675194e-05 1.876248e-07
4.283277e-05 -1.675557e-05 -1.864645e-07
4.283343e-05 -1.675951e-05 1.915693e-07
4.250294e-05 -1.665305e-05 -5.085785e-09
4.245219e-05 -1.663032e-05 6.070201e-09
4.252975e-05 -1.666181e-05 -9.542596e-11
4.291378e-05 -1.678716e-05 -2.022502e-07
4.285238e-05 -1.676321e-05 -1.903633e-07
4.285314e-05 -1.676723e-05 1.955490e-07
4.248384e-05 -1.663265e-05 1.216747e-08
4.246455e-05 -1.661961e-05 5.152384e-08
4.252963e-05 -1.666181e-05 -1.843267e-09
4.287241e-05 -1.677103e-05 -1.942957e-07
4.287328e-05 -1.677513e-05 1.995622e-07
4.250235e-05 -1.662731e-05 5.655799e-08
4.253117e-05 -1.663236e-05 -2.917003e-08
4.289288e-05 -1.677901e-05 -1.982593e-07
4.289384e-05 -1.678318e-05 2.036060e-07
4.253988e-05 -1.663364e-05 -2.785525e-08
4.252792e-05 -1.663344e-05 5.583241e-08
4.293514e-05 -1.679549e-05 -2.062623e-07
4.254648e-05 -1.663488e-05 -2.508261e-08
4.251982e-05 -1.663086e-05 2.873029e-08
4.254557e-05 -1.663842e-05 5.188397e-08
4.295697e-05 -1.680400e-05 -2.102864e-07
4.295832e-05 -1.680841e-05 2.158621e-07
4.255125e-05 -1.663596e-05 -2.127822e-08
4.253098e-05 -1.663949e-05 4.771141e-08
4.297929e-05 -1.681270e-05 -2.143077e-07
4.298085e-05 -1.681719e-05 2.199490e-07
4.255448e-05 -1.663683e-05 -1.677899e-08
4.256588e-05 -1.664493e-05 3.969022e-08
4.300211e-05 -1.682160e-05 -2.183027e-07
4.300399e-05 -1.682618e-05 2.239960e-07
4.255640e-05 -1.663746e-05 -1.184449e-08
4.257117e-05 -1.664684e-05 3.261434e-08
4.302545e-05 -1.683071e-05 -2.222337e-07
4.302784e-05 -1.683539e-05 2.279548e-07
4.255719e-05 -1.663785e-05 -6.671561e-09
4.257432e-05 -1.664811e-05 2.530741e-08
4.304932e-05 -1.684004e-05 -2.260454e-07
4.305244e-05 -1.684483e-05 2.317598e-07
4.255701e-05 -1.663800e-05 -1.407530e-09
4.257582e-05 -1.664884e-05 1.795411e-08
4.307370e-05 -1.684958e-05 -2.296749e-07
4.307770e-05 -1.685447e-05 2.353479e-07
4.255598e-05 -1.663791e-05 3.838653e-09
4.257603e-05 -1.664913e-05 1.067594e-08
4.309855e-05 -1.685931e-05 -2.330706e-07
4.310349e-05 -1.686428e-05 2.386753e-07
4.255417e-05 -1.663758e-05 8.987532e-09
4.257518e-05 -1.664905e-05 3.554487e-09
4.312383e-05 -1.686921e-05 -2.361983e-07
4.312972e-05 -1.687426e-05 2.417147e-07
4.255168e-05 -1.663703e-05 1.398210e-08
4.257345e-05 -1.664865e-05 -3.354475e-09
4.314949e-05 -1.687927e-05 -2.390361e-07
4.315632e-05 -1.688438e-05 2.444492e-07
4.254856e-05 -1.663626e-05 1.878226e-08
4.257096e-05 -1.664797e-05 -1.001265e-08
4.317548e-05 -1.688945e-05 -2.415700e-07
4.318325e-05 -1.689461e-05 2.468677e-07
4.254485e-05 -1.663528e-05 2.336048e-08
4.256780e-05 -1.664702e-05 -1.639384e-08
4.320176e-05 -1.689975e-05 -2.437906e-07
4.321044e-05 -1.690495e-05 2.489629e-07
4.254059e-05 -1.663410e-05 2.769840e-08
4.256403e-05 -1.664584e-05 -2.248036e-08
4.322829e-05 -1.691014e-05 -2.456915e-07
4.323785e-05 -1.691538e-05 2.507298e-07
4.253584e-05 -1.663272e-05 3.178430e-08
4.255970e-05 -1.664444e-05 -2.826060e-08
4.325503e-05 -1.692062e-05 -2.472681e-07
4.326545e-05 -1.692588e-05 2.521648e-07
4.253061e-05 -1.663117e-05 3.561109e-08
4.254467e-05 -1.663522e-05 -2.336220e-08
4.254467e-05 -1.664390e-05 -3.038809e-08
4.328194e-05 -1.693117e-05 -2.485173e-07
4.329320e-05 -1.693644e-05 2.532653e-07
4.252494e-05 -1.662944e-05 3.917488e-08
4.254042e-05 -1.663404e-05 -2.770065e-08
4.254951e-05 -1.664103e-05 -3.887576e-08
4.330898e-05 -1.694177e-05 -2.494366e-07
4.332106e-05 -1.694704e-05 2.540294e-07
4.251886e-05 -1.662754e-05 4.247390e-08
4.254372e-05 -1.663905e-05 -4.370391e-08
4.339054e-05 -1.697374e-05 -2.501994e-07
4.333612e-05 -1.695240e-05 -2.500243e-07
4.334900e-05 -1.695768e-05 2.544556e-07
4.251240e-05 -1.662550e-05 4.550772e-08
4.253042e-05 -1.663822e-05 -4.511837e-08
4.336332e-05 -1.696307e-05 -2.502789e-07
4.250560e-05 -1.662332e-05 4.827673e-08
4.253085e-05 -1.663457e-05 -5.239567e-08
4.341776e-05 -1.698441e-05 -2.497845e-07
4.249848e-05 -1.662102e-05 5.078176e-08
4.252384e-05 -1.663211e-05 -5.625941e-08
4.344493e-05 -1.699507e-05 -2.490336e-07
4.346081e-05 -1.700026e-05 2.527581e-07
4.249107e-05 -1.661860e-05 5.302384e-08
4.251647e-05 -1.662950e-05 -5.980243e-08
4.347202e-05 -1.700570e-05 -2.479458e-07
4.348860e-05 -1.701085e-05 2.514787e-07
4.248340e-05 -1.661608e-05 5.500404e-08
4.250877e-05 -1.662676e-05 -6.302547e-08
4.349899e-05 -1.701628e-05 -2.465203e-07
4.351626e-05 -1.702138e-05 2.498557e-07
4.247551e-05 -1.661347e-05 5.672342e-08
4.250078e-05 -1.662391e-05 -6.592927e-08
4.352581e-05 -1.702680e-05 -2.447563e-07
4.354374e-05 -1.703185e-05 2.478883e-07
4.246742e-05 -1.661078e-05 5.818299e-08
4.249252e-05 -1.662095e-05 -6.851457e-08
4.355245e-05 -1.703726e-05 -2.426530e-07
4.357102e-05 -1.704225e-05 2.455758e-07
4.245917e-05 -1.660803e-05 5.938372e-08
4.248402e-05 -1.661790e-05 -7.078204e-08
4.357885e-05 -1.704762e-05 -2.402099e-07
4.359806e-05 -1.705254e-05 2.429173e-07
4.245079e-05 -1.660522e-05 6.032657e-08
4.247532e-05 -1.661477e-05 -7.273231e-08
4.360500e-05 -1.705789e-05 -2.374260e-07
4.362482e-05 -1.706273e-05 2.399122e-07
4.244230e-05 -1.660238e-05 6.101259e-08
4.246643e-05 -1.661156e-05 -7.436594e-08
4.363084e-05 -1.706804e-05 -2.343006e-07
4.365126e-05 -1.707280e-05 2.365597e-07
4.243375e-05 -1.659951e-05 6.144302e-08
4.245739e-05 -1.660830e-05 -7.568343e-08
4.365636e-05 -1.707806e-05 -2.308331e-07
4.367735e-05 -1.708273e-05 2.328591e-07
4.242516e-05 -1.659662e-05 6.161943e-08
4.245063e-05 -1.660517e-05 -6.032994e-08
4.245060e-05 -1.660671e-05 -7.485422e-08
4.368150e-05 -1.708794e-05 -2.270227e-07
4.370305e-05 -1.709251e-05 2.288096e-07
4.241656e-05 -1.659373e-05 6.154391e-08
4.244215e-05 -1.660232e-05 -6.101592e-08
4.243900e-05 -1.660165e-05 -7.737215e-08
4.370623e-05 -1.709765e-05 -2.228686e-07
4.372832e-05 -1.710213e-05 2.244105e-07
4.240800e-05 -1.659084e-05 6.121933e-08
4.243356e-05 -1.660000e-05 -7.620431e-08
4.373051e-05 -1.710720e-05 -2.183701e-07
4.375313e-05 -1.711156e-05 2.196611e-07
4.239949e-05 -1.658798e-05 6.064966e-08
4.242497e-05 -1.659662e-05 -7.641574e-08
4.375432e-05 -1.711656e-05 -2.135265e-07
4.377744e-05 -1.712080e-05 2.145607e-07
4.239109e-05 -1.658515e-05 5.984038e-08
4.241107e-05 -1.659155e-05 -7.754936e-08
4.384394e-05 -1.715181e-05 -1.906882e-07
4.377760e-05 -1.712571e-05 -2.083371e-07
4.380121e-05 -1.712983e-05 2.091087e-07
4.238282e-05 -1.658237e-05 5.879899e-08
4.240180e-05 -1.658820e-05 -7.698427e-08
4.380032e-05 -1.713465e-05 -2.028013e-07
4.382441e-05 -1.713863e-05 2.033044e-07
4.237472e-05 -1.657964e-05 5.753568e-08
4.239931e-05 -1.658651e-05 -7.520860e-08
4.382245e-05 -1.714335e-05 -1.969185e-07
4.236684e-05 -1.657697e-05 5.606407e-08
4.239091e-05 -1.658320e-05 -7.419884e-08
4.386476e-05 -1.716001e-05 -1.841100e-07
4.386893e-05 -1.715551e-05 1.906369e-07
4.235922e-05 -1.657438e-05 5.440184e-08
4.237460e-05 -1.657838e-05 -7.344729e-08
4.388487e-05 -1.716793e-05 -1.771838e-07
4.391070e-05 -1.717131e-05 1.765553e-07
4.235190e-05 -1.657186e-05 5.257095e-08
4.236588e-05 -1.657524e-05 -7.166974e-08
4.390423e-05 -1.717556e-05 -1.699096e-07
4.393046e-05 -1.717877e-05 1.689844e-07
4.234492e-05 -1.656942e-05 5.059563e-08
4.235741e-05 -1.657218e-05 -6.960701e-08
4.392280e-05 -1.718288e-05 -1.622879e-07
4.394942e-05 -1.718592e-05 1.610608e-07
4.233831e-05 -1.656706e-05 4.849369e-08
4.234926e-05 -1.656923e-05 -6.727498e-08
4.394055e-05 -1.718987e-05 -1.543201e-07
4.396754e-05 -1.719273e-05 1.527861e-07
4.233210e-05 -1.656479e-05 4.627700e-08
4.234152e-05 -1.656642e-05 -6.469910e-08
4.395742e-05 -1.719653e-05 -1.460082e-07
4.398477e-05 -1.719921e-05 1.441626e-07
4.232627e-05 -1.656262e-05 4.396427e-08
4.234478e-05 -1.656937e-05 -5.059755e-08
4.234475e-05 -1.656501e-05 -6.221997e-08
4.397338e-05 -1.720283e-05 -1.373557e-07
4.400108e-05 -1.720532e-05 1.351944e-07
4.232081e-05 -1.656055e-05 4.157961e-08
4.233817e-05 -1.656701e-05 -4.849542e-08
4.232766e-05 -1.656126e-05 -5.899577e-08
4.398838e-05 -1.720876e-05 -1.283682e-07
4.401640e-05 -1.721105e-05 1.258880e-07
4.231571e-05 -1.655860e-05 3.914442e-08
4.232156e-05 -1.655893e-05 -5.598005e-08
4.400237e-05 -1.721429e-05 -1.190540e-07
4.403068e-05 -1.721637e-05 1.162531e-07
4.231096e-05 -1.655676e-05 3.667578e-08
4.232611e-05 -1.655773e-05 -5.352730e-08
4.401529e-05 -1.721940e-05 -1.094265e-07
4.404384e-05 -1.722128e-05 1.063056e-07
4.230655e-05 -1.655504e-05 3.418667e-08
4.231068e-05 -1.655471e-05 -4.981748e-08
4.402709e-05 -1.722408e-05 -9.950623e-08
4.405579e-05 -1.722573e-05 9.607064e-08
4.230247e-05 -1.655344e-05 3.168673e-08
4.231556e-05 -1.655362e-05 -4.745604e-08
4.403770e-05 -1.722828e-05 -8.932603e-08
4.406641e-05 -1.722970e-05 8.558922e-08
4.229870e-05 -1.655196e-05 2.918292e-08
4.230130e-05 -1.655103e-05 -4.359803e-08
4.404706e-05 -1.723199e-05 -7.893873e-08
4.407551e-05 -1.723316e-05 7.492937e-08
4.229526e-05 -1.655061e-05 2.668021e-08
4.229711e-05 -1.654939e-05 -4.048903e-08
4.405512e-05 -1.723517e-05 -6.842689e-08
4.408292e-05 -1.723607e-05 6.419431e-08
4.229213e-05 -1.654937e-05 2.418206e-08
4.229325e-05 -1.654787e-05 -3.738635e-08
4.406188e-05 -1.723782e-05 -5.789856e-08
4.408868e-05 -1.723843e-05 5.350078e-08
4.228931e-05 -1.654825e-05 2.169082e-08
4.229856e-05 -1.654701e-05 -3.524310e-08
4.406733e-05 -1.723994e-05 -4.745558e-08
4.409299e-05 -1.724029e-05 4.294051e-08
4.228681e-05 -1.654725e-05 1.920805e-08
4.228646e-05 -1.654520e-05 -3.120899e-08
4.407644e-05 -1.724343e-05 -1.723009e-08
4.407154e-05 -1.724157e-05 -3.716930e-08
4.409598e-05 -1.724166e-05 3.257062e-08
4.228461e-05 -1.654637e-05 1.673470e-08
4.228353e-05 -1.654404e-05 -2.813691e-08
4.407456e-05 -1.724272e-05 -2.708471e-08
4.409776e-05 -1.724258e-05 2.242605e-08
4.228271e-05 -1.654561e-05 1.427135e-08
4.228091e-05 -1.654300e-05 -2.507681e-08
4.407722e-05 -1.724371e-05 -7.623547e-09
4.228112e-05 -1.654497e-05 1.181829e-08
4.228667e-05 -1.654720e-05 -1.920845e-08
4.227860e-05 -1.654209e-05 -2.202904e-08
4.407696e-05 -1.724358e-05 1.723054e-09
4.409655e-05 -1.724282e-05 -6.474073e-09
4.227984e-05 -1.654445e-05 9.375623e-09
4.228447e-05 -1.654632e-05 -1.673508e-08
4.227659e-05 -1.654129e-05 -1.899374e-08
4.407568e-05 -1.724305e-05 1.080185e-08
4.409413e-05 -1.724211e-05 -1.556427e-08
4.227886e-05 -1.654405e-05 6.943346e-09
4.227488e-05 -1.654061e-05 -1.597093e-08
4.407344e-05 -1.724215e-05 1.960756e-08
4.409076e-05 -1.724103e-05 -2.437441e-08
4.227818e-05 -1.654376e-05 4.521382e-09
4.227347e-05 -1.654005e-05 -1.296058e-08
4.407026e-05 -1.724088e-05 2.813669e-08
4.408647e-05 -1.723959e-05 -3.290183e-08
4.227780e-05 -1.654360e-05 2.109616e-09
4.227237e-05 -1.653961e-05 -9.962595e-09
4.406618e-05 -1.723925e-05 3.638691e-08
4.408131e-05 -1.723781e-05 -4.114480e-08
4.227772e-05 -1.654355e-05 -2.920827e-10
4.227872e-05 -1.653928e-05 -8.329514e-09
4.406122e-05 -1.723729e-05 4.435670e-08
4.407530e-05 -1.723569e-05 -4.910219e-08
4.227794e-05 -1.654361e-05 -2.683846e-09
4.227804e-05 -1.653901e-05 -5.399846e-09
4.405543e-05 -1.723499e-05 5.204510e-08
4.406847e-05 -1.723325e-05 -5.677330e-08
4.227845e-05 -1.654380e-05 -5.065800e-09
4.227086e-05 -1.653899e-05 -1.041753e-09
4.404883e-05 -1.723238e-05 5.945153e-08
4.406084e-05 -1.723050e-05 -6.415771e-08
4.227927e-05 -1.654410e-05 -7.438062e-09
4.227096e-05 -1.653902e-05 1.907882e-09
4.404145e-05 -1.722947e-05 6.657565e-08
4.405246e-05 -1.722745e-05 -7.125518e-08
4.228038e-05 -1.654451e-05 -9.800735e-09
4.227780e-05 -1.653892e-05 3.318035e-09
4.403332e-05 -1.722626e-05 7.341732e-08
4.404335e-05 -1.722412e-05 -7.806562e-08
4.228178e-05 -1.654505e-05 -1.215391e-08
4.227205e-05 -1.653942e-05 7.771822e-09
4.402448e-05 -1.722277e-05 7.997647e-08
4.403354e-05 -1.722051e-05 -8.458901e-08
4.228348e-05 -1.654569e-05 -1.449767e-08
4.227304e-05 -1.653980e-05 1.068632e-08
4.401495e-05 -1.721901e-05 8.625315e-08
4.402305e-05 -1.721663e-05 -9.082539e-08
4.228547e-05 -1.654645e-05 -1.683207e-08
4.227432e-05 -1.654029e-05 1.358928e-08
4.400476e-05 -1.721500e-05 9.224740e-08
4.401193e-05 -1.721251e-05 -9.677484e-08
4.228775e-05 -1.654733e-05 -1.915719e-08
4.227590e-05 -1.654089e-05 1.648078e-08
4.399395e-05 -1.721074e-05 9.795936e-08
4.400020e-05 -1.720815e-05 -1.024375e-07
4.229032e-05 -1.654831e-05 -2.147309e-08
4.228334e-05 -1.654564e-05 1.449731e-08
4.228334e-05 -1.654109e-05 1.761723e-08
4.395807e-05 -1.719661e-05 1.134028e-07
4.398254e-05 -1.720624e-05 1.033891e-07
4.398788e-05 -1.720356e-05 -1.078134e-07
4.229318e-05 -1.654941e-05 -2.377983e-08
4.228533e-05 -1.654640e-05 1.683171e-08
4.227993e-05 -1.654245e-05 2.222965e-08
4.397057e-05 -1.720153e-05 1.085369e-07
4.229633e-05 -1.655063e-05 -2.607747e-08
4.228238e-05 -1.654340e-05 2.508714e-08
4.394506e-05 -1.719149e-05 1.179869e-07
4.229977e-05 -1.655195e-05 -2.836610e-08
4.228512e-05 -1.654446e-05 2.793342e-08
4.393158e-05 -1.718619e-05 1.222896e-07
4.393345e-05 -1.718318e-05 -1.264537e-07
4.230349e-05 -1.655339e-05 -3.064585e-08
4.228815e-05 -1.654563e-05 3.076853e-08
4.391766e-05 -1.718071e-05 1.263110e-07
4.391870e-05 -1.717764e-05 -1.303988e-07
4.230750e-05 -1.655494e-05 -3.291688e-08
4.229619e-05 -1.654611e-05 3.163673e-08
4.390332e-05 -1.717507e-05 1.300513e-07
4.390355e-05 -1.717194e-05 -1.340584e-07
4.231179e-05 -1.655660e-05 -3.517940e-08
4.229507e-05 -1.654832e-05 3.640552e-08
4.388860e-05 -1.716929e-05 1.335107e-07
4.388803e-05 -1.716610e-05 -1.374327e-07
4.231636e-05 -1.655837e-05 -3.743375e-08
4.229897e-05 -1.654983e-05 3.920753e-08
4.387354e-05 -1.716336e-05 1.366894e-07
4.387218e-05 -1.716013e-05 -1.405219e-07
4.232122e-05 -1.656025e-05 -3.968037e-08
4.230314e-05 -1.655145e-05 4.199868e-08
4.385815e-05 -1.715732e-05 1.395878e-07
4.385602e-05 -1.715404e-05 -1.433263e-07
4.232636e-05 -1.656224e-05 -4.191991e-08
4.230760e-05 -1.655318e-05 4.477908e-08
4.384247e-05 -1.715116e-05 1.422061e-07
4.383959e-05 -1.714784e-05 -1.458463e-07
4.233177e-05 -1.656434e-05 -4.415323e-08
4.231234e-05 -1.655502e-05 4.754892e-08
4.382653e-05 -1.714489e-05 1.445446e-07
4.382290e-05 -1.714155e-05 -1.480822e-07
4.233746e-05 -1.656655e-05 -4.638154e-08
4.231737e-05 -1.655697e-05 5.030843e-08
4.381036e-05 -1.713854e-05 1.466039e-07
4.380600e-05 -1.713517e-05 -1.500345e-07
4.234343e-05 -1.656888e-05 -4.860645e-08
4.232267e-05 -1.655904e-05 5.305795e-08
4.379399e-05 -1.713211e-05 1.483843e-07
4.378891e-05 -1.712872e-05 -1.517038e-07
4.232825e-05 -1.656121e-05 5.579799e-08
4.234967e-05 -1.657131e-05 -5.083009e-08
4.377744e-05 -1.712562e-05 1.498866e-07
4.377167e-05 -1.712221e-05 -1.530908e-07
4.235618e-05 -1.657385e-05 -5.305518e-08
4.233733e-05 -1.656651e-05 4.638102e-08
4.233731e-05 -1.656219e-05 5.619989e-08
4.376076e-05 -1.711907e-05 1.511117e-07
4.375430e-05 -1.711565e-05 -1.541965e-07
4.236295e-05 -1.657650e-05 -5.528493e-08
4.234330e-05 -1.656883e-05 4.860591e-08
4.234328e-05 -1.656452e-05 5.888198e-08
4.374397e-05 -1.711247e-05 1.520609e-07
4.373683e-05 -1.710905e-05 -1.550225e-07
4.236999e-05 -1.657926e-05 -5.752233e-08
4.234663e-05 -1.656836e-05 6.397071e-08
4.372711e-05 -1.710585e-05 1.527362e-07
4.371929e-05 -1.710243e-05 -1.555707e-07
4.237730e-05 -1.658214e-05 -5.976920e-08
4.235329e-05 -1.657096e-05 6.668536e-08
4.367639e-05 -1.708594e-05 1.531503e-07
4.371020e-05 -1.709921e-05 1.531399e-07
4.238488e-05 -1.658513e-05 -6.202749e-08
4.236279e-05 -1.657215e-05 6.690000e-08
4.369328e-05 -1.709257e-05 1.532761e-07
4.239273e-05 -1.658823e-05 -6.430038e-08
4.236734e-05 -1.657646e-05 7.212550e-08
4.365956e-05 -1.707933e-05 1.527709e-07
4.364929e-05 -1.707596e-05 -1.550714e-07
4.240085e-05 -1.659145e-05 -6.659104e-08
4.237714e-05 -1.657775e-05 7.226320e-08
4.364284e-05 -1.707277e-05 1.521509e-07
4.363206e-05 -1.706943e-05 -1.543187e-07
4.240926e-05 -1.659478e-05 -6.890209e-08
4.238237e-05 -1.658237e-05 7.762850e-08
4.362627e-05 -1.706627e-05 1.513108e-07
4.361508e-05 -1.706296e-05 -1.533539e-07
4.241796e-05 -1.659822e-05 -7.123560e-08
4.239028e-05 -1.658549e-05 8.041794e-08
4.360987e-05 -1.705984e-05 1.502829e-07
4.359845e-05 -1.705659e-05 -1.522186e-07
4.242696e-05 -1.660178e-05 -7.359312e-08
4.239847e-05 -1.658871e-05 8.323664e-08
4.359369e-05 -1.705351e-05 1.491139e-07
4.358222e-05 -1.705032e-05 -1.509671e-07
4.243625e-05 -1.660546e-05 -7.597584e-08
4.240910e-05 -1.659022e-05 8.324529e-08
4.357772e-05 -1.704727e-05 1.478547e-07
4.356633e-05 -1.704413e-05 -1.496489e-07
4.244584e-05 -1.660926e-05 -7.838461e-08
4.241571e-05 -1.659550e-05 8.896781e-08
4.356197e-05 -1.704112e-05 1.465452e-07
4.355070e-05 -1.703804e-05 -1.482972e-07
4.245574e-05 -1.661317e-05 -8.082006e-08
4.242477e-05 -1.659907e-05 9.188209e-08
4.354641e-05 -1.703504e-05 1.452113e-07
4.353530e-05 -1.703201e-05 -1.469321e-07
4.246594e-05 -1.661721e-05 -8.328266e-08
4.243413e-05 -1.660276e-05 9.482959e-08
4.353105e-05 -1.702904e-05 1.438689e-07
4.352008e-05 -1.702605e-05 -1.455658e-07
4.247647e-05 -1.662137e-05 -8.577274e-08
4.244571e-05 -1.660921e-05 7.838376e-08
4.244566e-05 -1.660449e-05 9.471021e-08
4.351585e-05 -1.702311e-05 1.425282e-07
4.350504e-05 -1.702016e-05 -1.442060e-07
4.248730e-05 -1.662566e-05 -8.829058e-08
4.245561e-05 -1.661313e-05 8.081919e-08
4.245376e-05 -1.661048e-05 1.008256e-07
4.350082e-05 -1.701724e-05 1.411956e-07
4.349015e-05 -1.701432e-05 -1.428575e-07
4.249846e-05 -1.663007e-05 -9.083634e-08
4.246405e-05 -1.661453e-05 1.038746e-07
4.348594e-05 -1.701143e-05 1.398751e-07
4.347542e-05 -1.700855e-05 -1.415235e-07
4.250995e-05 -1.663460e-05 -9.341019e-08
4.247464e-05 -1.661870e-05 1.069578e-07
4.347121e-05 -1.700567e-05 1.385696e-07
4.346082e-05 -1.700282e-05 -1.402059e-07
4.252176e-05 -1.663927e-05 -9.601226e-08
4.248711e-05 -1.662067e-05 1.067042e-07
4.345663e-05 -1.699998e-05 1.372807e-07
4.344637e-05 -1.699716e-05 -1.389059e-07
4.253390e-05 -1.664406e-05 -9.864265e-08
4.249680e-05 -1.662741e-05 1.132275e-07
4.344218e-05 -1.699433e-05 1.360096e-07
4.343205e-05 -1.699154e-05 -1.376245e-07
4.254638e-05 -1.664899e-05 -1.013015e-07
4.250975e-05 -1.662950e-05 1.129040e-07
4.339967e-05 -1.697772e-05 1.323080e-07
4.342788e-05 -1.698874e-05 1.347569e-07
4.341786e-05 -1.698598e-05 -1.363619e-07
4.255921e-05 -1.665405e-05 -1.039888e-07
4.252027e-05 -1.663663e-05 1.196357e-07
4.341371e-05 -1.698321e-05 1.335230e-07
4.257237e-05 -1.665924e-05 -1.067049e-07
4.253250e-05 -1.664144e-05 1.228919e-07
4.338576e-05 -1.697228e-05 1.311121e-07
4.337608e-05 -1.696959e-05 -1.326894e-07
4.258588e-05 -1.666457e-05 -1.094497e-07
4.254507e-05 -1.664637e-05 1.261831e-07
4.337199e-05 -1.696690e-05 1.299352e-07
4.336241e-05 -1.696423e-05 -1.315038e-07
4.259975e-05 -1.667004e-05 -1.122234e-07
4.255798e-05 -1.665145e-05 1.295094e-07
4.335833e-05 -1.696156e-05 1.287773e-07
4.334887e-05 -1.695892e-05 -1.303373e-07
4.261397e-05 -1.667564e-05 -1.150262e-07
4.257215e-05 -1.665386e-05 1.290032e-07
4.334481e-05 -1.695628e-05 1.276383e-07
4.333544e-05 -1.695366e-05 -1.291899e-07
4.262854e-05 -1.668139e-05 -1.178582e-07
4.258485e-05 -1.666199e-05 1.362676e-07
4.333140e-05 -1.695104e-05 1.265181e-07
4.332214e-05 -1.694844e-05 -1.280615e-07
4.264349e-05 -1.668728e-05 -1.207197e-07
4.259881e-05 -1.666747e-05 1.396999e-07
4.331812e-05 -1.694584e-05 1.254166e-07
4.330896e-05 -1.694327e-05 -1.269520e-07
4.265880e-05 -1.669331e-05 -1.236107e-07
4.261384e-05 -1.667560e-05 1.150252e-07
4.261373e-05 -1.667009e-05 1.390788e-07
4.330495e-05 -1.694070e-05 1.243337e-07
4.329589e-05 -1.693815e-05 -1.258614e-07
4.267448e-05 -1.669949e-05 -1.265316e-07
4.262842e-05 -1.668134e-05 1.178573e-07
4.262780e-05 -1.667885e-05 1.466714e-07
4.329190e-05 -1.693560e-05 1.232694e-07
4.328294e-05 -1.693307e-05 -1.247896e-07
4.269053e-05 -1.670581e-05 -1.294825e-07
4.264284e-05 -1.668476e-05 1.502110e-07
4.327897e-05 -1.693054e-05 1.222236e-07
4.327011e-05 -1.692803e-05 -1.237365e-07
4.270696e-05 -1.671228e-05 -1.324636e-07
4.265825e-05 -1.669080e-05 1.537868e-07
4.326615e-05 -1.692553e-05 1.211963e-07
4.325738e-05 -1.692304e-05 -1.227021e-07
4.272378e-05 -1.671890e-05 -1.354751e-07
4.267403e-05 -1.669700e-05 1.573989e-07
4.325344e-05 -1.692056e-05 1.201873e-07
4.324477e-05 -1.691810e-05 -1.216863e-07
4.274098e-05 -1.672568e-05 -1.385171e-07
4.269027e-05 -1.669996e-05 1.565780e-07
4.324084e-05 -1.691564e-05 1.191967e-07
4.323226e-05 -1.691319e-05 -1.206892e-07
4.275858e-05 -1.673260e-05 -1.415894e-07
4.270673e-05 -1.670982e-05 1.647329e-07
4.322835e-05 -1.691075e-05 1.182244e-07
4.321987e-05 -1.690833e-05 -1.197106e-07
4.277657e-05 -1.673968e-05 -1.446918e-07
4.272365e-05 -1.671646e-05 1.684553e-07
4.319150e-05 -1.689635e-05 1.154172e-07
4.321596e-05 -1.690591e-05 1.172704e-07
4.320757e-05 -1.690350e-05 -1.187507e-07
4.279496e-05 -1.674691e-05 -1.478238e-07
4.274096e-05 -1.672325e-05 1.722148e-07
4.320368e-05 -1.690111e-05 1.163346e-07
4.275865e-05 -1.673019e-05 1.760115e-07
4.281375e-05 -1.675431e-05 -1.509843e-07
4.317942e-05 -1.689163e-05 1.145180e-07
4.277674e-05 -1.673728e-05 1.798455e-07
4.283295e-05 -1.676186e-05 -1.541715e-07
4.316743e-05 -1.688694e-05 1.136370e-07
4.315940e-05 -1.688461e-05 -1.150959e-07
4.279466e-05 -1.674069e-05 1.787726e-07
4.285257e-05 -1.676956e-05 -1.573829e-07
4.315554e-05 -1.688229e-05 1.127741e-07
4.314760e-05 -1.687998e-05 -1.142284e-07
4.281345e-05 -1.674802e-05 1.826001e-07
4.287261e-05 -1.677743e-05 -1.606144e-07
4.314375e-05 -1.687768e-05 1.119294e-07
4.313589e-05 -1.687538e-05 -1.133793e-07
4.283264e-05 -1.675551e-05 1.864638e-07
4.289309e-05 -1.678547e-05 -1.638603e-07
4.313204e-05 -1.687311e-05 1.111028e-07
4.312428e-05 -1.687083e-05 -1.125484e-07
4.285225e-05 -1.676316e-05 1.903626e-07
4.291400e-05 -1.679366e-05 -1.671124e-07
4.285244e-05 -1.676952e-05 1.573823e-07
4.312043e-05 -1.686857e-05 1.102940e-07
4.311275e-05 -1.686630e-05 -1.117356e-07
4.293537e-05 -1.680201e-05 -1.703595e-07
4.287249e-05 -1.677739e-05 1.606139e-07
4.287229e-05 -1.677097e-05 1.942951e-07
4.310890e-05 -1.686406e-05 1.095030e-07
4.310131e-05 -1.686181e-05 -1.109407e-07
4.295721e-05 -1.681053e-05 -1.735860e-07
4.289275e-05 -1.677896e-05 1.982587e-07
4.309745e-05 -1.685959e-05 1.087293e-07
4.308996e-05 -1.685736e-05 -1.101633e-07
4.291486e-05 -1.679141e-05 2.076760e-07
4.297953e-05 -1.681920e-05 -1.767719e-07
4.308609e-05 -1.685515e-05 1.079724e-07
4.307868e-05 -1.685293e-05 -1.094027e-07
4.293634e-05 -1.679982e-05 2.117651e-07
4.300236e-05 -1.682803e-05 -1.798916e-07
4.307481e-05 -1.685074e-05 1.072316e-07
4.306749e-05 -1.684854e-05 -1.086582e-07
4.295684e-05 -1.680394e-05 2.102859e-07
4.302572e-05 -1.683699e-05 -1.829176e-07
4.306360e-05 -1.684636e-05 1.065057e-07
4.305637e-05 -1.684418e-05 -1.079284e-07
4.297916e-05 -1.681264e-05 2.143073e-07
4.304960e-05 -1.684609e-05 -1.858301e-07
4.305247e-05 -1.684201e-05 1.057930e-07
4.304531e-05 -1.683984e-05 -1.072112e-07
4.300198e-05 -1.682155e-05 2.183023e-07
4.307399e-05 -1.685531e-05 -1.886149e-07
4.304140e-05 -1.683768e-05 1.050907e-07
4.303431e-05 -1.683553e-05 -1.065034e-07
4.302532e-05 -1.683066e-05 2.222335e-07
4.309885e-05 -1.686466e-05 -1.912491e-07
4.303040e-05 -1.683338e-05 1.043947e-07
4.302335e-05 -1.683124e-05 -1.057996e-07
4.304919e-05 -1.683999e-05 2.260452e-07
4.312414e-05 -1.687413e-05 -1.937043e-07
4.299772e-05 -1.682060e-05 1.022594e-07
4.301945e-05 -1.682910e-05 1.036981e-07
4.301242e-05 -1.682698e-05 -1.050912e-07
4.307357e-05 -1.684953e-05 2.296748e-07
4.314980e-05 -1.688372e-05 -1.959560e-07
4.300856e-05 -1.682484e-05 1.029907e-07
4.300150e-05 -1.682273e-05 -1.043654e-07
4.309842e-05 -1.685926e-05 2.330706e-07
4.317580e-05 -1.689342e-05 -1.979846e-07
4.298695e-05 -1.681638e-05 1.014924e-07
4.312370e-05 -1.686916e-05 2.361983e-07
4.320209e-05 -1.690322e-05 -1.997750e-07
4.297624e-05 -1.681219e-05 1.006814e-07
4.296893e-05 -1.681011e-05 -1.019622e-07
4.314936e-05 -1.687921e-05 2.390362e-07
4.322862e-05 -1.691311e-05 -2.013160e-07
4.296561e-05 -1.680803e-05 9.982136e-08
4.295820e-05 -1.680597e-05 -1.010627e-07
4.317535e-05 -1.688940e-05 2.415702e-07
4.325537e-05 -1.692308e-05 -2.025994e-07
4.317567e-05 -1.689337e-05 1.979863e-07
4.295507e-05 -1.680390e-05 9.890900e-08
4.294757e-05 -1.680186e-05 -1.001084e-07
4.320163e-05 -1.689969e-05 2.437908e-07
4.328228e-05 -1.693310e-05 -2.036191e-07
4.320196e-05 -1.690317e-05 1.997768e-07
4.294463e-05 -1.679981e-05 9.794232e-08
4.293704e-05 -1.679780e-05 -9.909789e-08
4.322816e-05 -1.691009e-05 2.456917e-07
4.330932e-05 -1.694318e-05 -2.043707e-07
4.293429e-05 -1.679577e-05 9.691999e-08
4.292662e-05 -1.679377e-05 -9.803012e-08
4.325489e-05 -1.692057e-05 2.472683e-07
4.333646e-05 -1.695330e-05 -2.048511e-07
4.292406e-05 -1.679176e-05 9.584119e-08
4.291631e-05 -1.678979e-05 -9.690450e-08
4.328180e-05 -1.693111e-05 2.485175e-07
4.336366e-05 -1.696343e-05 -2.050577e-07
4.291395e-05 -1.678780e-05 9.470537e-08
4.290612e-05 -1.678586e-05 -9.572064e-08
4.330884e-05 -1.694171e-05 2.494369e-07
4.339089e-05 -1.697358e-05 -2.049891e-07
4.290396e-05 -1.678390e-05 9.351222e-08
4.289606e-05 -1.678198e-05 -9.447831e-08
4.341810e-05 -1.698373e-05 -2.046439e-07
4.333598e-05 -1.695235e-05 2.500246e-07
4.289411e-05 -1.678004e-05 9.226153e-08
4.288614e-05 -1.677815e-05 -9.317738e-08
4.344527e-05 -1.699385e-05 -2.040210e-07
4.336318e-05 -1.696301e-05 2.502792e-07
4.288439e-05 -1.677623e-05 9.095319e-08
4.287636e-05 -1.677438e-05 -9.181780e-08
4.340496e-05 -1.697899e-05 2.542892e-07
4.347236e-05 -1.700395e-05 -2.031198e-07
4.287481e-05 -1.677249e-05 8.958716e-08
4.286672e-05 -1.677066e-05 -9.039956e-08
4.343292e-05 -1.698963e-05 2.536946e-07
4.349933e-05 -1.701400e-05 -2.019395e-07
4.286538e-05 -1.676880e-05 8.816344e-08
4.285723e-05 -1.676701e-05 -8.892265e-08
4.344479e-05 -1.699501e-05 2.490339e-07
4.352614e-05 -1.702400e-05 -2.004794e-07
4.285610e-05 -1.676517e-05 8.668204e-08
4.284791e-05 -1.676341e-05 -8.738711e-08
4.347188e-05 -1.700564e-05 2.479461e-07
4.355277e-05 -1.703392e-05 -1.987391e-07
4.282927e-05 -1.675467e-05 8.189215e-08
4.284699e-05 -1.676160e-05 8.514301e-08
4.283874e-05 -1.675988e-05 -8.579297e-08
4.349885e-05 -1.701622e-05 2.465206e-07
4.357917e-05 -1.704375e-05 -1.967179e-07
4.283804e-05 -1.675810e-05 8.354636e-08
4.352567e-05 -1.702674e-05 2.447566e-07
4.360531e-05 -1.705348e-05 -1.944153e-07
4.282067e-05 -1.675130e-05 8.018040e-08
4.355230e-05 -1.703719e-05 2.426534e-07
4.363115e-05 -1.706309e-05 -1.918306e-07
4.281226e-05 -1.674801e-05 7.841115e-08
4.280384e-05 -1.674644e-05 -7.883114e-08
4.357870e-05 -1.704756e-05 2.402102e-07
4.365665e-05 -1.707258e-05 -1.889633e-07
4.357902e-05 -1.704369e-05 1.967202e-07
4.280403e-05 -1.674479e-05 7.658441e-08
4.279558e-05 -1.674327e-05 -7.694450e-08
4.360485e-05 -1.705782e-05 2.374263e-07
4.368178e-05 -1.708192e-05 -1.858128e-07
4.360516e-05 -1.705342e-05 1.944176e-07
4.279600e-05 -1.674165e-05 7.470021e-08
4.278752e-05 -1.674017e-05 -7.499943e-08
4.363069e-05 -1.706797e-05 2.343010e-07
4.370650e-05 -1.709110e-05 -1.823785e-07
4.278817e-05 -1.673859e-05 7.275854e-08
4.277967e-05 -1.673715e-05 -7.299592e-08
4.365621e-05 -1.707800e-05 2.308335e-07
4.373078e-05 -1.710010e-05 -1.786597e-07
4.278055e-05 -1.673561e-05 7.075941e-08
4.277202e-05 -1.673421e-05 -7.093397e-08
4.368134e-05 -1.708787e-05 2.270230e-07
4.375457e-05 -1.710892e-05 -1.746557e-07
4.277315e-05 -1.673271e-05 6.870278e-08
4.276459e-05 -1.673136e-05 -6.881355e-08
4.370607e-05 -1.709759e-05 2.228689e-07
4.377784e-05 -1.711753e-05 -1.703661e-07
4.276596e-05 -1.672989e-05 6.658864e-08
4.275738e-05 -1.672859e-05 -6.663464e-08
4.373036e-05 -1.710713e-05 2.183704e-07
4.380055e-05 -1.712592e-05 -1.657903e-07
4.275899e-05 -1.672717e-05 6.441695e-08
4.275040e-05 -1.672591e-05 -6.439720e-08
4.375416e-05 -1.711649e-05 2.135268e-07
4.382266e-05 -1.713408e-05 -1.609279e-07
4.275226e-05 -1.672453e-05 6.218766e-08
4.274365e-05 -1.672333e-05 -6.210119e-08
4.377744e-05 -1.712565e-05 2.083375e-07
4.384414e-05 -1.714200e-05 -1.557787e-07
4.274576e-05 -1.672199e-05 5.990072e-08
4.273713e-05 -1.672083e-05 -5.974657e-08
4.380016e-05 -1.713458e-05 2.028017e-07
4.386495e-05 -1.714965e-05 -1.503427e-07
4.273950e-05 -1.671954e-05 5.755609e-08
4.273086e-05 -1.671844e-05 -5.733331e-08
4.388504e-05 -1.715702e-05 -1.446204e-07
4.382229e-05 -1.714329e-05 1.969189e-07
4.273349e-05 -1.671719e-05 5.515374e-08
4.272484e-05 -1.671614e-05 -5.486138e-08
4.384378e-05 -1.715174e-05 1.906886e-07
4.390439e-05 -1.716410e-05 -1.386132e-07
4.271700e-05 -1.671073e-05 4.760065e-08
4.272773e-05 -1.671493e-05 5.269367e-08
4.271908e-05 -1.671393e-05 -5.233080e-08
4.389018e-05 -1.716355e-05 1.837729e-07
4.392295e-05 -1.717088e-05 -1.323232e-07
4.272224e-05 -1.671278e-05 5.017592e-08
4.388471e-05 -1.716786e-05 1.771841e-07
4.394068e-05 -1.717733e-05 -1.257538e-07
4.271204e-05 -1.670879e-05 4.496815e-08
4.390407e-05 -1.717549e-05 1.699099e-07
4.395754e-05 -1.718345e-05 -1.189107e-07
4.390423e-05 -1.716404e-05 1.386153e-07
4.270736e-05 -1.670695e-05 4.227892e-08
4.269867e-05 -1.670617e-05 -4.162568e-08
4.392264e-05 -1.718281e-05 1.622883e-07
4.397349e-05 -1.718922e-05 -1.118020e-07
4.392279e-05 -1.717082e-05 1.323251e-07
4.270296e-05 -1.670523e-05 3.953381e-08
4.269426e-05 -1.670450e-05 -3.880624e-08
4.394038e-05 -1.718980e-05 1.543204e-07
4.398847e-05 -1.719463e-05 -1.044394e-07
4.269885e-05 -1.670362e-05 3.673414e-08
4.269015e-05 -1.670295e-05 -3.593183e-08
4.395725e-05 -1.719646e-05 1.460085e-07
4.400245e-05 -1.719967e-05 -9.683970e-08
4.269504e-05 -1.670212e-05 3.388194e-08
4.268634e-05 -1.670151e-05 -3.300476e-08
4.397321e-05 -1.720276e-05 1.373559e-07
4.401536e-05 -1.720431e-05 -8.902579e-08
4.269155e-05 -1.670075e-05 3.098032e-08
4.268285e-05 -1.670019e-05 -3.002859e-08
4.398821e-05 -1.720869e-05 1.283683e-07
4.402714e-05 -1.720857e-05 -8.102864e-08
4.268838e-05 -1.669950e-05 2.803402e-08
4.267970e-05 -1.669900e-05 -2.700890e-08
4.400220e-05 -1.721422e-05 1.190541e-07
4.403774e-05 -1.721242e-05 -7.288827e-08
4.268555e-05 -1.669839e-05 2.505034e-08
4.267692e-05 -1.669795e-05 -2.395447e-08
4.401512e-05 -1.721933e-05 1.094265e-07
4.404709e-05 -1.721588e-05 -6.465245e-08
4.268308e-05 -1.669741e-05 2.204071e-08
4.267453e-05 -1.669703e-05 -2.087934e-08
4.402692e-05 -1.722401e-05 9.950615e-08
4.405515e-05 -1.721896e-05 -5.636478e-08
4.268097e-05 -1.669658e-05 1.902325e-08
4.267259e-05 -1.669627e-05 -1.780645e-08
4.403753e-05 -1.722821e-05 8.932586e-08
4.406189e-05 -1.722165e-05 -4.805172e-08
4.267924e-05 -1.669590e-05 1.602651e-08
4.267119e-05 -1.669567e-05 -1.477233e-08
4.404689e-05 -1.723192e-05 7.893846e-08
4.406734e-05 -1.722394e-05 -3.974473e-08
4.267789e-05 -1.669539e-05 1.309082e-08
4.267031e-05 -1.669523e-05 -1.182351e-08
4.405495e-05 -1.723510e-05 6.842652e-08
4.407155e-05 -1.722583e-05 -3.149188e-08
4.267692e-05 -1.669502e-05 1.025899e-08
4.266990e-05 -1.669494e-05 -9.001264e-09
4.406170e-05 -1.723774e-05 5.789808e-08
4.407456e-05 -1.722731e-05 -2.333891e-08
4.267621e-05 -1.669482e-05 4.786385e-10
4.267630e-05 -1.669479e-05 7.564083e-09
4.266988e-05 -1.669478e-05 -6.333046e-09
4.406716e-05 -1.723987e-05 4.745500e-08
4.407644e-05 -1.722838e-05 -1.532287e-08
4.267599e-05 -1.669469e-05 5.027555e-09
4.267018e-05 -1.669473e-05 -3.835595e-09
4.407722e-05 -1.722905e-05 -7.472075e-09
4.407138e-05 -1.722576e-05 3.149054e-08
4.407137e-05 -1.724150e-05 3.716864e-08
4.267597e-05 -1.669470e-05 2.662881e-09
4.407696e-05 -1.722933e-05 1.925278e-10
4.407440e-05 -1.722724e-05 2.333730e-08
4.407439e-05 -1.724265e-05 2.708398e-08
4.267668e-05 -1.669502e-05 -1.519624e-09
4.267159e-05 -1.669495e-05 6.092794e-10
4.409841e-05 -1.724307e-05 1.252861e-08
4.407568e-05 -1.722922e-05 7.655747e-09
4.267736e-05 -1.669530e-05 -3.328274e-09
4.267388e-05 -1.669550e-05 4.287949e-09
4.409799e-05 -1.724314e-05 2.892217e-09
4.407344e-05 -1.722875e-05 1.490676e-08
4.267822e-05 -1.669565e-05 -4.944918e-09
4.267529e-05 -1.669588e-05 5.833527e-09
4.407679e-05 -1.724351e-05 -1.723952e-09
4.407026e-05 -1.722791e-05 2.193799e-08
4.267924e-05 -1.669607e-05 -6.367978e-09
4.267685e-05 -1.669631e-05 7.181520e-09
4.407552e-05 -1.724299e-05 -1.080278e-08
4.406618e-05 -1.722672e-05 2.874427e-08
4.268040e-05 -1.669654e-05 -7.596434e-09
4.267853e-05 -1.669680e-05 8.331176e-09
4.407327e-05 -1.724208e-05 -1.960853e-08
4.406123e-05 -1.722519e-05 3.532210e-08
4.268168e-05 -1.669705e-05 -8.629632e-09
4.268031e-05 -1.669732e-05 9.282044e-09
4.407009e-05 -1.724081e-05 -2.813769e-08
4.405545e-05 -1.722334e-05 4.166924e-08
4.268306e-05 -1.669760e-05 -9.467182e-09
4.268218e-05 -1.669788e-05 1.003383e-08
4.406601e-05 -1.723919e-05 -3.638792e-08
4.404885e-05 -1.722117e-05 4.778431e-08
4.268451e-05 -1.669818e-05 -1.010884e-08
4.268411e-05 -1.669846e-05 1.058640e-08
4.406106e-05 -1.723722e-05 -4.435772e-08
4.404148e-05 -1.721869e-05 5.366647e-08
4.268601e-05 -1.669878e-05 -1.055449e-08
4.268609e-05 -1.669906e-05 1.093964e-08
4.405527e-05 -1.723493e-05 -5.204612e-08
4.403335e-05 -1.721592e-05 5.931532e-08
4.268755e-05 -1.669940e-05 -1.080408e-08
4.268809e-05 -1.669967e-05 1.109354e-08
4.404867e-05 -1.723232e-05 -5.945254e-08
4.402452e-05 -1.721287e-05 6.473069e-08
4.268911e-05 -1.670002e-05 -1.085758e-08
4.269009e-05 -1.670028e-05 1.104806e-08
4.404129e-05 -1.722940e-05 -6.657666e-08
4.401499e-05 -1.720955e-05 6.991256e-08
4.269065e-05 -1.670064e-05 -1.071500e-08
4.269208e-05 -1.670088e-05 1.080321e-08
4.403316e-05 -1.722619e-05 -7.341831e-08
4.400481e-05 -1.720597e-05 7.486103e-08
4.269639e-05 -1.670294e-05 -8.183770e-09
4.269218e-05 -1.670125e-05 -1.037633e-08
4.269403e-05 -1.670147e-05 1.035899e-08
4.402432e-05 -1.722270e-05 -7.997746e-08
4.399401e-05 -1.720215e-05 7.957623e-08
4.402436e-05 -1.721281e-05 -6.473357e-08
4.269366e-05 -1.670184e-05 -9.841575e-09
4.269592e-05 -1.670204e-05 9.715392e-09
4.401479e-05 -1.721895e-05 -8.625411e-08
4.398260e-05 -1.719810e-05 8.405833e-08
4.401484e-05 -1.720949e-05 -6.991544e-08
4.269507e-05 -1.670241e-05 -9.110731e-09
4.400461e-05 -1.721493e-05 -9.224835e-08
4.397064e-05 -1.719382e-05 8.830750e-08
4.269761e-05 -1.670343e-05 -7.060660e-09
4.269946e-05 -1.670308e-05 7.829955e-09
4.399380e-05 -1.721067e-05 -9.796029e-08
4.395814e-05 -1.718934e-05 9.232391e-08
4.269870e-05 -1.670387e-05 -5.741347e-09
4.270253e-05 -1.670394e-05 5.146611e-09
4.394514e-05 -1.718466e-05 9.610773e-08
4.398239e-05 -1.720618e-05 -1.033901e-07
4.269964e-05 -1.670425e-05 -4.225766e-09
4.270384e-05 -1.670428e-05 3.505574e-09
4.393166e-05 -1.717979e-05 9.965912e-08
4.397042e-05 -1.720147e-05 -1.085378e-07
4.270042e-05 -1.670457e-05 -2.513830e-09
4.270498e-05 -1.670455e-05 1.664850e-09
4.396164e-05 -1.719375e-05 -1.177059e-07
4.391774e-05 -1.717475e-05 1.029782e-07
4.270101e-05 -1.670481e-05 -6.054389e-10
4.270591e-05 -1.670474e-05 -3.756481e-10
4.394778e-05 -1.718856e-05 -1.222228e-07
4.390341e-05 -1.716955e-05 1.060652e-07
4.270139e-05 -1.670497e-05 1.499506e-09
4.270663e-05 -1.670485e-05 -2.616013e-09
4.393143e-05 -1.718612e-05 -1.222905e-07
4.388870e-05 -1.716420e-05 1.089202e-07
4.270155e-05 -1.670504e-05 3.801119e-09
4.270712e-05 -1.670486e-05 -5.056341e-09
4.391751e-05 -1.718065e-05 -1.263118e-07
4.387364e-05 -1.715872e-05 1.115435e-07
4.270145e-05 -1.670502e-05 6.299480e-09
4.270735e-05 -1.670478e-05 -7.696677e-09
4.390318e-05 -1.717501e-05 -1.300521e-07
4.385826e-05 -1.715311e-05 1.139352e-07
4.270109e-05 -1.670489e-05 8.994637e-09
4.270730e-05 -1.670459e-05 -1.053704e-08
4.388846e-05 -1.716923e-05 -1.335115e-07
4.384258e-05 -1.714738e-05 1.160956e-07
4.270044e-05 -1.670465e-05 1.188655e-08
4.270696e-05 -1.670428e-05 -1.357733e-08
4.387339e-05 -1.716330e-05 -1.366902e-07
4.382664e-05 -1.714156e-05 1.180251e-07
4.269949e-05 -1.670429e-05 1.497507e-08
4.270631e-05 -1.670385e-05 -1.681730e-08
4.385801e-05 -1.715726e-05 -1.395886e-07
4.381048e-05 -1.713564e-05 1.197244e-07
4.269820e-05 -1.670380e-05 1.825976e-08
4.270533e-05 -1.670328e-05 -2.025644e-08
4.384233e-05 -1.715110e-05 -1.422069e-07
4.379411e-05 -1.712965e-05 1.211943e-07
4.384244e-05 -1.714733e-05 -1.160984e-07
4.269656e-05 -1.670318e-05 2.173991e-08
4.270399e-05 -1.670258e-05 -2.389388e-08
4.382639e-05 -1.714484e-05 -1.445454e-07
4.377757e-05 -1.712358e-05 1.224361e-07
4.382650e-05 -1.714151e-05 -1.180279e-07
4.268933e-05 -1.670040e-05 3.333628e-08
4.269456e-05 -1.670241e-05 2.541426e-08
4.270227e-05 -1.670173e-05 -2.772815e-08
4.381022e-05 -1.713848e-05 -1.466046e-07
4.376089e-05 -1.711747e-05 1.234514e-07
4.269215e-05 -1.670149e-05 2.928076e-08
4.379385e-05 -1.713205e-05 -1.483850e-07
4.374410e-05 -1.711130e-05 1.242430e-07
4.268606e-05 -1.669914e-05 3.757601e-08
4.377731e-05 -1.712556e-05 -1.498873e-07
4.372724e-05 -1.710511e-05 1.248146e-07
4.268232e-05 -1.669770e-05 4.199269e-08
4.269115e-05 -1.669668e-05 -4.496462e-08
4.376063e-05 -1.711901e-05 -1.511124e-07
4.371033e-05 -1.709889e-05 1.251712e-07
4.267806e-05 -1.669606e-05 4.657540e-08
4.268713e-05 -1.669495e-05 -4.971181e-08
4.374384e-05 -1.711242e-05 -1.520616e-07
4.369341e-05 -1.709266e-05 1.253201e-07
4.267325e-05 -1.669420e-05 5.130755e-08
4.268250e-05 -1.669300e-05 -5.460392e-08
4.367652e-05 -1.708643e-05 1.252712e-07
4.372698e-05 -1.710580e-05 -1.527368e-07
4.266785e-05 -1.669211e-05 5.616351e-08
4.267718e-05 -1.669080e-05 -5.960984e-08
4.365969e-05 -1.708020e-05 1.250374e-07
4.371007e-05 -1.709916e-05 -1.531406e-07
4.266181e-05 -1.668976e-05 6.110312e-08
4.267104e-05 -1.668835e-05 -6.467951e-08
4.368418e-05 -1.708917e-05 -1.558472e-07
4.364297e-05 -1.707399e-05 1.246361e-07
4.265508e-05 -1.668714e-05 6.606272e-08
4.266389e-05 -1.668559e-05 -6.973115e-08
4.366668e-05 -1.708255e-05 -1.555862e-07
4.362639e-05 -1.706780e-05 1.240884e-07
4.264765e-05 -1.668421e-05 7.094628e-08
4.265560e-05 -1.668252e-05 -7.464711e-08
4.365944e-05 -1.707928e-05 -1.527714e-07
4.361000e-05 -1.706162e-05 1.234170e-07
4.263952e-05 -1.668100e-05 7.563628e-08
4.264629e-05 -1.667916e-05 -7.930399e-08
4.364272e-05 -1.707272e-05 -1.521513e-07
4.359381e-05 -1.705547e-05 1.226374e-07
4.263074e-05 -1.667751e-05 8.002854e-08
4.263617e-05 -1.667555e-05 -8.361012e-08
4.362614e-05 -1.706621e-05 -1.513112e-07
4.357784e-05 -1.704935e-05 1.217614e-07
4.262138e-05 -1.667380e-05 8.405188e-08
4.262542e-05 -1.667173e-05 -8.750916e-08
4.360975e-05 -1.705979e-05 -1.502832e-07
4.356208e-05 -1.704326e-05 1.208086e-07
4.360987e-05 -1.706158e-05 -1.234185e-07
4.261153e-05 -1.666989e-05 8.766148e-08
4.261417e-05 -1.666773e-05 -9.096653e-08
4.359356e-05 -1.705346e-05 -1.491142e-07
4.354653e-05 -1.703722e-05 1.198014e-07
4.359368e-05 -1.705543e-05 -1.226388e-07
4.260125e-05 -1.666581e-05 9.082919e-08
4.260252e-05 -1.666359e-05 -9.396075e-08
4.357760e-05 -1.704722e-05 -1.478549e-07
4.353115e-05 -1.703122e-05 1.187589e-07
4.256858e-05 -1.665289e-05 9.753165e-08
4.259062e-05 -1.666160e-05 9.353710e-08
4.259055e-05 -1.665934e-05 -9.647832e-08
4.356185e-05 -1.704106e-05 -1.465453e-07
4.351596e-05 -1.702528e-05 1.176962e-07
4.257971e-05 -1.665729e-05 9.577371e-08
4.354629e-05 -1.703499e-05 -1.452114e-07
4.350092e-05 -1.701939e-05 1.166243e-07
4.255729e-05 -1.664843e-05 9.880624e-08
4.353092e-05 -1.702899e-05 -1.438690e-07
4.348604e-05 -1.701356e-05 1.155513e-07
4.254589e-05 -1.664393e-05 9.959465e-08
4.254084e-05 -1.664162e-05 -1.016529e-07
4.351573e-05 -1.702306e-05 -1.425282e-07
4.347131e-05 -1.700778e-05 1.144830e-07
4.253444e-05 -1.663941e-05 9.989524e-08
4.252824e-05 -1.663713e-05 -1.017085e-07
4.350069e-05 -1.701719e-05 -1.411955e-07
4.345673e-05 -1.700205e-05 1.134235e-07
4.252299e-05 -1.663490e-05 9.970723e-08
4.251567e-05 -1.663265e-05 -1.012671e-07
4.348582e-05 -1.701138e-05 -1.398750e-07
4.344228e-05 -1.699638e-05 1.123756e-07
4.251159e-05 -1.663041e-05 9.903039e-08
4.250318e-05 -1.662820e-05 -1.003286e-07
4.347109e-05 -1.700562e-05 -1.385695e-07
4.342797e-05 -1.699076e-05 1.113410e-07
4.250030e-05 -1.662596e-05 9.786484e-08
4.249083e-05 -1.662381e-05 -9.889341e-08
4.345651e-05 -1.699993e-05 -1.372806e-07
4.341380e-05 -1.698519e-05 1.103210e-07
4.248916e-05 -1.662157e-05 9.621094e-08
4.247866e-05 -1.661948e-05 -9.696191e-08
4.339976e-05 -1.697967e-05 1.093163e-07
4.344206e-05 -1.699428e-05 -1.360094e-07
4.247822e-05 -1.661726e-05 9.406913e-08
4.246672e-05 -1.661525e-05 -9.453462e-08
4.338585e-05 -1.697420e-05 1.083273e-07
4.342776e-05 -1.698869e-05 -1.347567e-07
4.246754e-05 -1.661306e-05 9.143996e-08
4.245506e-05 -1.661113e-05 -9.161208e-08
4.340381e-05 -1.698047e-05 -1.351185e-07
4.337207e-05 -1.696879e-05 1.073541e-07
4.245716e-05 -1.660897e-05 8.832394e-08
4.244374e-05 -1.660714e-05 -8.819480e-08
4.338988e-05 -1.697501e-05 -1.338943e-07
4.335842e-05 -1.696342e-05 1.063969e-07
4.339964e-05 -1.697963e-05 -1.093165e-07
4.244713e-05 -1.660502e-05 8.472157e-08
4.243279e-05 -1.660329e-05 -8.428325e-08
4.338564e-05 -1.697223e-05 -1.311119e-07
4.334489e-05 -1.695810e-05 1.054555e-07
4.338573e-05 -1.697416e-05 -1.083274e-07
4.243751e-05 -1.660124e-05 8.063327e-08
4.242227e-05 -1.659962e-05 -7.987785e-08
4.337187e-05 -1.696685e-05 -1.299350e-07
4.333149e-05 -1.695283e-05 1.045300e-07
4.242834e-05 -1.659762e-05 7.605941e-08
4.241222e-05 -1.659613e-05 -7.497891e-08
4.335821e-05 -1.696151e-05 -1.287771e-07
4.331820e-05 -1.694761e-05 1.036202e-07
4.240402e-05 -1.658804e-05 5.942665e-08
4.241967e-05 -1.659421e-05 7.100026e-08
4.240271e-05 -1.659284e-05 -6.958667e-08
4.334469e-05 -1.695623e-05 -1.276381e-07
4.330503e-05 -1.694243e-05 1.027261e-07
4.241155e-05 -1.659101e-05 6.545599e-08
4.239376e-05 -1.658978e-05 -6.370128e-08
4.333128e-05 -1.695099e-05 -1.265179e-07
4.329198e-05 -1.693730e-05 1.018474e-07
4.239715e-05 -1.658533e-05 5.291220e-08
4.331800e-05 -1.694579e-05 -1.254164e-07
4.327905e-05 -1.693222e-05 1.009842e-07
4.239098e-05 -1.658289e-05 4.591246e-08
4.237087e-05 -1.658215e-05 -4.308591e-08
4.330483e-05 -1.694065e-05 -1.243335e-07
4.326623e-05 -1.692718e-05 1.001364e-07
4.238555e-05 -1.658074e-05 3.842714e-08
4.236471e-05 -1.658018e-05 -3.522708e-08
4.329179e-05 -1.693555e-05 -1.232692e-07
4.325352e-05 -1.692218e-05 9.930396e-08
4.238091e-05 -1.657890e-05 3.045584e-08
4.235936e-05 -1.657853e-05 -2.687414e-08
4.327885e-05 -1.693049e-05 -1.222234e-07
4.324092e-05 -1.691723e-05 9.848675e-08
4.237712e-05 -1.657739e-05 2.199806e-08
4.235489e-05 -1.657721e-05 -1.802661e-08
4.326603e-05 -1.692548e-05 -1.211961e-07
4.322843e-05 -1.691232e-05 9.768478e-08
4.237423e-05 -1.657623e-05 1.305327e-08
4.235132e-05 -1.657625e-05 -8.683963e-09
4.325332e-05 -1.692051e-05 -1.201871e-07
4.321604e-05 -1.690744e-05 9.689802e-08
4.237227e-05 -1.657543e-05 3.620906e-09
4.234871e-05 -1.657567e-05 1.154295e-09
4.324073e-05 -1.691559e-05 -1.191965e-07
4.320375e-05 -1.690261e-05 9.612645e-08
4.237131e-05 -1.657502e-05 -6.299492e-09
4.234710e-05 -1.657548e-05 1.148855e-08
4.322823e-05 -1.691071e-05 -1.182242e-07
4.319157e-05 -1.689782e-05 9.537005e-08
4.237139e-05 -1.657501e-05 -1.670818e-08
4.234656e-05 -1.657570e-05 2.231892e-08
4.317949e-05 -1.689307e-05 9.462878e-08
4.321592e-05 -1.690740e-05 -9.689817e-08
4.321585e-05 -1.690586e-05 -1.172702e-07
4.237256e-05 -1.657542e-05 -2.760501e-08
4.234711e-05 -1.657635e-05 3.364509e-08
4.316750e-05 -1.688835e-05 9.390259e-08
4.320363e-05 -1.690257e-05 -9.612660e-08
4.320356e-05 -1.690106e-05 -1.163344e-07
4.237488e-05 -1.657628e-05 -3.898914e-08
4.234882e-05 -1.657745e-05 4.546596e-08
4.318329e-05 -1.689398e-05 -1.168863e-07
4.315561e-05 -1.688368e-05 9.319139e-08
4.237839e-05 -1.657760e-05 -5.085869e-08
4.235174e-05 -1.657902e-05 5.777926e-08
4.317130e-05 -1.688927e-05 -1.159819e-07
4.314381e-05 -1.687904e-05 9.249503e-08
4.238317e-05 -1.657940e-05 -6.321011e-08
4.235593e-05 -1.658108e-05 7.058088e-08
4.316731e-05 -1.688689e-05 -1.136368e-07
4.313211e-05 -1.687443e-05 9.181329e-08
4.240568e-05 -1.658797e-05 -1.030753e-07
4.238926e-05 -1.658172e-05 -7.603740e-08
4.236146e-05 -1.658366e-05 8.386396e-08
4.315542e-05 -1.688224e-05 -1.127740e-07
4.312049e-05 -1.686986e-05 9.114582e-08
4.239674e-05 -1.658456e-05 -8.933089e-08
4.314363e-05 -1.687763e-05 -1.119293e-07
4.310896e-05 -1.686533e-05 9.049208e-08
4.241617e-05 -1.659198e-05 -1.172467e-07
4.313192e-05 -1.687306e-05 -1.111026e-07
4.309752e-05 -1.686083e-05 8.985128e-08
4.242830e-05 -1.659662e-05 -1.318075e-07
4.239878e-05 -1.659969e-05 1.414631e-07
4.312031e-05 -1.686852e-05 -1.102939e-07
4.308616e-05 -1.685636e-05 8.922234e-08
4.244217e-05 -1.660193e-05 -1.466980e-07
4.241265e-05 -1.660533e-05 1.567776e-07
4.310878e-05 -1.686401e-05 -1.095029e-07
4.307487e-05 -1.685193e-05 8.860365e-08
4.245789e-05 -1.660798e-05 -1.618227e-07
4.242886e-05 -1.661172e-05 1.722758e-07
4.309734e-05 -1.685954e-05 -1.087291e-07
4.306367e-05 -1.684753e-05 8.799307e-08
4.247553e-05 -1.661481e-05 -1.770305e-07
4.244777e-05 -1.661894e-05 1.877653e-07
4.308598e-05 -1.685510e-05 -1.079723e-07
4.305253e-05 -1.684316e-05 8.738765e-08
4.249514e-05 -1.662244e-05 -1.921106e-07
4.246943e-05 -1.662699e-05 2.030058e-07
4.307470e-05 -1.685069e-05 -1.072315e-07
4.304146e-05 -1.683882e-05 8.678346e-08
4.251667e-05 -1.663086e-05 -2.068450e-07
4.249346e-05 -1.663580e-05 2.177892e-07
4.306349e-05 -1.684631e-05 -1.065056e-07
4.303046e-05 -1.683452e-05 8.617556e-08
4.254002e-05 -1.664001e-05 -2.210682e-07
4.251949e-05 -1.664530e-05 2.319785e-07
4.305235e-05 -1.684196e-05 -1.057929e-07
4.301951e-05 -1.683025e-05 8.555815e-08
4.305241e-05 -1.684311e-05 -8.738802e-08
4.256506e-05 -1.664982e-05 -2.346726e-07
4.254727e-05 -1.665543e-05 2.454896e-07
4.304129e-05 -1.683763e-05 -1.050907e-07
4.300861e-05 -1.682601e-05 8.492626e-08
4.304135e-05 -1.683878e-05 -8.678388e-08
4.259166e-05 -1.666023e-05 -2.475899e-07
4.257660e-05 -1.666614e-05 2.582692e-07
4.303028e-05 -1.683333e-05 -1.043947e-07
4.299778e-05 -1.682182e-05 8.427694e-08
4.261969e-05 -1.667121e-05 -2.597758e-07
4.260731e-05 -1.667737e-05 2.702831e-07
4.298700e-05 -1.681766e-05 8.360633e-08
4.301933e-05 -1.682905e-05 -1.036981e-07
4.264905e-05 -1.668270e-05 -2.712011e-07
4.263929e-05 -1.668909e-05 2.815086e-07
4.297629e-05 -1.681354e-05 8.290868e-08
4.300844e-05 -1.682479e-05 -1.029908e-07
4.274400e-05 -1.671987e-05 -3.007419e-07
4.267961e-05 -1.669467e-05 -2.818457e-07
4.267242e-05 -1.670126e-05 2.919302e-07
4.299059e-05 -1.681850e-05 -1.036083e-07
4.296567e-05 -1.680946e-05 8.217865e-08
4.271130e-05 -1.670707e-05 -2.916960e-07
4.297973e-05 -1.681429e-05 -1.028094e-07
4.295513e-05 -1.680542e-05 8.141190e-08
4.277764e-05 -1.673304e-05 -3.089764e-07
4.297613e-05 -1.681214e-05 -1.006815e-07
4.294468e-05 -1.680141e-05 8.060513e-08
4.281212e-05 -1.674653e-05 -3.163941e-07
4.281455e-05 -1.675370e-05 3.254004e-07
4.296550e-05 -1.680798e-05 -9.982145e-08
4.293434e-05 -1.679746e-05 7.975591e-08
4.284736e-05 -1.676033e-05 -3.229907e-07
4.285206e-05 -1.676760e-05 3.316868e-07
4.295496e-05 -1.680386e-05 -9.890911e-08
4.292411e-05 -1.679354e-05 7.886247e-08
4.288327e-05 -1.677440e-05 -3.287628e-07
4.289019e-05 -1.678174e-05 3.371333e-07
4.294452e-05 -1.679977e-05 -9.794244e-08
4.291400e-05 -1.678967e-05 7.792359e-08
4.291977e-05 -1.678870e-05 -3.337072e-07
4.292886e-05 -1.679610e-05 3.417371e-07
4.293418e-05 -1.679572e-05 -9.692013e-08
4.290401e-05 -1.678586e-05 7.693839e-08
4.295678e-05 -1.680320e-05 -3.378212e-07
4.296799e-05 -1.681065e-05 3.454954e-07
4.292395e-05 -1.679172e-05 -9.584134e-08
4.289415e-05 -1.678209e-05 7.590631e-08
4.299420e-05 -1.681787e-05 -3.411022e-07
4.300749e-05 -1.682535e-05 3.484055e-07
4.291384e-05 -1.678776e-05 -9.470554e-08
4.288443e-05 -1.677838e-05 7.482697e-08
4.303195e-05 -1.683268e-05 -3.435474e-07
4.304729e-05 -1.684016e-05 3.504647e-07
4.290385e-05 -1.678385e-05 -9.351239e-08
4.287485e-05 -1.677472e-05 7.370014e-08
4.306996e-05 -1.684759e-05 -3.451543e-07
4.308729e-05 -1.685507e-05 3.516701e-07
4.289400e-05 -1.677999e-05 -9.226171e-08
4.286542e-05 -1.677112e-05 7.252571e-08
4.289404e-05 -1.678205e-05 -7.590720e-08
4.310812e-05 -1.686257e-05 -3.459200e-07
4.312740e-05 -1.687002e-05 3.520191e-07
4.288428e-05 -1.677619e-05 -9.095338e-08
4.285615e-05 -1.676758e-05 7.130359e-08
4.288432e-05 -1.677834e-05 -7.482787e-08
4.314636e-05 -1.687759e-05 -3.458418e-07
4.316755e-05 -1.688499e-05 3.515087e-07
4.287470e-05 -1.677244e-05 -8.958736e-08
4.284703e-05 -1.676411e-05 7.003378e-08
4.318458e-05 -1.689260e-05 -3.449168e-07
4.320764e-05 -1.689995e-05 3.501359e-07
4.286527e-05 -1.676875e-05 -8.816365e-08
4.283808e-05 -1.676070e-05 6.871627e-08
4.322269e-05 -1.690758e-05 -3.431422e-07
4.324758e-05 -1.691485e-05 3.478979e-07
4.285600e-05 -1.676512e-05 -8.668226e-08
4.282930e-05 -1.675736e-05 6.735109e-08
4.328729e-05 -1.692967e-05 3.447916e-07
4.326061e-05 -1.692250e-05 -3.405149e-07
4.282070e-05 -1.675408e-05 6.593826e-08
4.284688e-05 -1.676155e-05 -8.514323e-08
4.337231e-05 -1.696646e-05 -3.274874e-07
4.329825e-05 -1.693730e-05 -3.370320e-07
4.281229e-05 -1.675088e-05 6.447779e-08
4.283793e-05 -1.675805e-05 -8.354659e-08
4.333551e-05 -1.695197e-05 -3.326905e-07
4.282093e-05 -1.675302e-05 -8.242904e-08
4.280406e-05 -1.674775e-05 6.296968e-08
4.340855e-05 -1.698074e-05 -3.214198e-07
4.344195e-05 -1.698735e-05 3.236232e-07
4.281229e-05 -1.674969e-05 -8.065932e-08
4.279603e-05 -1.674470e-05 6.141395e-08
4.344414e-05 -1.699477e-05 -3.144847e-07
4.347912e-05 -1.700119e-05 3.161306e-07
4.281215e-05 -1.674796e-05 -7.841139e-08
4.278820e-05 -1.674173e-05 5.981058e-08
4.347898e-05 -1.700851e-05 -3.066794e-07
4.351551e-05 -1.701473e-05 3.077523e-07
4.280392e-05 -1.674475e-05 -7.658466e-08
4.278058e-05 -1.673884e-05 5.815954e-08
4.351298e-05 -1.702193e-05 -2.980014e-07
4.355101e-05 -1.702793e-05 2.984858e-07
4.279590e-05 -1.674161e-05 -7.470047e-08
4.277317e-05 -1.673603e-05 5.646079e-08
4.354606e-05 -1.703499e-05 -2.884484e-07
4.358555e-05 -1.704075e-05 2.883291e-07
4.278807e-05 -1.673854e-05 -7.275881e-08
4.276598e-05 -1.673331e-05 5.471428e-08
4.357810e-05 -1.704766e-05 -2.780186e-07
4.361903e-05 -1.705316e-05 2.772805e-07
4.278045e-05 -1.673556e-05 -7.075967e-08
4.275902e-05 -1.673068e-05 5.291995e-08
4.360902e-05 -1.705989e-05 -2.667108e-07
4.365135e-05 -1.706511e-05 2.653393e-07
4.277304e-05 -1.673266e-05 -6.870305e-08
4.275228e-05 -1.672813e-05 5.107774e-08
4.277307e-05 -1.673599e-05 -5.646175e-08
4.363873e-05 -1.707164e-05 -2.545248e-07
4.368241e-05 -1.707658e-05 2.525056e-07
4.276585e-05 -1.672985e-05 -6.658892e-08
4.274578e-05 -1.672568e-05 4.918762e-08
4.276588e-05 -1.673327e-05 -5.471524e-08
4.366710e-05 -1.708288e-05 -2.414619e-07
4.371212e-05 -1.708752e-05 2.387810e-07
4.275889e-05 -1.672712e-05 -6.441723e-08
4.273952e-05 -1.672332e-05 4.724956e-08
4.369406e-05 -1.709357e-05 -2.275250e-07
4.374038e-05 -1.709789e-05 2.241696e-07
4.275215e-05 -1.672449e-05 -6.218794e-08
4.273351e-05 -1.672106e-05 4.526362e-08
4.378538e-05 -1.712990e-05 -1.632330e-07
4.371948e-05 -1.710366e-05 -2.127202e-07
4.376707e-05 -1.710764e-05 2.086784e-07
4.274566e-05 -1.672195e-05 -5.990101e-08
4.272775e-05 -1.671890e-05 4.322995e-08
4.374326e-05 -1.711312e-05 -1.970576e-07
4.379207e-05 -1.711675e-05 1.923191e-07
4.273940e-05 -1.671950e-05 -5.755638e-08
4.272225e-05 -1.671684e-05 4.114886e-08
4.376527e-05 -1.712188e-05 -1.805534e-07
4.273339e-05 -1.671715e-05 -5.515403e-08
4.271701e-05 -1.671489e-05 3.902093e-08
4.380345e-05 -1.713713e-05 -1.451357e-07
4.271205e-05 -1.671303e-05 3.684705e-08
4.272763e-05 -1.671489e-05 -5.269395e-08
4.381932e-05 -1.714349e-05 -1.263235e-07
4.387195e-05 -1.714554e-05 1.187857e-07
4.270737e-05 -1.671129e-05 3.462867e-08
4.272213e-05 -1.671274e-05 -5.017620e-08
4.383284e-05 -1.714891e-05 -1.068955e-07
4.388566e-05 -1.715049e-05 9.871762e-08
4.270833e-05 -1.670984e-05 -4.709417e-08
4.270296e-05 -1.670965e-05 3.236792e-08
4.384385e-05 -1.715331e-05 -8.701026e-08
4.389604e-05 -1.715438e-05 7.828323e-08
4.270336e-05 -1.670795e-05 -4.438864e-08
4.269886e-05 -1.670813e-05 3.006793e-08
4.385225e-05 -1.715664e-05 -6.690872e-08
4.390277e-05 -1.715714e-05 5.777406e-08
4.270725e-05 -1.670691e-05 -4.227915e-08
4.269505e-05 -1.670672e-05 2.773315e-08
4.385802e-05 -1.715888e-05 -4.688007e-08
4.390612e-05 -1.715881e-05 3.748780e-08
4.270286e-05 -1.670519e-05 -3.953402e-08
4.269156e-05 -1.670542e-05 2.536980e-08
4.386124e-05 -1.716008e-05 -2.717340e-08
4.390657e-05 -1.715949e-05 1.764055e-08
4.269875e-05 -1.670358e-05 -3.673432e-08
4.268839e-05 -1.670423e-05 2.298641e-08
4.386205e-05 -1.716032e-05 -7.955925e-09
4.390448e-05 -1.715925e-05 -1.635674e-09
4.269494e-05 -1.670208e-05 -3.388209e-08
4.268556e-05 -1.670316e-05 2.059443e-08
4.386060e-05 -1.715967e-05 1.066737e-08
4.390011e-05 -1.715815e-05 -2.025943e-08
4.269145e-05 -1.670071e-05 -3.098044e-08
4.268308e-05 -1.670221e-05 1.820874e-08
4.385703e-05 -1.715818e-05 2.863006e-08
4.389366e-05 -1.715626e-05 -3.817954e-08
4.268828e-05 -1.669946e-05 -2.803410e-08
4.268097e-05 -1.670136e-05 1.584749e-08
4.385146e-05 -1.715591e-05 4.588932e-08
4.388527e-05 -1.715362e-05 -5.536318e-08
4.268545e-05 -1.669835e-05 -2.505038e-08
4.267924e-05 -1.670062e-05 1.352954e-08
4.381149e-05 -1.713990e-05 1.074551e-07
4.384402e-05 -1.715290e-05 6.241704e-08
4.387508e-05 -1.715028e-05 -7.178904e-08
4.268298e-05 -1.669737e-05 -2.204071e-08
4.267789e-05 -1.669997e-05 1.126695e-08
4.383481e-05 -1.714921e-05 7.819468e-08
4.386320e-05 -1.714627e-05 -8.744313e-08
4.268087e-05 -1.669654e-05 -1.902320e-08
4.267692e-05 -1.669942e-05 9.069775e-09
4.382394e-05 -1.714486e-05 9.321001e-08
4.267914e-05 -1.669586e-05 -1.602639e-08
4.267630e-05 -1.669896e-05 6.955054e-09
4.379757e-05 -1.713436e-05 1.209249e-07
4.383473e-05 -1.713642e-05 -1.164030e-07
4.267779e-05 -1.669534e-05 -1.309065e-08
4.267599e-05 -1.669860e-05 4.941799e-09
4.378227e-05 -1.712828e-05 1.336165e-07
4.380060e-05 -1.712434e-05 -1.422040e-07
4.267682e-05 -1.669498e-05 -1.025877e-08
4.267597e-05 -1.669834e-05 3.046146e-09
4.376566e-05 -1.712169e-05 1.455285e-07
4.378162e-05 -1.711755e-05 -1.539156e-07
4.267620e-05 -1.669475e-05 -7.563811e-09
4.267621e-05 -1.669816e-05 1.280747e-09
4.374783e-05 -1.711463e-05 1.566603e-07
4.376148e-05 -1.711030e-05 -1.648343e-07
4.267589e-05 -1.669465e-05 -5.027234e-09
4.267668e-05 -1.669806e-05 -3.448717e-10
4.372887e-05 -1.710712e-05 1.670121e-07
4.374025e-05 -1.710263e-05 -1.749605e-07
4.267736e-05 -1.669804e-05 -1.823704e-09
4.267587e-05 -1.669830e-05 -3.045274e-09
4.267587e-05 -1.669466e-05 -2.662520e-09
4.370886e-05 -1.709920e-05 1.765845e-07
4.371802e-05 -1.709457e-05 -1.842951e-07
4.267611e-05 -1.669477e-05 -4.782434e-10
4.267822e-05 -1.669808e-05 -3.150699e-09
4.267611e-05 -1.669812e-05 -1.279772e-09
4.368789e-05 -1.709091e-05 1.853786e-07
4.369488e-05 -1.708614e-05 -1.928392e-07
4.267264e-05 -1.669519e-05 2.545938e-09
4.267924e-05 -1.669819e-05 -4.322277e-09
4.366604e-05 -1.708228e-05 1.933955e-07
4.367089e-05 -1.707739e-05 -2.005940e-07
4.267726e-05 -1.669526e-05 3.328735e-09
4.268040e-05 -1.669834e-05 -5.335959e-09
4.364339e-05 -1.707334e-05 2.006367e-07
4.364616e-05 -1.706835e-05 -2.075610e-07
4.267812e-05 -1.669561e-05 4.945405e-09
4.268168e-05 -1.669854e-05 -6.190053e-09
4.362003e-05 -1.706412e-05 2.071035e-07
4.362076e-05 -1.705905e-05 -2.137418e-07
4.267914e-05 -1.669603e-05 6.368489e-09
4.268306e-05 -1.669878e-05 -6.883456e-09
4.359603e-05 -1.705465e-05 2.127976e-07
4.359477e-05 -1.704952e-05 -2.191379e-07
4.268030e-05 -1.669649e-05 7.596963e-09
4.268451e-05 -1.669905e-05 -7.415448e-09
4.357149e-05 -1.704498e-05 2.177206e-07
4.356827e-05 -1.703980e-05 -2.237509e-07
4.268158e-05 -1.669701e-05 8.630177e-09
4.268601e-05 -1.669934e-05 -7.785612e-09
4.354648e-05 -1.703513e-05 2.218740e-07
4.354135e-05 -1.702991e-05 -2.275826e-07
4.268295e-05 -1.669756e-05 9.467736e-09
4.268755e-05 -1.669964e-05 -7.993703e-09
4.346948e-05 -1.700481e-05 2.297341e-07
4.352109e-05 -1.702512e-05 2.252597e-07
4.351409e-05 -1.701989e-05 -2.306346e-07
4.268440e-05 -1.669814e-05 1.010941e-08
4.268911e-05 -1.669995e-05 -8.039592e-09
4.349540e-05 -1.701501e-05 2.278791e-07
4.268591e-05 -1.669874e-05 1.055507e-08
4.269066e-05 -1.670026e-05 -7.923231e-09
4.344343e-05 -1.699456e-05 2.308263e-07
4.268745e-05 -1.669936e-05 1.080466e-08
4.269218e-05 -1.670055e-05 -7.644590e-09
4.341731e-05 -1.698429e-05 2.311574e-07
4.340325e-05 -1.697915e-05 -2.350803e-07
4.268900e-05 -1.669998e-05 1.085817e-08
4.269366e-05 -1.670083e-05 -7.203668e-09
4.339122e-05 -1.697404e-05 2.307289e-07
4.337549e-05 -1.696895e-05 -2.342597e-07
4.269055e-05 -1.670060e-05 1.071559e-08
4.269507e-05 -1.670109e-05 -6.600451e-09
4.336522e-05 -1.696382e-05 2.295426e-07
4.334786e-05 -1.695881e-05 -2.326696e-07
4.269207e-05 -1.670120e-05 1.037692e-08
4.269639e-05 -1.670130e-05 -5.834901e-09
4.333941e-05 -1.695368e-05 2.276002e-07
4.332045e-05 -1.694876e-05 -2.303120e-07
4.269355e-05 -1.670180e-05 9.842169e-09
4.269761e-05 -1.670148e-05 -4.906966e-09
4.331385e-05 -1.694365e-05 2.249035e-07
4.329333e-05 -1.693882e-05 -2.271887e-07
4.269870e-05 -1.670161e-05 -3.816562e-09
4.269496e-05 -1.670236e-05 9.111325e-09
4.328863e-05 -1.693374e-05 2.214546e-07
4.326659e-05 -1.692903e-05 -2.233019e-07
4.269628e-05 -1.670289e-05 8.184368e-09
4.269965e-05 -1.670168e-05 -2.563583e-09
4.326382e-05 -1.692401e-05 2.172557e-07
4.324029e-05 -1.691943e-05 -2.186541e-07
4.270106e-05 -1.670353e-05 6.588048e-09
4.270042e-05 -1.670168e-05 -1.147894e-09
4.323951e-05 -1.691446e-05 2.123097e-07
4.321451e-05 -1.691003e-05 -2.132484e-07
4.269859e-05 -1.670382e-05 5.741954e-09
4.270101e-05 -1.670161e-05 4.306556e-10
4.321578e-05 -1.690515e-05 2.066205e-07
4.318934e-05 -1.690087e-05 -2.070889e-07
4.269953e-05 -1.670420e-05 4.226376e-09
4.270139e-05 -1.670146e-05 2.172204e-09
4.319271e-05 -1.689609e-05 2.001928e-07
4.316487e-05 -1.689198e-05 -2.001809e-07
4.270031e-05 -1.670452e-05 2.514441e-09
4.270155e-05 -1.670122e-05 4.076873e-09
4.317038e-05 -1.688733e-05 1.930336e-07
4.314116e-05 -1.688339e-05 -1.925322e-07
4.270090e-05 -1.670476e-05 6.060542e-10
4.270145e-05 -1.670088e-05 6.144693e-09
4.310878e-05 -1.686313e-05 1.672882e-07
4.314889e-05 -1.687889e-05 1.851527e-07
4.311834e-05 -1.687514e-05 -1.841535e-07
4.270128e-05 -1.670492e-05 -1.498894e-09
4.270109e-05 -1.670044e-05 8.375561e-09
4.312832e-05 -1.687081e-05 1.765640e-07
4.270143e-05 -1.670500e-05 -3.800505e-09
4.270044e-05 -1.669988e-05 1.076913e-08
4.309038e-05 -1.685590e-05 1.573566e-07
4.270134e-05 -1.670497e-05 -6.298873e-09
4.269949e-05 -1.669921e-05 1.332470e-08
4.307323e-05 -1.684915e-05 1.468178e-07
4.303834e-05 -1.684632e-05 -1.438177e-07
4.270098e-05 -1.670485e-05 -8.994040e-09
4.269820e-05 -1.669840e-05 1.604095e-08
4.305744e-05 -1.684296e-05 1.357484e-07
4.302212e-05 -1.684041e-05 -1.322965e-07
4.270033e-05 -1.670461e-05 -1.188598e-08
4.269657e-05 -1.669747e-05 1.891576e-08
4.304310e-05 -1.683735e-05 1.242681e-07
4.300796e-05 -1.683513e-05 -1.204323e-07
4.269937e-05 -1.670425e-05 -1.497450e-08
4.269456e-05 -1.669638e-05 2.194581e-08
4.269937e-05 -1.669917e-05 -1.332340e-08
4.303028e-05 -1.683237e-05 1.125390e-07
4.299590e-05 -1.683048e-05 -1.084061e-07
4.269809e-05 -1.670376e-05 -1.825924e-08
4.269216e-05 -1.669515e-05 2.512607e-08
4.269809e-05 -1.669836e-05 -1.603974e-08
4.301897e-05 -1.682799e-05 1.007227e-07
4.298566e-05 -1.682644e-05 -9.636779e-08
4.269645e-05 -1.670313e-05 -2.173943e-08
4.268934e-05 -1.669377e-05 2.844922e-08
4.300911e-05 -1.682419e-05 8.893726e-08
4.297702e-05 -1.682295e-05 -8.441268e-08
4.268607e-05 -1.669222e-05 3.190474e-08
4.269444e-05 -1.670236e-05 -2.541383e-08
4.300065e-05 -1.682094e-05 7.725733e-08
4.296982e-05 -1.681999e-05 -7.259853e-08
4.268233e-05 -1.669050e-05 3.547790e-08
4.269204e-05 -1.670144e-05 -2.928040e-08
4.299352e-05 -1.681821e-05 6.572939e-08
4.296395e-05 -1.681752e-05 -6.096075e-08
4.269763e-05 -1.669956e-05 -3.597672e-08
4.267807e-05 -1.668861e-05 3.914839e-08
4.298767e-05 -1.681597e-05 5.438259e-08
4.295934e-05 -1.681554e-05 -4.952130e-08
4.269464e-05 -1.669822e-05 -4.038203e-08
4.267326e-05 -1.668654e-05 4.288872e-08
4.298304e-05 -1.681420e-05 4.323543e-08
4.295593e-05 -1.681401e-05 -3.829394e-08
4.268220e-05 -1.669765e-05 -4.199257e-08
4.266787e-05 -1.668430e-05 4.666272e-08
4.297613e-05 -1.681160e-05 1.108959e-08
4.297960e-05 -1.681290e-05 3.229971e-08
4.295367e-05 -1.681293e-05 -2.728726e-08
4.267794e-05 -1.669601e-05 -4.657539e-08
4.266183e-05 -1.668189e-05 5.042478e-08
4.297731e-05 -1.681203e-05 2.158290e-08
4.267314e-05 -1.669415e-05 -5.130764e-08
4.265511e-05 -1.667932e-05 5.412264e-08
4.297604e-05 -1.681159e-05 8.224572e-10
4.266773e-05 -1.669206e-05 -5.616373e-08
4.264768e-05 -1.667662e-05 5.771370e-08
4.297701e-05 -1.681199e-05 -9.217097e-09
4.295551e-05 -1.681284e-05 1.445479e-08
4.266169e-05 -1.668971e-05 -6.110348e-08
4.263955e-05 -1.667378e-05 6.117192e-08
4.297902e-05 -1.681278e-05 -1.902852e-08
4.295857e-05 -1.681383e-05 2.431211e-08
4.265497e-05 -1.668709e-05 -6.606323e-08
4.263078e-05 -1.667082e-05 6.446083e-08
4.298203e-05 -1.681398e-05 -2.861179e-08
4.296261e-05 -1.681520e-05 3.393786e-08
4.264753e-05 -1.668417e-05 -7.094695e-08
4.262142e-05 -1.666771e-05 6.752853e-08
4.298603e-05 -1.681555e-05 -3.796724e-08
4.296762e-05 -1.681695e-05 4.333249e-08
4.263940e-05 -1.668095e-05 -7.563711e-08
4.261157e-05 -1.666447e-05 7.032743e-08
4.299100e-05 -1.681750e-05 -4.709537e-08
4.297359e-05 -1.681907e-05 5.249654e-08
4.263062e-05 -1.667746e-05 -8.002952e-08
4.260130e-05 -1.666112e-05 7.281926e-08
4.299690e-05 -1.681982e-05 -5.599677e-08
4.298047e-05 -1.682156e-05 6.143061e-08
4.262127e-05 -1.667375e-05 -8.405299e-08
4.259068e-05 -1.665765e-05 7.497483e-08
4.300373e-05 -1.682249e-05 -6.467208e-08
4.298826e-05 -1.682439e-05 7.013530e-08
4.261142e-05 -1.666984e-05 -8.766271e-08
4.257977e-05 -1.665410e-05 7.677259e-08
4.301145e-05 -1.682551e-05 -7.312190e-08
4.299694e-05 -1.682757e-05 7.861115e-08
4.260114e-05 -1.666577e-05 -9.083053e-08
4.256864e-05 -1.665047e-05 7.819697e-08
4.302004e-05 -1.682887e-05 -8.134678e-08
4.300647e-05 -1.683109e-05 8.685866e-08
4.255735e-05 -1.664679e-05 7.923699e-08
4.259052e-05 -1.666156e-05 -9.353855e-08
4.302948e-05 -1.683257e-05 -8.934722e-08
4.301684e-05 -1.683493e-05 9.487829e-08
4.254595e-05 -1.664307e-05 7.988508e-08
4.257961e-05 -1.665724e-05 -9.577525e-08
4.303976e-05 -1.683658e-05 -9.712366e-08
4.302803e-05 -1.683910e-05 1.026704e-07
4.256595e-05 -1.665058e-05 -1.000526e-07
4.253450e-05 -1.663934e-05 8.013618e-08
4.307532e-05 -1.685049e-05 -1.191123e-07
4.305084e-05 -1.684092e-05 -1.046765e-07
4.304002e-05 -1.684357e-05 1.102353e-07
4.255343e-05 -1.664611e-05 -1.011006e-07
4.252305e-05 -1.663561e-05 7.998707e-08
4.306270e-05 -1.684555e-05 -1.120059e-07
4.305277e-05 -1.684834e-05 1.175733e-07
4.254579e-05 -1.664389e-05 -9.959643e-08
4.251165e-05 -1.663190e-05 7.943580e-08
4.308868e-05 -1.685571e-05 -1.259957e-07
4.253434e-05 -1.663937e-05 -9.989708e-08
4.250036e-05 -1.662824e-05 7.848132e-08
4.310276e-05 -1.686121e-05 -1.326563e-07
4.309544e-05 -1.686439e-05 1.382272e-07
4.252289e-05 -1.663486e-05 -9.970912e-08
4.248922e-05 -1.662463e-05 7.712322e-08
4.311753e-05 -1.686699e-05 -1.390942e-07
4.311106e-05 -1.687028e-05 1.446588e-07
4.251150e-05 -1.663037e-05 -9.903233e-08
4.247828e-05 -1.662110e-05 7.536143e-08
4.313297e-05 -1.687302e-05 -1.453094e-07
4.312734e-05 -1.687643e-05 1.508639e-07
4.250021e-05 -1.662592e-05 -9.786681e-08
4.246759e-05 -1.661768e-05 7.319615e-08
4.314906e-05 -1.687931e-05 -1.513018e-07
4.314426e-05 -1.688284e-05 1.568424e-07
4.248907e-05 -1.662153e-05 -9.621293e-08
4.245721e-05 -1.661437e-05 7.062766e-08
4.248913e-05 -1.662460e-05 -7.712838e-08
4.316578e-05 -1.688585e-05 -1.570715e-07
4.316178e-05 -1.688948e-05 1.625943e-07
4.247813e-05 -1.661723e-05 -9.407116e-08
4.244718e-05 -1.661120e-05 6.765631e-08
4.247819e-05 -1.662107e-05 -7.536662e-08
4.318310e-05 -1.689262e-05 -1.626182e-07
4.317991e-05 -1.689635e-05 1.681195e-07
4.246745e-05 -1.661302e-05 -9.144200e-08
4.243755e-05 -1.660819e-05 6.428240e-08
4.320100e-05 -1.689961e-05 -1.679419e-07
4.319860e-05 -1.690344e-05 1.734178e-07
4.245708e-05 -1.660894e-05 -8.832600e-08
4.242838e-05 -1.660535e-05 6.050619e-08
4.321946e-05 -1.690683e-05 -1.730425e-07
4.321783e-05 -1.691075e-05 1.784890e-07
4.244705e-05 -1.660499e-05 -8.472364e-08
4.241970e-05 -1.660271e-05 5.632785e-08
4.323845e-05 -1.691426e-05 -1.779197e-07
4.323759e-05 -1.691827e-05 1.833329e-07
4.243743e-05 -1.660120e-05 -8.063536e-08
4.241157e-05 -1.660029e-05 5.174741e-08
4.325795e-05 -1.692188e-05 -1.825733e-07
4.325786e-05 -1.692598e-05 1.879494e-07
4.242826e-05 -1.659759e-05 -7.606152e-08
4.240405e-05 -1.659810e-05 4.676483e-08
4.327794e-05 -1.692970e-05 -1.870032e-07
4.327859e-05 -1.693388e-05 1.923382e-07
4.239717e-05 -1.659616e-05 4.137991e-08
4.241959e-05 -1.659418e-05 -7.100238e-08
4.334063e-05 -1.695421e-05 -1.989480e-07
4.329840e-05 -1.693770e-05 -1.912091e-07
4.329979e-05 -1.694195e-05 1.964990e-07
4.239099e-05 -1.659450e-05 3.559237e-08
4.241147e-05 -1.659098e-05 -6.545812e-08
4.331930e-05 -1.694588e-05 -1.951907e-07
4.332141e-05 -1.695020e-05 2.004317e-07
4.238544e-05 -1.658697e-05 -5.732276e-08
4.238556e-05 -1.659313e-05 2.940184e-08
4.336234e-05 -1.696271e-05 -2.024807e-07
4.237780e-05 -1.658442e-05 -5.045104e-08
4.238092e-05 -1.659207e-05 2.280787e-08
4.338443e-05 -1.697135e-05 -2.057889e-07
4.338865e-05 -1.697586e-05 2.108596e-07
4.239091e-05 -1.658286e-05 -4.591463e-08
4.237713e-05 -1.659134e-05 1.581007e-08
4.340687e-05 -1.698013e-05 -2.088726e-07
4.341176e-05 -1.698469e-05 2.138789e-07
4.238548e-05 -1.658071e-05 -3.842931e-08
4.237423e-05 -1.659096e-05 8.408150e-09
4.342963e-05 -1.698904e-05 -2.117323e-07
4.343518e-05 -1.699365e-05 2.166706e-07
4.238085e-05 -1.657887e-05 -3.045801e-08
4.237227e-05 -1.659095e-05 6.020840e-10
4.345270e-05 -1.699806e-05 -2.143688e-07
4.345889e-05 -1.700272e-05 2.192359e-07
4.237706e-05 -1.657736e-05 -2.200023e-08
4.237131e-05 -1.659133e-05 -7.607642e-09
4.347604e-05 -1.700720e-05 -2.167836e-07
4.348286e-05 -1.701189e-05 2.215768e-07
4.237416e-05 -1.657620e-05 -1.305542e-08
4.237139e-05 -1.659211e-05 -1.621973e-08
4.349963e-05 -1.701643e-05 -2.189786e-07
4.350706e-05 -1.702116e-05 2.236951e-07
4.237221e-05 -1.657541e-05 -3.623026e-09
4.237256e-05 -1.659331e-05 -2.523166e-08
4.237221e-05 -1.659093e-05 -6.071874e-10
4.352346e-05 -1.702576e-05 -2.209553e-07
4.353148e-05 -1.703052e-05 2.255919e-07
4.237125e-05 -1.657499e-05 6.297416e-09
4.237488e-05 -1.659496e-05 -3.463904e-08
4.237125e-05 -1.659131e-05 7.602650e-09
4.354750e-05 -1.703517e-05 -2.227144e-07
4.355610e-05 -1.703995e-05 2.272679e-07
4.237133e-05 -1.657499e-05 1.670616e-08
4.237840e-05 -1.659707e-05 -4.443484e-08
4.357172e-05 -1.704465e-05 -2.242562e-07
4.358089e-05 -1.704946e-05 2.287231e-07
4.237250e-05 -1.657540e-05 2.760307e-08
4.238318e-05 -1.659965e-05 -5.460832e-08
4.359611e-05 -1.705420e-05 -2.255809e-07
4.360584e-05 -1.705902e-05 2.299575e-07
4.237482e-05 -1.657626e-05 3.898731e-08
4.238928e-05 -1.660273e-05 -6.514361e-08
4.362065e-05 -1.706381e-05 -2.266881e-07
4.363093e-05 -1.706864e-05 2.309708e-07
4.237834e-05 -1.657758e-05 5.085697e-08
4.239678e-05 -1.660632e-05 -7.601787e-08
4.369488e-05 -1.709288e-05 -2.287026e-07
4.364530e-05 -1.707346e-05 -2.275778e-07
4.365612e-05 -1.707830e-05 2.317626e-07
4.238311e-05 -1.657938e-05 6.320854e-08
4.240573e-05 -1.661043e-05 -8.719897e-08
4.367005e-05 -1.708316e-05 -2.282494e-07
4.241624e-05 -1.661509e-05 -9.864264e-08
4.238921e-05 -1.658170e-05 7.603600e-08
4.371976e-05 -1.710263e-05 -2.289369e-07
4.242839e-05 -1.662029e-05 -1.102893e-07
4.239669e-05 -1.658454e-05 8.932967e-08
4.374467e-05 -1.711238e-05 -2.289520e-07
4.375753e-05 -1.711721e-05 2.327074e-07
4.237684e-05 -1.659046e-05 1.118234e-07
4.244228e-05 -1.662604e-05 -1.220618e-07
4.376958e-05 -1.712214e-05 -2.287472e-07
4.378292e-05 -1.712696e-05 2.323856e-07
4.238691e-05 -1.659475e-05 1.264538e-07
4.245803e-05 -1.663232e-05 -1.338661e-07
4.379447e-05 -1.713190e-05 -2.283221e-07
4.380829e-05 -1.713670e-05 2.318396e-07
4.242825e-05 -1.659660e-05 1.318069e-07
4.247570e-05 -1.663911e-05 -1.456076e-07
4.381932e-05 -1.714164e-05 -2.276762e-07
4.383360e-05 -1.714641e-05 2.310690e-07
4.244212e-05 -1.660191e-05 1.466977e-07
4.249535e-05 -1.664639e-05 -1.572282e-07
4.384411e-05 -1.715135e-05 -2.268091e-07
4.385883e-05 -1.715610e-05 2.300731e-07
4.245784e-05 -1.660796e-05 1.618227e-07
4.251692e-05 -1.665416e-05 -1.686747e-07
4.245798e-05 -1.663230e-05 1.338665e-07
4.386880e-05 -1.716104e-05 -2.257201e-07
4.388396e-05 -1.716575e-05 2.288516e-07
4.247548e-05 -1.661479e-05 1.770308e-07
4.254031e-05 -1.666244e-05 -1.798563e-07
4.247566e-05 -1.663909e-05 1.456088e-07
4.389338e-05 -1.717067e-05 -2.244088e-07
4.390897e-05 -1.717535e-05 2.274039e-07
4.249509e-05 -1.662242e-05 1.921113e-07
4.256538e-05 -1.667124e-05 -1.906753e-07
4.391783e-05 -1.718026e-05 -2.228748e-07
4.393383e-05 -1.718489e-05 2.257295e-07
4.251663e-05 -1.663084e-05 2.068460e-07
4.259202e-05 -1.668055e-05 -2.010492e-07
4.394211e-05 -1.718978e-05 -2.211174e-07
4.395851e-05 -1.719437e-05 2.238279e-07
4.253997e-05 -1.663999e-05 2.210694e-07
4.262009e-05 -1.669035e-05 -2.109130e-07
4.396620e-05 -1.719923e-05 -2.191363e-07
4.398300e-05 -1.720376e-05 2.216987e-07
4.256501e-05 -1.664979e-05 2.346740e-07
4.264948e-05 -1.670063e-05 -2.202174e-07
4.403712e-05 -1.722705e-05 -2.118456e-07
4.399009e-05 -1.720860e-05 -2.169309e-07
4.400726e-05 -1.721308e-05 2.193414e-07
4.259160e-05 -1.666021e-05 2.475915e-07
4.268008e-05 -1.671134e-05 -2.289256e-07
4.401374e-05 -1.721788e-05 -2.145009e-07
4.261964e-05 -1.667119e-05 2.597776e-07
4.271180e-05 -1.672247e-05 -2.370108e-07
4.406023e-05 -1.723612e-05 -2.089647e-07
4.264899e-05 -1.668268e-05 2.712031e-07
4.274453e-05 -1.673399e-05 -2.444532e-07
4.408302e-05 -1.724507e-05 -2.058577e-07
4.410160e-05 -1.724927e-05 2.076219e-07
4.277820e-05 -1.674586e-05 -2.512387e-07
4.267955e-05 -1.669464e-05 2.818479e-07
4.410548e-05 -1.725388e-05 -2.025242e-07
4.412438e-05 -1.725800e-05 2.041172e-07
4.281270e-05 -1.675806e-05 -2.573571e-07
4.271124e-05 -1.670704e-05 2.916982e-07
4.412759e-05 -1.726256e-05 -1.989637e-07
4.414679e-05 -1.726659e-05 2.003817e-07
4.274173e-05 -1.672679e-05 3.103214e-07
4.284796e-05 -1.677055e-05 -2.628010e-07
4.414930e-05 -1.727109e-05 -1.951759e-07
4.416881e-05 -1.727503e-05 1.964150e-07
4.277775e-05 -1.674009e-05 3.182773e-07
4.288390e-05 -1.678330e-05 -2.675650e-07
4.417061e-05 -1.727946e-05 -1.911603e-07
4.419040e-05 -1.728330e-05 1.922168e-07
4.281205e-05 -1.674651e-05 3.163966e-07
4.292041e-05 -1.679629e-05 -2.716450e-07
4.419149e-05 -1.728766e-05 -1.869165e-07
4.421155e-05 -1.729140e-05 1.877867e-07
4.284729e-05 -1.676030e-05 3.229933e-07
4.295743e-05 -1.680948e-05 -2.750378e-07
4.421191e-05 -1.729568e-05 -1.824443e-07
4.423223e-05 -1.729932e-05 1.831243e-07
4.288320e-05 -1.677437e-05 3.287653e-07
4.299487e-05 -1.682283e-05 -2.777409e-07
4.423184e-05 -1.730351e-05 -1.777433e-07
4.425242e-05 -1.730704e-05 1.782295e-07
4.291970e-05 -1.678867e-05 3.337098e-07
4.303263e-05 -1.683632e-05 -2.797520e-07
4.425126e-05 -1.731114e-05 -1.728134e-07
4.427208e-05 -1.731456e-05 1.731021e-07
4.295670e-05 -1.680317e-05 3.378238e-07
4.307064e-05 -1.684990e-05 -2.810689e-07
4.427015e-05 -1.731857e-05 -1.676544e-07
4.429120e-05 -1.732186e-05 1.677421e-07
4.299412e-05 -1.681784e-05 3.411048e-07
4.310880e-05 -1.686355e-05 -2.816896e-07
4.428848e-05 -1.732577e-05 -1.622666e-07
4.430975e-05 -1.732894e-05 1.621497e-07
4.303187e-05 -1.683264e-05 3.435500e-07
4.314704e-05 -1.687724e-05 -2.816120e-07
4.433983e-05 -1.734597e-05 -1.447366e-07
4.430622e-05 -1.733275e-05 -1.566504e-07
4.432771e-05 -1.733579e-05 1.563255e-07
4.306987e-05 -1.684755e-05 3.451568e-07
4.318525e-05 -1.689091e-05 -2.808340e-07
4.432334e-05 -1.733949e-05 -1.508066e-07
4.310803e-05 -1.686253e-05 3.459225e-07
4.322336e-05 -1.690455e-05 -2.793533e-07
4.435564e-05 -1.735220e-05 -1.384429e-07
4.314626e-05 -1.687755e-05 3.458442e-07
4.326127e-05 -1.691812e-05 -2.771676e-07
4.437074e-05 -1.735815e-05 -1.319291e-07
4.439297e-05 -1.736063e-05 1.307435e-07
4.318448e-05 -1.689256e-05 3.449193e-07
4.329890e-05 -1.693158e-05 -2.742747e-07
4.438512e-05 -1.736381e-05 -1.252012e-07
4.440748e-05 -1.736615e-05 1.237960e-07
4.322259e-05 -1.690754e-05 3.431446e-07
4.333614e-05 -1.694489e-05 -2.706720e-07
4.439872e-05 -1.736917e-05 -1.182683e-07
4.442117e-05 -1.737135e-05 1.166449e-07
4.337292e-05 -1.695802e-05 -2.663571e-07
4.326051e-05 -1.692245e-05 3.405173e-07
4.441151e-05 -1.737421e-05 -1.111451e-07
4.443399e-05 -1.737623e-05 1.093084e-07
4.340914e-05 -1.697093e-05 -2.613276e-07
4.329814e-05 -1.693726e-05 3.370344e-07
4.442346e-05 -1.737892e-05 -1.038556e-07
4.444584e-05 -1.738077e-05 1.018174e-07
4.336564e-05 -1.695890e-05 3.359620e-07
4.344470e-05 -1.698359e-05 -2.555812e-07
4.443454e-05 -1.738328e-05 -9.643751e-08
4.445662e-05 -1.738494e-05 9.421952e-08
4.340410e-05 -1.697324e-05 3.302327e-07
4.347952e-05 -1.699596e-05 -2.491159e-07
4.337281e-05 -1.695798e-05 2.663642e-07
4.444472e-05 -1.738728e-05 -8.894178e-08
4.446635e-05 -1.738875e-05 8.657068e-08
4.340843e-05 -1.698069e-05 3.214221e-07
4.351349e-05 -1.700800e-05 -2.419298e-07
4.340902e-05 -1.697089e-05 2.613347e-07
4.445401e-05 -1.739092e-05 -8.141801e-08
4.447509e-05 -1.739220e-05 7.891607e-08
4.344402e-05 -1.699472e-05 3.144870e-07
4.354654e-05 -1.701968e-05 -2.340220e-07
4.446242e-05 -1.739421e-05 -7.390149e-08
4.448292e-05 -1.739531e-05 7.128415e-08
4.347886e-05 -1.700846e-05 3.066817e-07
4.357855e-05 -1.703095e-05 -2.253921e-07
4.446996e-05 -1.739716e-05 -6.641455e-08
4.448988e-05 -1.739809e-05 6.369223e-08
4.351286e-05 -1.702188e-05 2.980036e-07
4.360944e-05 -1.704179e-05 -2.160414e-07
4.448761e-05 -1.740407e-05 -4.424766e-08
4.447667e-05 -1.739979e-05 -5.897113e-08
4.449599e-05 -1.740055e-05 5.615111e-08
4.354593e-05 -1.703494e-05 2.884506e-07
4.363910e-05 -1.705216e-05 -2.059732e-07
4.448255e-05 -1.740209e-05 -5.158021e-08
4.357797e-05 -1.704760e-05 2.780207e-07
4.366745e-05 -1.706202e-05 -1.951937e-07
4.449188e-05 -1.740573e-05 -3.697743e-08
4.360889e-05 -1.705983e-05 2.667128e-07
4.369436e-05 -1.707133e-05 -1.837131e-07
4.449535e-05 -1.740709e-05 -2.977221e-08
4.451239e-05 -1.740722e-05 2.660216e-08
4.363859e-05 -1.707158e-05 2.545268e-07
4.371975e-05 -1.708006e-05 -1.715475e-07
4.449805e-05 -1.740814e-05 -2.263385e-08
4.451453e-05 -1.740812e-05 1.938245e-08
4.366697e-05 -1.708283e-05 2.414637e-07
4.374349e-05 -1.708817e-05 -1.587204e-07
4.449997e-05 -1.740889e-05 -1.556366e-08
4.451590e-05 -1.740872e-05 1.223257e-08
4.369392e-05 -1.709351e-05 2.275267e-07
4.376546e-05 -1.709563e-05 -1.452663e-07
4.450113e-05 -1.740934e-05 -8.562538e-09
4.451652e-05 -1.740903e-05 5.153254e-09
4.371934e-05 -1.710361e-05 2.127217e-07
4.378554e-05 -1.710242e-05 -1.312330e-07
4.450153e-05 -1.740949e-05 -1.631150e-09
4.451639e-05 -1.740903e-05 -1.854952e-09
4.380357e-05 -1.710849e-05 -1.166867e-07
4.374311e-05 -1.711306e-05 1.970590e-07
4.450118e-05 -1.740935e-05 5.230002e-09
4.451551e-05 -1.740875e-05 -8.791624e-09
4.381942e-05 -1.711384e-05 -1.017155e-07
4.376512e-05 -1.712182e-05 1.805546e-07
4.450009e-05 -1.740892e-05 1.202053e-08
4.451390e-05 -1.740818e-05 -1.565641e-08
4.383643e-05 -1.713278e-05 1.570823e-07
4.383291e-05 -1.711846e-05 -8.643119e-08
4.449827e-05 -1.740820e-05 1.874013e-08
4.451156e-05 -1.740732e-05 -2.244902e-08
4.385542e-05 -1.713961e-05 1.382820e-07
4.384389e-05 -1.712236e-05 -7.096203e-08
4.449572e-05 -1.740719e-05 2.538852e-08
4.450849e-05 -1.740618e-05 -2.916919e-08
4.381917e-05 -1.714342e-05 1.263240e-07
4.385227e-05 -1.712557e-05 -5.540929e-08
4.449245e-05 -1.740591e-05 3.196546e-08
4.450471e-05 -1.740476e-05 -3.581668e-08
4.383269e-05 -1.714884e-05 1.068957e-07
4.385803e-05 -1.712809e-05 -3.983903e-08
4.447842e-05 -1.740039e-05 5.126528e-08
4.448848e-05 -1.740434e-05 3.847071e-08
4.450023e-05 -1.740306e-05 -4.239125e-08
4.384370e-05 -1.715325e-05 8.701015e-08
4.386124e-05 -1.712988e-05 -2.434800e-08
4.448380e-05 -1.740250e-05 4.490405e-08
4.385210e-05 -1.715657e-05 6.690829e-08
4.386205e-05 -1.713093e-05 -9.065178e-09
4.447236e-05 -1.739800e-05 5.755419e-08
4.385787e-05 -1.715881e-05 4.687932e-08
4.386060e-05 -1.713122e-05 5.894500e-09
4.446563e-05 -1.739536e-05 6.377059e-08
4.447539e-05 -1.739355e-05 -6.795609e-08
4.386109e-05 -1.716002e-05 2.717236e-08
4.385704e-05 -1.713078e-05 2.043969e-08
4.445822e-05 -1.739244e-05 6.991429e-08
4.446749e-05 -1.739051e-05 -7.416296e-08
4.386190e-05 -1.716026e-05 7.954641e-09
4.385148e-05 -1.712963e-05 3.450125e-08
4.445015e-05 -1.738927e-05 7.598512e-08
4.445893e-05 -1.738722e-05 -8.029572e-08
4.386046e-05 -1.715961e-05 -1.066888e-08
4.384405e-05 -1.712778e-05 4.802831e-08
4.444142e-05 -1.738584e-05 8.198294e-08
4.444973e-05 -1.738367e-05 -8.635424e-08
4.385688e-05 -1.715812e-05 -2.863177e-08
4.383485e-05 -1.712527e-05 6.098421e-08
4.443205e-05 -1.738216e-05 8.790759e-08
4.443988e-05 -1.737986e-05 -9.233837e-08
4.385132e-05 -1.715585e-05 -4.589120e-08
4.382399e-05 -1.712213e-05 7.334306e-08
4.442205e-05 -1.737823e-05 9.375895e-08
4.442941e-05 -1.737581e-05 -9.824798e-08
4.384388e-05 -1.715284e-05 -6.241909e-08
4.381157e-05 -1.711838e-05 8.508696e-08
4.441142e-05 -1.737406e-05 9.953692e-08
4.441831e-05 -1.737152e-05 -1.040830e-07
4.383467e-05 -1.714915e-05 -7.819688e-08
4.379767e-05 -1.711407e-05 9.620388e-08
4.440016e-05 -1.736964e-05 1.052414e-07
4.440659e-05 -1.736699e-05 -1.098432e-07
4.378238e-05 -1.710921e-05 1.066860e-07
4.382386e-05 -1.712208e-05 -7.334931e-08
4.382380e-05 -1.714480e-05 -9.321233e-08
4.438830e-05 -1.736498e-05 1.108722e-07
4.439427e-05 -1.736221e-05 -1.155286e-07
4.381136e-05 -1.713984e-05 -1.074575e-07
4.376578e-05 -1.710384e-05 1.165286e-07
4.437584e-05 -1.736008e-05 1.164293e-07
4.438136e-05 -1.735721e-05 -1.211390e-07
4.381833e-05 -1.713064e-05 -1.296996e-07
4.374798e-05 -1.709800e-05 1.257290e-07
4.379753e-05 -1.711402e-05 -9.621065e-08
4.433492e-05 -1.734402e-05 1.326560e-07
4.436278e-05 -1.735496e-05 1.219125e-07
4.436786e-05 -1.735197e-05 -1.266741e-07
4.378214e-05 -1.712823e-05 -1.336191e-07
4.372904e-05 -1.709172e-05 1.342861e-07
4.434914e-05 -1.734960e-05 1.273215e-07
4.376553e-05 -1.712164e-05 -1.455311e-07
4.370905e-05 -1.708502e-05 1.421997e-07
4.432013e-05 -1.733822e-05 1.379152e-07
4.374770e-05 -1.711457e-05 -1.566629e-07
4.368809e-05 -1.707795e-05 1.494701e-07
4.430478e-05 -1.733220e-05 1.430981e-07
4.430816e-05 -1.732880e-05 -1.480533e-07
4.372875e-05 -1.710707e-05 -1.670147e-07
4.366626e-05 -1.707053e-05 1.560984e-07
4.428888e-05 -1.732596e-05 1.482033e-07
4.429185e-05 -1.732246e-05 -1.532027e-07
4.370874e-05 -1.709915e-05 -1.765872e-07
4.364363e-05 -1.706280e-05 1.620856e-07
4.427243e-05 -1.731951e-05 1.532284e-07
4.427500e-05 -1.731592e-05 -1.582698e-07
4.368777e-05 -1.709086e-05 -1.853813e-07
4.362028e-05 -1.705480e-05 1.674330e-07
4.425543e-05 -1.731284e-05 1.581698e-07
4.425760e-05 -1.730916e-05 -1.632504e-07
4.366592e-05 -1.708223e-05 -1.933982e-07
4.359630e-05 -1.704654e-05 1.721420e-07
4.423790e-05 -1.730596e-05 1.630219e-07
4.423966e-05 -1.730219e-05 -1.681381e-07
4.364328e-05 -1.707329e-05 -2.006394e-07
4.357177e-05 -1.703807e-05 1.762139e-07
4.421981e-05 -1.729887e-05 1.677765e-07
4.422115e-05 -1.729502e-05 -1.729228e-07
4.361992e-05 -1.706407e-05 -2.071062e-07
4.354677e-05 -1.702942e-05 1.796500e-07
4.420118e-05 -1.729157e-05 1.724201e-07
4.420205e-05 -1.728762e-05 -1.775879e-07
4.359593e-05 -1.705461e-05 -2.128003e-07
4.352139e-05 -1.702062e-05 1.824517e-07
4.418200e-05 -1.728405e-05 1.769316e-07
4.418231e-05 -1.728001e-05 -1.821067e-07
4.357139e-05 -1.704494e-05 -2.177233e-07
4.349570e-05 -1.701170e-05 1.846202e-07
4.416227e-05 -1.727630e-05 1.812770e-07
4.416186e-05 -1.727217e-05 -1.864349e-07
4.354638e-05 -1.703508e-05 -2.218767e-07
4.346979e-05 -1.700270e-05 1.861569e-07
4.414199e-05 -1.726834e-05 1.854058e-07
4.414068e-05 -1.726411e-05 -1.905132e-07
4.344374e-05 -1.699365e-05 1.870629e-07
4.352099e-05 -1.702508e-05 -2.252624e-07
4.412120e-05 -1.726016e-05 1.892613e-07
4.411887e-05 -1.725585e-05 -1.942858e-07
4.341762e-05 -1.698457e-05 1.873395e-07
4.349530e-05 -1.701497e-05 -2.278819e-07
4.405627e-05 -1.723463e-05 1.988104e-07
4.409995e-05 -1.725180e-05 1.927982e-07
4.409655e-05 -1.724741e-05 -1.977145e-07
4.345887e-05 -1.699959e-05 -2.344065e-07
4.339153e-05 -1.697550e-05 1.869880e-07
4.407829e-05 -1.724328e-05 1.959871e-07
4.343107e-05 -1.698937e-05 -2.351298e-07
4.336553e-05 -1.696648e-05 1.860097e-07
4.403396e-05 -1.722585e-05 2.012573e-07
4.341723e-05 -1.698426e-05 -2.311601e-07
4.333971e-05 -1.695752e-05 1.844064e-07
4.401139e-05 -1.721698e-05 2.033212e-07
4.400383e-05 -1.721241e-05 -2.076580e-07
4.339114e-05 -1.697400e-05 -2.307317e-07
4.331415e-05 -1.694867e-05 1.821800e-07
4.398863e-05 -1.720804e-05 2.049982e-07
4.398009e-05 -1.720346e-05 -2.091658e-07
4.336514e-05 -1.696379e-05 -2.295454e-07
4.328892e-05 -1.693995e-05 1.793332e-07
4.396571e-05 -1.719904e-05 2.062861e-07
4.395623e-05 -1.719446e-05 -2.102769e-07
4.333933e-05 -1.695365e-05 -2.276030e-07
4.326410e-05 -1.693139e-05 1.758696e-07
4.394269e-05 -1.719000e-05 2.071837e-07
4.393229e-05 -1.718542e-05 -2.109910e-07
4.331378e-05 -1.694362e-05 -2.249063e-07
4.323978e-05 -1.692302e-05 1.717944e-07
4.391961e-05 -1.718094e-05 2.076905e-07
4.390831e-05 -1.717638e-05 -2.113077e-07
4.328856e-05 -1.693371e-05 -2.214573e-07
4.321603e-05 -1.691488e-05 1.671143e-07
4.389651e-05 -1.717188e-05 2.078066e-07
4.388434e-05 -1.716734e-05 -2.112276e-07
4.326376e-05 -1.692398e-05 -2.172583e-07
4.319295e-05 -1.690698e-05 1.618395e-07
4.387343e-05 -1.716282e-05 2.075324e-07
4.386041e-05 -1.715832e-05 -2.107510e-07
4.323945e-05 -1.691444e-05 -2.123123e-07
4.317060e-05 -1.689936e-05 1.559836e-07
4.385042e-05 -1.715380e-05 2.068685e-07
4.383658e-05 -1.714933e-05 -2.098787e-07
4.321572e-05 -1.690512e-05 -2.066230e-07
4.314909e-05 -1.689204e-05 1.495658e-07
4.382751e-05 -1.714482e-05 2.058156e-07
4.381288e-05 -1.714040e-05 -2.086114e-07
4.319265e-05 -1.689607e-05 -2.001952e-07
4.312850e-05 -1.688505e-05 1.426122e-07
4.319288e-05 -1.690695e-05 -1.618460e-07
4.380476e-05 -1.713589e-05 2.043745e-07
4.378934e-05 -1.713154e-05 -2.069500e-07
4.317032e-05 -1.688730e-05 -1.930360e-07
4.310895e-05 -1.687842e-05 1.351584e-07
4.317054e-05 -1.689933e-05 -1.559898e-07
4.373778e-05 -1.710965e-05 1.977298e-07
4.378219e-05 -1.712705e-05 2.025459e-07
4.376602e-05 -1.712275e-05 -2.048953e-07
4.309053e-05 -1.687216e-05 1.272513e-07
4.314883e-05 -1.687886e-05 -1.851549e-07
4.375985e-05 -1.711829e-05 2.003308e-07
4.307335e-05 -1.686628e-05 1.189515e-07
4.312826e-05 -1.687078e-05 -1.765660e-07
4.371603e-05 -1.710112e-05 1.947439e-07
4.307577e-05 -1.685980e-05 -1.652786e-07
4.305754e-05 -1.686080e-05 1.103316e-07
4.369462e-05 -1.709274e-05 1.913736e-07
4.367566e-05 -1.708879e-05 -1.927587e-07
4.305632e-05 -1.685280e-05 -1.548443e-07
4.304319e-05 -1.685570e-05 1.014622e-07
4.367361e-05 -1.708451e-05 1.876197e-07
4.365400e-05 -1.708066e-05 -1.887488e-07
4.307318e-05 -1.684913e-05 -1.468193e-07
4.303035e-05 -1.685099e-05 9.238580e-08
4.365303e-05 -1.707645e-05 1.834828e-07
4.363279e-05 -1.707271e-05 -1.843498e-07
4.305739e-05 -1.684294e-05 -1.357498e-07
4.301902e-05 -1.684667e-05 8.314466e-08
4.363291e-05 -1.706857e-05 1.789633e-07
4.361207e-05 -1.706496e-05 -1.795624e-07
4.304306e-05 -1.683733e-05 -1.242692e-07
4.300915e-05 -1.684279e-05 7.380889e-08
4.361331e-05 -1.706090e-05 1.740619e-07
4.359188e-05 -1.705741e-05 -1.743868e-07
4.303024e-05 -1.683235e-05 -1.125399e-07
4.300068e-05 -1.683934e-05 6.445010e-08
4.359426e-05 -1.705344e-05 1.687788e-07
4.357226e-05 -1.705009e-05 -1.688235e-07
4.301892e-05 -1.682797e-05 -1.007234e-07
4.299354e-05 -1.683635e-05 5.512745e-08
4.357580e-05 -1.704622e-05 1.631144e-07
4.355325e-05 -1.704301e-05 -1.628728e-07
4.300907e-05 -1.682418e-05 -8.893775e-08
4.298768e-05 -1.683381e-05 4.588653e-08
4.355797e-05 -1.703924e-05 1.570689e-07
4.353489e-05 -1.703618e-05 -1.565349e-07
4.300060e-05 -1.682093e-05 -7.725765e-08
4.298305e-05 -1.683171e-05 3.676117e-08
4.354080e-05 -1.703252e-05 1.506424e-07
4.351721e-05 -1.702962e-05 -1.498100e-07
4.299347e-05 -1.681819e-05 -6.572955e-08
4.297960e-05 -1.683006e-05 2.777585e-08
4.352434e-05 -1.702607e-05 1.438351e-07
4.350025e-05 -1.702334e-05 -1.426981e-07
4.298762e-05 -1.681595e-05 -5.438260e-08
4.297731e-05 -1.682884e-05 1.894791e-08
4.347958e-05 -1.700855e-05 1.211289e-07
4.350863e-05 -1.701992e-05 1.366470e-07
4.348405e-05 -1.701736e-05 -1.351994e-07
4.298300e-05 -1.681419e-05 -4.323531e-08
4.297613e-05 -1.682804e-05 1.028934e-08
4.349369e-05 -1.701408e-05 1.290783e-07
4.297604e-05 -1.682766e-05 1.808193e-09
4.297956e-05 -1.681288e-05 -3.229948e-08
4.346634e-05 -1.700336e-05 1.127995e-07
4.297701e-05 -1.682770e-05 -6.490308e-09
4.297726e-05 -1.681201e-05 -2.158256e-08
4.345399e-05 -1.699852e-05 1.040905e-07
4.342761e-05 -1.699670e-05 -1.013413e-07
4.295247e-05 -1.681206e-05 -5.955022e-09
4.297902e-05 -1.682813e-05 -1.460297e-08
4.344258e-05 -1.699405e-05 9.500352e-08
4.341577e-05 -1.699243e-05 -9.191484e-08
4.295347e-05 -1.681225e-05 4.365693e-09
4.298204e-05 -1.682896e-05 -2.252801e-08
4.343217e-05 -1.698996e-05 8.554065e-08
4.340494e-05 -1.698854e-05 -8.210750e-08
4.297697e-05 -1.681197e-05 9.217662e-09
4.298604e-05 -1.683017e-05 -3.026460e-08
4.342278e-05 -1.698627e-05 7.570565e-08
4.339514e-05 -1.698506e-05 -7.192350e-08
4.297897e-05 -1.681277e-05 1.902913e-08
4.299101e-05 -1.683176e-05 -3.781253e-08
4.341447e-05 -1.698299e-05 6.550436e-08
4.338643e-05 -1.698200e-05 -6.136954e-08
4.298199e-05 -1.681396e-05 2.861243e-08
4.299692e-05 -1.683372e-05 -4.517199e-08
4.340729e-05 -1.698016e-05 5.494591e-08
4.337888e-05 -1.697939e-05 -5.045607e-08
4.298599e-05 -1.681553e-05 3.796789e-08
4.300375e-05 -1.683603e-05 -5.234339e-08
4.340131e-05 -1.697778e-05 4.404437e-08
4.337256e-05 -1.697724e-05 -3.919949e-08
4.299095e-05 -1.681748e-05 4.709603e-08
4.301148e-05 -1.683870e-05 -5.932724e-08
4.339659e-05 -1.697590e-05 3.282156e-08
4.336758e-05 -1.697558e-05 -2.762576e-08
4.299686e-05 -1.681980e-05 5.599744e-08
4.302008e-05 -1.684171e-05 -6.612410e-08
4.339320e-05 -1.697453e-05 2.131162e-08
4.336406e-05 -1.697446e-05 -1.577653e-08
4.300368e-05 -1.682247e-05 6.467275e-08
4.302953e-05 -1.684505e-05 -7.273449e-08
4.339122e-05 -1.697372e-05 9.568905e-09
4.336220e-05 -1.697391e-05 -3.719686e-09
4.301140e-05 -1.682549e-05 7.312257e-08
4.303981e-05 -1.684872e-05 -7.915889e-08
4.339442e-05 -1.697496e-05 -2.594350e-08
4.339073e-05 -1.697350e-05 -2.319028e-09
4.336228e-05 -1.697398e-05 8.432143e-09
4.301999e-05 -1.682885e-05 8.134744e-08
4.305090e-05 -1.685270e-05 -8.539775e-08
4.302003e-05 -1.684169e-05 6.612585e-08
4.339180e-05 -1.697391e-05 -1.421579e-08
4.336456e-05 -1.697471e-05 2.050841e-08
4.302943e-05 -1.683255e-05 8.934787e-08
4.306277e-05 -1.685699e-05 -9.145143e-08
4.302948e-05 -1.684503e-05 7.273623e-08
4.339854e-05 -1.697662e-05 -3.733468e-08
4.303971e-05 -1.683656e-05 9.712430e-08
4.307540e-05 -1.686157e-05 -9.732022e-08
4.340407e-05 -1.697884e-05 -4.827184e-08
4.338277e-05 -1.698053e-05 5.458221e-08
4.308877e-05 -1.686645e-05 -1.030044e-07
4.305078e-05 -1.684089e-05 1.046771e-07
4.341089e-05 -1.698156e-05 -5.868101e-08
4.339175e-05 -1.698349e-05 6.488849e-08
4.310286e-05 -1.687160e-05 -1.085040e-07
4.306264e-05 -1.684553e-05 1.120065e-07
4.341890e-05 -1.698474e-05 -6.851588e-08
4.340188e-05 -1.698689e-05 7.458914e-08
4.306628e-05 -1.685341e-05 1.246845e-07
4.311764e-05 -1.687703e-05 -1.138193e-07
4.342799e-05 -1.698835e-05 -7.774695e-08
4.341306e-05 -1.699068e-05 8.366166e-08
4.308051e-05 -1.685876e-05 1.315691e-07
4.313309e-05 -1.688271e-05 -1.189502e-07
4.343808e-05 -1.699234e-05 -8.635507e-08
4.342519e-05 -1.699484e-05 9.209151e-08
4.310271e-05 -1.686119e-05 1.326569e-07
4.314919e-05 -1.688865e-05 -1.238969e-07
4.344908e-05 -1.699668e-05 -9.432760e-08
4.343816e-05 -1.699932e-05 9.986916e-08
4.311748e-05 -1.686696e-05 1.390948e-07
4.316592e-05 -1.689484e-05 -1.286593e-07
4.346090e-05 -1.700134e-05 -1.016561e-07
4.345191e-05 -1.700411e-05 1.069883e-07
4.313292e-05 -1.687300e-05 1.453099e-07
4.318325e-05 -1.690126e-05 -1.332374e-07
4.347347e-05 -1.700630e-05 -1.083350e-07
4.346636e-05 -1.700917e-05 1.134445e-07
4.314901e-05 -1.687929e-05 1.513024e-07
4.320115e-05 -1.690791e-05 -1.376310e-07
4.348672e-05 -1.701151e-05 -1.143603e-07
4.348144e-05 -1.701448e-05 1.192351e-07
4.316572e-05 -1.688582e-05 1.570720e-07
4.321962e-05 -1.691478e-05 -1.418401e-07
4.350058e-05 -1.701697e-05 -1.197297e-07
4.349708e-05 -1.702001e-05 1.243579e-07
4.318304e-05 -1.689259e-05 1.626187e-07
4.323862e-05 -1.692186e-05 -1.458646e-07
4.354508e-05 -1.703448e-05 -1.318857e-07
4.351497e-05 -1.702263e-05 -1.244412e-07
4.351321e-05 -1.702574e-05 1.288114e-07
4.320094e-05 -1.689959e-05 1.679425e-07
4.325813e-05 -1.692914e-05 -1.497044e-07
4.352983e-05 -1.702848e-05 -1.284935e-07
4.321940e-05 -1.690681e-05 1.730430e-07
4.327814e-05 -1.693660e-05 -1.533594e-07
4.321956e-05 -1.691476e-05 1.418418e-07
4.356066e-05 -1.704061e-05 -1.346169e-07
4.323839e-05 -1.691423e-05 1.779202e-07
4.329860e-05 -1.694426e-05 -1.568294e-07
4.357650e-05 -1.704684e-05 -1.366864e-07
4.358131e-05 -1.705005e-05 1.399137e-07
4.325789e-05 -1.692186e-05 1.825738e-07
4.331951e-05 -1.695208e-05 -1.601145e-07
4.325807e-05 -1.692911e-05 1.497060e-07
4.359252e-05 -1.705315e-05 -1.380934e-07
4.359889e-05 -1.705635e-05 1.410071e-07
4.327788e-05 -1.692967e-05 1.870037e-07
4.334084e-05 -1.696007e-05 -1.632147e-07
4.360867e-05 -1.705951e-05 -1.388371e-07
4.361655e-05 -1.706268e-05 1.414259e-07
4.336257e-05 -1.696822e-05 -1.661301e-07
4.329834e-05 -1.693767e-05 1.912095e-07
4.362486e-05 -1.706589e-05 -1.389167e-07
4.363423e-05 -1.706902e-05 1.411694e-07
4.338466e-05 -1.697651e-05 -1.688610e-07
4.331924e-05 -1.694585e-05 1.951912e-07
4.364103e-05 -1.707226e-05 -1.383314e-07
4.365185e-05 -1.707534e-05 1.402366e-07
4.334345e-05 -1.695861e-05 2.041361e-07
4.340711e-05 -1.698494e-05 -1.714077e-07
4.365712e-05 -1.707860e-05 -1.370802e-07
4.366934e-05 -1.708162e-05 1.386266e-07
4.336587e-05 -1.696716e-05 2.076120e-07
4.342988e-05 -1.699350e-05 -1.737709e-07
4.367304e-05 -1.708488e-05 -1.351623e-07
4.368664e-05 -1.708782e-05 1.363383e-07
4.338437e-05 -1.697132e-05 2.057893e-07
4.345295e-05 -1.700218e-05 -1.759512e-07
4.368872e-05 -1.709107e-05 -1.325766e-07
4.370367e-05 -1.709391e-05 1.333708e-07
4.340680e-05 -1.698010e-05 2.088730e-07
4.347629e-05 -1.701097e-05 -1.779491e-07
4.370411e-05 -1.709714e-05 -1.293222e-07
4.372037e-05 -1.709988e-05 1.297231e-07
4.342957e-05 -1.698901e-05 2.117327e-07
4.349989e-05 -1.701986e-05 -1.797646e-07
4.374773e-05 -1.711437e-05 -1.155369e-07
4.371912e-05 -1.710306e-05 -1.253981e-07
4.373665e-05 -1.710568e-05 1.253942e-07
4.345263e-05 -1.699804e-05 2.143691e-07
4.352373e-05 -1.702885e-05 -1.813983e-07
4.373368e-05 -1.710882e-05 -1.208033e-07
4.375246e-05 -1.711130e-05 1.203831e-07
4.347597e-05 -1.700717e-05 2.167840e-07
4.354777e-05 -1.703792e-05 -1.828507e-07
4.376118e-05 -1.711969e-05 -1.095978e-07
4.349957e-05 -1.701640e-05 2.189790e-07
4.357200e-05 -1.704706e-05 -1.841224e-07
4.377398e-05 -1.712476e-05 -1.029853e-07
4.379629e-05 -1.712676e-05 1.012476e-07
4.352339e-05 -1.702573e-05 2.209556e-07
4.359639e-05 -1.705627e-05 -1.852138e-07
4.378604e-05 -1.712954e-05 -9.569883e-08
4.380947e-05 -1.713135e-05 9.349936e-08
4.354743e-05 -1.703514e-05 2.227147e-07
4.362093e-05 -1.706554e-05 -1.861249e-07
4.354770e-05 -1.703789e-05 1.828522e-07
4.379730e-05 -1.713401e-05 -8.773785e-08
4.382182e-05 -1.713561e-05 8.506553e-08
4.357165e-05 -1.704462e-05 2.242565e-07
4.364558e-05 -1.707486e-05 -1.868557e-07
4.357193e-05 -1.704704e-05 1.841239e-07
4.380768e-05 -1.713813e-05 -7.910241e-08
4.383326e-05 -1.713952e-05 7.594634e-08
4.359604e-05 -1.705417e-05 2.255812e-07
4.367034e-05 -1.708421e-05 -1.874062e-07
4.381711e-05 -1.714189e-05 -6.979305e-08
4.384373e-05 -1.714305e-05 6.614262e-08
4.362058e-05 -1.706378e-05 2.266884e-07
4.369516e-05 -1.709360e-05 -1.877762e-07
4.382551e-05 -1.714524e-05 -5.981121e-08
4.385315e-05 -1.714617e-05 5.565614e-08
4.372004e-05 -1.710300e-05 -1.879653e-07
4.364523e-05 -1.707343e-05 2.275781e-07
4.383282e-05 -1.714816e-05 -4.915955e-08
4.386144e-05 -1.714884e-05 4.449009e-08
4.374495e-05 -1.711242e-05 -1.879734e-07
4.366998e-05 -1.708312e-05 2.282497e-07
4.383894e-05 -1.715063e-05 -3.784261e-08
4.386854e-05 -1.715104e-05 3.264969e-08
4.370674e-05 -1.709773e-05 2.326805e-07
4.376986e-05 -1.712184e-05 -1.878000e-07
4.384380e-05 -1.715260e-05 -2.586754e-08
4.387434e-05 -1.715274e-05 2.014314e-08
4.373213e-05 -1.710747e-05 2.328055e-07
4.379475e-05 -1.713125e-05 -1.874447e-07
4.384730e-05 -1.715404e-05 -1.324544e-08
4.387876e-05 -1.715390e-05 6.983090e-09
4.374459e-05 -1.711235e-05 2.289523e-07
4.381960e-05 -1.714065e-05 -1.869073e-07
4.384872e-05 -1.715480e-05 2.828568e-08
4.384936e-05 -1.715491e-05 6.849462e-12
4.388167e-05 -1.715449e-05 -6.811003e-09
4.376950e-05 -1.712211e-05 2.287475e-07
4.384438e-05 -1.715002e-05 -1.861873e-07
4.384987e-05 -1.715518e-05 1.386368e-08
4.379440e-05 -1.713187e-05 2.283224e-07
4.386908e-05 -1.715935e-05 -1.852843e-07
4.384578e-05 -1.715371e-05 4.321142e-08
4.381925e-05 -1.714161e-05 2.276765e-07
4.389365e-05 -1.716865e-05 -1.841979e-07
4.384092e-05 -1.715185e-05 5.854327e-08
4.387489e-05 -1.715009e-05 -6.739210e-08
4.384403e-05 -1.715132e-05 2.268093e-07
4.391809e-05 -1.717788e-05 -1.829277e-07
4.383405e-05 -1.714917e-05 7.412610e-08
4.386714e-05 -1.714699e-05 -8.334227e-08
4.386872e-05 -1.716100e-05 2.257204e-07
4.394237e-05 -1.718706e-05 -1.814733e-07
4.382509e-05 -1.714562e-05 8.973514e-08
4.385644e-05 -1.714299e-05 -9.918808e-08
4.389331e-05 -1.717064e-05 2.244091e-07
4.396646e-05 -1.719616e-05 -1.798344e-07
4.381407e-05 -1.714123e-05 1.051247e-07
4.384314e-05 -1.713816e-05 -1.146904e-07
4.391775e-05 -1.718023e-05 2.228750e-07
4.399034e-05 -1.720518e-05 -1.780104e-07
4.380110e-05 -1.713604e-05 1.201015e-07
4.382766e-05 -1.713258e-05 -1.296882e-07
4.394203e-05 -1.718975e-05 2.211177e-07
4.401398e-05 -1.721411e-05 -1.760011e-07
4.378630e-05 -1.713014e-05 1.345409e-07
4.381029e-05 -1.712632e-05 -1.440844e-07
4.396612e-05 -1.719920e-05 2.191366e-07
4.403736e-05 -1.722294e-05 -1.738060e-07
4.376982e-05 -1.712357e-05 1.483653e-07
4.379125e-05 -1.711943e-05 -1.578197e-07
4.406046e-05 -1.723165e-05 -1.714248e-07
4.399001e-05 -1.720857e-05 2.169312e-07
4.375178e-05 -1.711639e-05 1.615262e-07
4.377069e-05 -1.711197e-05 -1.708570e-07
4.408325e-05 -1.724025e-05 -1.688569e-07
4.401365e-05 -1.721784e-05 2.145011e-07
4.373230e-05 -1.710865e-05 1.739928e-07
4.374876e-05 -1.710398e-05 -1.831732e-07
4.405502e-05 -1.723140e-05 2.139406e-07
4.410570e-05 -1.724871e-05 -1.661021e-07
4.371149e-05 -1.710039e-05 1.857452e-07
4.372556e-05 -1.709550e-05 -1.947537e-07
4.407847e-05 -1.724040e-05 2.108962e-07
4.412780e-05 -1.725703e-05 -1.631600e-07
4.364205e-05 -1.707291e-05 2.166141e-07
4.368945e-05 -1.709166e-05 1.967708e-07
4.370120e-05 -1.708656e-05 -2.055894e-07
4.408294e-05 -1.724503e-05 2.058580e-07
4.414951e-05 -1.726521e-05 -1.600302e-07
4.366627e-05 -1.708249e-05 2.070620e-07
4.410540e-05 -1.725385e-05 2.025245e-07
4.417081e-05 -1.727322e-05 -1.567123e-07
4.361688e-05 -1.706296e-05 2.254249e-07
4.412750e-05 -1.726253e-05 1.989640e-07
4.419168e-05 -1.728107e-05 -1.532061e-07
4.359082e-05 -1.705268e-05 2.334936e-07
4.359391e-05 -1.704699e-05 -2.414101e-07
4.414922e-05 -1.727105e-05 1.951762e-07
4.421209e-05 -1.728873e-05 -1.495114e-07
4.356397e-05 -1.704208e-05 2.408205e-07
4.356503e-05 -1.703629e-05 -2.484808e-07
4.417053e-05 -1.727942e-05 1.911606e-07
4.423201e-05 -1.729621e-05 -1.456281e-07
4.353641e-05 -1.703121e-05 2.474066e-07
4.353548e-05 -1.702533e-05 -2.547993e-07
4.419140e-05 -1.728762e-05 1.869168e-07
4.425142e-05 -1.730348e-05 -1.415563e-07
4.419159e-05 -1.728104e-05 1.532074e-07
4.350821e-05 -1.702010e-05 2.532534e-07
4.350535e-05 -1.701415e-05 -2.603674e-07
4.421182e-05 -1.729564e-05 1.824446e-07
4.427030e-05 -1.731055e-05 -1.372966e-07
4.421200e-05 -1.728870e-05 1.495127e-07
4.347946e-05 -1.700877e-05 2.583626e-07
4.347471e-05 -1.700277e-05 -2.651867e-07
4.423175e-05 -1.730347e-05 1.777436e-07
4.428862e-05 -1.731740e-05 -1.328497e-07
4.345024e-05 -1.699727e-05 2.627361e-07
4.344363e-05 -1.699122e-05 -2.692595e-07
4.425117e-05 -1.731111e-05 1.728136e-07
4.430635e-05 -1.732402e-05 -1.282171e-07
4.342061e-05 -1.698561e-05 2.663761e-07
4.341220e-05 -1.697954e-05 -2.725878e-07
4.427006e-05 -1.731853e-05 1.676547e-07
4.432347e-05 -1.733041e-05 -1.234013e-07
4.339066e-05 -1.697383e-05 2.692846e-07
4.338049e-05 -1.696775e-05 -2.751736e-07
4.428839e-05 -1.732574e-05 1.622669e-07
4.433994e-05 -1.733654e-05 -1.184059e-07
4.336047e-05 -1.696195e-05 2.714639e-07
4.334858e-05 -1.695589e-05 -2.770192e-07
4.435574e-05 -1.734242e-05 -1.132361e-07
4.430613e-05 -1.733271e-05 1.566506e-07
4.326921e-05 -1.692610e-05 2.736470e-07
4.333012e-05 -1.695002e-05 2.729159e-07
4.331655e-05 -1.694398e-05 -2.781268e-07
4.437084e-05 -1.734804e-05 -1.078993e-07
4.432325e-05 -1.733945e-05 1.508068e-07
4.329967e-05 -1.693806e-05 2.736430e-07
4.436171e-05 -1.734875e-05 1.439864e-07
4.438520e-05 -1.735338e-05 -1.024062e-07
4.323881e-05 -1.691416e-05 2.729300e-07
4.437770e-05 -1.735483e-05 1.374759e-07
4.439880e-05 -1.735844e-05 -9.677090e-08
4.320855e-05 -1.690228e-05 2.714939e-07
4.318866e-05 -1.689647e-05 -2.752169e-07
4.437065e-05 -1.735811e-05 1.319292e-07
4.441158e-05 -1.736321e-05 -9.101191e-08
4.317850e-05 -1.689049e-05 2.693405e-07
4.315712e-05 -1.688478e-05 -2.726642e-07
4.438503e-05 -1.736377e-05 1.252013e-07
4.442352e-05 -1.736770e-05 -8.515175e-08
4.314874e-05 -1.687882e-05 2.664717e-07
4.312591e-05 -1.687321e-05 -2.693851e-07
4.439863e-05 -1.736913e-05 1.182683e-07
4.443459e-05 -1.737190e-05 -7.921192e-08
4.311933e-05 -1.686729e-05 2.628890e-07
4.309509e-05 -1.686180e-05 -2.653813e-07
4.441142e-05 -1.737417e-05 1.111451e-07
4.444476e-05 -1.737581e-05 -7.320552e-08
4.309036e-05 -1.685593e-05 2.585942e-07
4.306474e-05 -1.685058e-05 -2.606545e-07
4.442337e-05 -1.737888e-05 1.038556e-07
4.445404e-05 -1.737942e-05 -6.714692e-08
4.306189e-05 -1.684477e-05 2.535889e-07
4.303492e-05 -1.683957e-05 -2.552063e-07
4.443445e-05 -1.738324e-05 9.643739e-08
4.446244e-05 -1.738274e-05 -6.105878e-08
4.303400e-05 -1.683385e-05 2.478746e-07
4.300571e-05 -1.682880e-05 -2.490384e-07
4.444463e-05 -1.738724e-05 8.894161e-08
4.446999e-05 -1.738574e-05 -5.496323e-08
4.300676e-05 -1.682317e-05 2.414531e-07
4.297719e-05 -1.681830e-05 -2.421527e-07
4.445391e-05 -1.739088e-05 8.141778e-08
4.447669e-05 -1.738843e-05 -4.887830e-08
4.298024e-05 -1.681279e-05 2.343266e-07
4.294940e-05 -1.680810e-05 -2.345514e-07
4.446232e-05 -1.739417e-05 7.390123e-08
4.448256e-05 -1.739081e-05 -4.281781e-08
4.295452e-05 -1.680271e-05 2.264973e-07
4.292244e-05 -1.679822e-05 -2.262372e-07
4.446987e-05 -1.739712e-05 6.641424e-08
4.448762e-05 -1.739289e-05 -3.679201e-08
4.288289e-05 -1.677465e-05 1.988335e-07
4.292967e-05 -1.679298e-05 2.179688e-07
4.289638e-05 -1.678870e-05 -2.172137e-07
4.449189e-05 -1.739465e-05 -3.080835e-08
4.447658e-05 -1.739975e-05 5.897079e-08
4.290577e-05 -1.678361e-05 2.087454e-07
4.449536e-05 -1.739611e-05 -2.487217e-08
4.448245e-05 -1.740205e-05 5.157984e-08
4.286112e-05 -1.676611e-05 1.882422e-07
4.450578e-05 -1.740451e-05 4.124655e-08
4.449805e-05 -1.739727e-05 -1.898724e-08
4.284055e-05 -1.675804e-05 1.769848e-07
4.280267e-05 -1.675469e-05 -1.741640e-07
4.450947e-05 -1.740602e-05 3.389068e-08
4.449997e-05 -1.739812e-05 -1.315618e-08
4.282128e-05 -1.675047e-05 1.650810e-07
4.278237e-05 -1.674738e-05 -1.617301e-07
4.449526e-05 -1.740705e-05 2.977179e-08
4.450113e-05 -1.739868e-05 -7.380827e-09
4.280341e-05 -1.674345e-05 1.525602e-07
4.276358e-05 -1.674063e-05 -1.486815e-07
4.449795e-05 -1.740810e-05 2.263342e-08
4.450153e-05 -1.739894e-05 -1.662394e-09
4.278705e-05 -1.673702e-05 1.394679e-07
4.274649e-05 -1.673449e-05 -1.350734e-07
4.449988e-05 -1.740885e-05 1.556322e-08
4.450118e-05 -1.739891e-05 3.998273e-09
4.277232e-05 -1.673123e-05 1.258751e-07
4.273137e-05 -1.672902e-05 -1.209940e-07
4.450103e-05 -1.740930e-05 8.562093e-09
4.450009e-05 -1.739858e-05 9.600622e-09
4.275934e-05 -1.672614e-05 1.118947e-07
4.271859e-05 -1.672429e-05 -1.065883e-07
4.450144e-05 -1.740945e-05 1.630710e-09
4.449827e-05 -1.739797e-05 1.514427e-08
4.450144e-05 -1.739891e-05 1.661336e-09
4.274820e-05 -1.672180e-05 9.769905e-08
4.270845e-05 -1.672034e-05 -9.206939e-08
4.450109e-05 -1.740931e-05 -5.230437e-09
4.449572e-05 -1.739708e-05 2.062895e-08
4.450109e-05 -1.739887e-05 -3.999345e-09
4.273891e-05 -1.671823e-05 8.350493e-08
4.270084e-05 -1.671717e-05 -7.766833e-08
4.450000e-05 -1.740888e-05 -1.202096e-08
4.449246e-05 -1.739590e-05 2.605447e-08
4.273143e-05 -1.671538e-05 6.951011e-08
4.269536e-05 -1.671470e-05 -6.356088e-08
4.449818e-05 -1.740816e-05 -1.874055e-08
4.448848e-05 -1.739445e-05 3.142067e-08
4.272566e-05 -1.671321e-05 5.585123e-08
4.269172e-05 -1.671287e-05 -4.985544e-08
4.449563e-05 -1.740716e-05 -2.538893e-08
4.448381e-05 -1.739272e-05 3.672743e-08
4.271750e-05 -1.671024e-05 1.760052e-08
4.272148e-05 -1.671165e-05 4.261416e-08
4.268970e-05 -1.671163e-05 -3.661817e-08
4.449236e-05 -1.740587e-05 -3.196586e-08
4.447844e-05 -1.739072e-05 4.197465e-08
4.271879e-05 -1.671068e-05 2.985258e-08
4.268914e-05 -1.671093e-05 -2.389001e-08
4.447238e-05 -1.738844e-05 4.716222e-08
4.448839e-05 -1.740431e-05 -3.847109e-08
4.271751e-05 -1.671031e-05 5.879846e-09
4.446565e-05 -1.738591e-05 5.229005e-08
4.448371e-05 -1.740246e-05 -4.490442e-08
4.271875e-05 -1.671085e-05 -5.295307e-09
4.269521e-05 -1.671181e-05 1.102636e-08
4.448917e-05 -1.739884e-05 -5.532077e-08
4.445824e-05 -1.738311e-05 5.735807e-08
4.272113e-05 -1.671183e-05 -1.591581e-08
4.269953e-05 -1.671298e-05 2.153901e-08
4.448262e-05 -1.739633e-05 -6.167530e-08
4.445018e-05 -1.738005e-05 6.236619e-08
4.272460e-05 -1.671323e-05 -2.597587e-08
4.270488e-05 -1.671456e-05 3.147943e-08
4.446554e-05 -1.739532e-05 -6.377092e-08
4.444146e-05 -1.737674e-05 6.731437e-08
4.272909e-05 -1.671502e-05 -3.547188e-08
4.271120e-05 -1.671652e-05 4.084513e-08
4.445813e-05 -1.739241e-05 -6.991461e-08
4.443209e-05 -1.737317e-05 7.220256e-08
4.273452e-05 -1.671718e-05 -4.440172e-08
4.271843e-05 -1.671883e-05 4.963469e-08
4.445006e-05 -1.738924e-05 -7.598543e-08
4.442209e-05 -1.736935e-05 7.703070e-08
4.274086e-05 -1.671969e-05 -5.276419e-08
4.272651e-05 -1.672148e-05 5.784734e-08
4.444134e-05 -1.738581e-05 -8.198324e-08
4.441147e-05 -1.736529e-05 8.179875e-08
4.274803e-05 -1.672253e-05 -6.055870e-08
4.273540e-05 -1.672444e-05 6.548272e-08
4.443197e-05 -1.738213e-05 -8.790788e-08
4.440022e-05 -1.736098e-05 8.650663e-08
4.275598e-05 -1.672567e-05 -6.778501e-08
4.274502e-05 -1.672769e-05 7.254067e-08
4.442196e-05 -1.737820e-05 -9.375923e-08
4.438836e-05 -1.735644e-05 9.115423e-08
4.276464e-05 -1.672909e-05 -7.444305e-08
4.275533e-05 -1.673121e-05 7.902115e-08
4.441133e-05 -1.737402e-05 -9.953719e-08
4.437591e-05 -1.735166e-05 9.574130e-08
4.279438e-05 -1.674080e-05 -9.100745e-08
4.277397e-05 -1.673276e-05 -8.053282e-08
4.276627e-05 -1.673498e-05 8.492411e-08
4.440008e-05 -1.736960e-05 -1.052416e-07
4.436286e-05 -1.734665e-05 1.002675e-07
4.278390e-05 -1.673668e-05 -8.605431e-08
4.438822e-05 -1.736494e-05 -1.108725e-07
4.434922e-05 -1.734141e-05 1.047321e-07
4.280535e-05 -1.674512e-05 -9.539208e-08
4.437575e-05 -1.736005e-05 -1.164296e-07
4.433501e-05 -1.733594e-05 1.091341e-07
4.281675e-05 -1.674961e-05 -9.920797e-08
4.281518e-05 -1.675207e-05 1.027580e-07
4.432023e-05 -1.733026e-05 1.134720e-07
4.436270e-05 -1.735492e-05 -1.219128e-07
4.282851e-05 -1.675424e-05 -1.024547e-07
4.282841e-05 -1.675674e-05 1.057705e-07
4.430489e-05 -1.732435e-05 1.177433e-07
4.434905e-05 -1.734957e-05 -1.273218e-07
4.284060e-05 -1.675900e-05 -1.051320e-07
4.284192e-05 -1.676152e-05 1.082037e-07
4.433913e-05 -1.734082e-05 -1.375174e-07
4.428900e-05 -1.731824e-05 1.219444e-07
4.285293e-05 -1.676386e-05 -1.072391e-07
4.285566e-05 -1.676639e-05 1.100570e-07
4.432392e-05 -1.733492e-05 -1.428243e-07
4.427255e-05 -1.731191e-05 1.260702e-07
4.286546e-05 -1.676879e-05 -1.087756e-07
4.286957e-05 -1.677132e-05 1.113298e-07
4.430470e-05 -1.733216e-05 -1.430985e-07
4.425557e-05 -1.730538e-05 1.301134e-07
4.287813e-05 -1.677378e-05 -1.097406e-07
4.288358e-05 -1.677630e-05 1.120212e-07
4.428880e-05 -1.732593e-05 -1.482037e-07
4.423804e-05 -1.729865e-05 1.340639e-07
4.289088e-05 -1.677881e-05 -1.101335e-07
4.289765e-05 -1.678130e-05 1.121306e-07
4.427235e-05 -1.731947e-05 -1.532288e-07
4.421996e-05 -1.729173e-05 1.379080e-07
4.290364e-05 -1.678384e-05 -1.099535e-07
4.291170e-05 -1.678629e-05 1.116571e-07
4.425536e-05 -1.731281e-05 -1.581702e-07
4.420134e-05 -1.728462e-05 1.416273e-07
4.291636e-05 -1.678886e-05 -1.091997e-07
4.292569e-05 -1.679126e-05 1.105998e-07
4.423782e-05 -1.730593e-05 -1.630224e-07
4.418217e-05 -1.727734e-05 1.451990e-07
4.423796e-05 -1.729862e-05 -1.340656e-07
4.295369e-05 -1.680359e-05 -1.034881e-07
4.292898e-05 -1.679384e-05 -1.078713e-07
4.293955e-05 -1.679619e-05 1.089581e-07
4.421973e-05 -1.729884e-05 -1.677770e-07
4.416244e-05 -1.726990e-05 1.485978e-07
4.421988e-05 -1.729170e-05 -1.379098e-07
4.294145e-05 -1.679875e-05 -1.059677e-07
4.420110e-05 -1.729154e-05 -1.724207e-07
4.414218e-05 -1.726232e-05 1.518061e-07
4.296565e-05 -1.680831e-05 -1.004322e-07
4.418192e-05 -1.728402e-05 -1.769323e-07
4.412140e-05 -1.725459e-05 1.548109e-07
4.297726e-05 -1.681291e-05 -9.680001e-08
4.299254e-05 -1.681492e-05 9.653519e-08
4.416219e-05 -1.727627e-05 -1.812777e-07
4.410016e-05 -1.724674e-05 1.575917e-07
4.298848e-05 -1.681735e-05 -9.259190e-08
4.300488e-05 -1.681924e-05 9.196530e-08
4.414192e-05 -1.726831e-05 -1.854066e-07
4.407850e-05 -1.723877e-05 1.601238e-07
4.299922e-05 -1.682161e-05 -8.780918e-08
4.301673e-05 -1.682338e-05 8.681173e-08
4.412113e-05 -1.726013e-05 -1.892622e-07
4.405649e-05 -1.723068e-05 1.623860e-07
4.300943e-05 -1.682566e-05 -8.245431e-08
4.302802e-05 -1.682730e-05 8.107734e-08
4.403418e-05 -1.722249e-05 1.643620e-07
4.409988e-05 -1.725177e-05 -1.927991e-07
4.301904e-05 -1.682948e-05 -7.653143e-08
4.303869e-05 -1.683098e-05 7.476690e-08
4.401162e-05 -1.721422e-05 1.660398e-07
4.407822e-05 -1.724325e-05 -1.959881e-07
4.302798e-05 -1.683304e-05 -7.004721e-08
4.304865e-05 -1.683439e-05 6.788807e-08
4.405075e-05 -1.723012e-05 -2.034599e-07
4.398886e-05 -1.720588e-05 1.674108e-07
4.303617e-05 -1.683630e-05 -6.301204e-08
4.305783e-05 -1.683749e-05 6.045289e-08
4.402740e-05 -1.722131e-05 -2.057552e-07
4.396595e-05 -1.719749e-05 1.684691e-07
4.304353e-05 -1.683925e-05 -5.544200e-08
4.306610e-05 -1.684027e-05 5.248029e-08
4.401133e-05 -1.721696e-05 -2.033224e-07
4.394293e-05 -1.718906e-05 1.692108e-07
4.304997e-05 -1.684184e-05 -4.736204e-08
4.307335e-05 -1.684267e-05 4.400035e-08
4.398856e-05 -1.720801e-05 -2.049995e-07
4.391985e-05 -1.718061e-05 1.696335e-07
4.306474e-05 -1.684777e-05 -1.114596e-08
4.305540e-05 -1.684402e-05 -3.881138e-08
4.307941e-05 -1.684465e-05 3.506145e-08
4.396565e-05 -1.719902e-05 -2.062874e-07
4.389675e-05 -1.717215e-05 1.697357e-07
4.305972e-05 -1.684577e-05 -2.985248e-08
4.308405e-05 -1.684617e-05 2.574268e-08
4.394263e-05 -1.718998e-05 -2.071850e-07
4.387367e-05 -1.716370e-05 1.695168e-07
4.306285e-05 -1.684703e-05 -2.058401e-08
4.391955e-05 -1.718092e-05 -2.076918e-07
4.385065e-05 -1.715528e-05 1.689765e-07
4.306538e-05 -1.684800e-05 -1.687093e-09
4.308813e-05 -1.684763e-05 6.506380e-09
4.389645e-05 -1.717185e-05 -2.078080e-07
4.382775e-05 -1.714690e-05 1.681152e-07
4.306484e-05 -1.684775e-05 7.677779e-09
4.308597e-05 -1.684708e-05 -1.257253e-08
4.387337e-05 -1.716280e-05 -2.075338e-07
4.380499e-05 -1.713858e-05 1.669330e-07
4.306316e-05 -1.684705e-05 1.687417e-08
4.308304e-05 -1.684615e-05 -2.183370e-08
4.385036e-05 -1.715378e-05 -2.068699e-07
4.378241e-05 -1.713033e-05 1.654307e-07
4.306042e-05 -1.684594e-05 2.585523e-08
4.307904e-05 -1.684482e-05 -3.085376e-08
4.382746e-05 -1.714479e-05 -2.058170e-07
4.376007e-05 -1.712218e-05 1.636087e-07
4.305666e-05 -1.684442e-05 3.459111e-08
4.307404e-05 -1.684311e-05 -3.960981e-08
4.380470e-05 -1.713587e-05 -2.043759e-07
4.373800e-05 -1.711413e-05 1.614677e-07
4.305195e-05 -1.684254e-05 4.306242e-08
4.306813e-05 -1.684105e-05 -4.808708e-08
4.371624e-05 -1.710620e-05 1.590082e-07
4.378214e-05 -1.712703e-05 -2.025474e-07
4.304634e-05 -1.684031e-05 5.125642e-08
4.306133e-05 -1.683864e-05 -5.627596e-08
4.369483e-05 -1.709841e-05 1.562309e-07
4.375980e-05 -1.711827e-05 -2.003323e-07
4.303987e-05 -1.683773e-05 5.916469e-08
4.305371e-05 -1.683592e-05 -6.417015e-08
4.372018e-05 -1.710551e-05 -1.996090e-07
4.367380e-05 -1.709078e-05 1.531361e-07
4.303257e-05 -1.683484e-05 6.678165e-08
4.304530e-05 -1.683288e-05 -7.176556e-08
4.369773e-05 -1.709707e-05 -1.963790e-07
4.365321e-05 -1.708331e-05 1.497243e-07
4.302449e-05 -1.683164e-05 7.410372e-08
4.303613e-05 -1.682954e-05 -7.905958e-08
4.369458e-05 -1.709272e-05 -1.913751e-07
4.363309e-05 -1.707603e-05 1.459958e-07
4.299588e-05 -1.682034e-05 9.428208e-08
4.301566e-05 -1.682815e-05 8.112861e-08
4.302623e-05 -1.682592e-05 -8.605059e-08
4.367356e-05 -1.708449e-05 -1.876212e-07
4.361348e-05 -1.706895e-05 1.419510e-07
4.300611e-05 -1.682438e-05 8.785498e-08
4.301564e-05 -1.682203e-05 -9.273769e-08
4.365298e-05 -1.707643e-05 -1.834843e-07
4.359442e-05 -1.706208e-05 1.375900e-07
4.298499e-05 -1.681605e-05 1.004096e-07
4.363287e-05 -1.706856e-05 -1.789649e-07
4.357595e-05 -1.705545e-05 1.329129e-07
4.363305e-05 -1.707601e-05 -1.459999e-07
4.297349e-05 -1.681152e-05 1.062375e-07
4.298003e-05 -1.680884e-05 -1.109724e-07
4.361327e-05 -1.706088e-05 -1.740635e-07
4.355811e-05 -1.704906e-05 1.279197e-07
4.361344e-05 -1.706893e-05 -1.419551e-07
4.296140e-05 -1.680675e-05 1.117659e-07
4.296697e-05 -1.680398e-05 -1.164419e-07
4.359423e-05 -1.705343e-05 -1.687804e-07
4.354093e-05 -1.704293e-05 1.226106e-07
4.294874e-05 -1.680177e-05 1.169951e-07
4.295338e-05 -1.679891e-05 -1.216074e-07
4.357577e-05 -1.704620e-05 -1.631160e-07
4.352446e-05 -1.703709e-05 1.169854e-07
4.293557e-05 -1.679658e-05 1.219253e-07
4.293928e-05 -1.679364e-05 -1.264692e-07
4.355793e-05 -1.703922e-05 -1.570705e-07
4.350873e-05 -1.703153e-05 1.110444e-07
4.292189e-05 -1.679120e-05 1.265570e-07
4.292470e-05 -1.678819e-05 -1.310276e-07
4.354077e-05 -1.703250e-05 -1.506440e-07
4.349379e-05 -1.702628e-05 1.047880e-07
4.290776e-05 -1.678564e-05 1.308904e-07
4.290967e-05 -1.678255e-05 -1.352831e-07
4.352431e-05 -1.702606e-05 -1.438367e-07
4.347967e-05 -1.702135e-05 9.821699e-08
4.289319e-05 -1.677991e-05 1.349260e-07
4.289423e-05 -1.677676e-05 -1.392361e-07
4.346641e-05 -1.701675e-05 9.133287e-08
4.350860e-05 -1.701991e-05 -1.366486e-07
4.287822e-05 -1.677402e-05 1.386642e-07
4.287840e-05 -1.677082e-05 -1.428867e-07
4.345405e-05 -1.701251e-05 8.413820e-08
4.349366e-05 -1.701406e-05 -1.290798e-07
4.286288e-05 -1.676799e-05 1.421052e-07
4.286221e-05 -1.676473e-05 -1.462356e-07
4.345408e-05 -1.700635e-05 -1.190421e-07
4.344264e-05 -1.700863e-05 7.663713e-08
4.284720e-05 -1.676183e-05 1.452497e-07
4.284571e-05 -1.675853e-05 -1.492830e-07
4.344039e-05 -1.700135e-05 -1.103842e-07
4.343221e-05 -1.700513e-05 6.883605e-08
4.279845e-05 -1.674267e-05 1.529066e-07
4.283122e-05 -1.675554e-05 1.480978e-07
4.345396e-05 -1.699851e-05 -1.040920e-07
4.342281e-05 -1.700202e-05 6.074454e-08
4.281496e-05 -1.674915e-05 1.506500e-07
4.344256e-05 -1.699404e-05 -9.500488e-08
4.341450e-05 -1.699932e-05 5.237659e-08
4.278173e-05 -1.673610e-05 1.548681e-07
4.277708e-05 -1.673269e-05 -1.584658e-07
4.343214e-05 -1.698995e-05 -8.554191e-08
4.340731e-05 -1.699703e-05 4.375216e-08
4.276483e-05 -1.672946e-05 1.565349e-07
4.275943e-05 -1.672603e-05 -1.600118e-07
4.342276e-05 -1.698626e-05 -7.570679e-08
4.340132e-05 -1.699517e-05 3.489926e-08
4.274777e-05 -1.672277e-05 1.579073e-07
4.274164e-05 -1.671933e-05 -1.612588e-07
4.341445e-05 -1.698298e-05 -6.550537e-08
4.339659e-05 -1.699375e-05 2.585630e-08
4.273059e-05 -1.671602e-05 1.589859e-07
4.272374e-05 -1.671258e-05 -1.622072e-07
4.340727e-05 -1.698015e-05 -5.494677e-08
4.339320e-05 -1.699277e-05 1.667479e-08
4.271333e-05 -1.670924e-05 1.597711e-07
4.270576e-05 -1.670580e-05 -1.628576e-07
4.340129e-05 -1.697778e-05 -4.404507e-08
4.339122e-05 -1.699222e-05 7.420948e-09
4.269600e-05 -1.670244e-05 1.602635e-07
4.268774e-05 -1.669901e-05 -1.632107e-07
4.339657e-05 -1.697589e-05 -3.282208e-08
4.339073e-05 -1.699211e-05 -1.826595e-09
4.267864e-05 -1.669563e-05 1.604639e-07
4.266970e-05 -1.669221e-05 -1.632672e-07
4.339318e-05 -1.697452e-05 -2.131194e-08
4.339180e-05 -1.699239e-05 -1.099684e-08
4.266128e-05 -1.668882e-05 1.603732e-07
4.265167e-05 -1.668542e-05 -1.630281e-07
4.339120e-05 -1.697371e-05 -9.569009e-09
4.339443e-05 -1.699306e-05 -2.004775e-08
4.264396e-05 -1.668202e-05 1.599927e-07
4.263369e-05 -1.667864e-05 -1.624948e-07
4.339855e-05 -1.699412e-05 -2.892890e-08
4.339072e-05 -1.697349e-05 2.319168e-09
4.262670e-05 -1.667525e-05 1.593239e-07
4.261579e-05 -1.667190e-05 -1.616691e-07
4.340409e-05 -1.699559e-05 -3.756177e-08
4.339178e-05 -1.697390e-05 1.421618e-08
4.257565e-05 -1.665522e-05 1.556164e-07
4.260954e-05 -1.666852e-05 1.583692e-07
4.259800e-05 -1.666520e-05 -1.605536e-07
4.336894e-05 -1.697608e-05 3.231662e-08
4.341091e-05 -1.699747e-05 -4.587121e-08
4.259251e-05 -1.666184e-05 1.571318e-07
4.258036e-05 -1.665856e-05 -1.591518e-07
4.337510e-05 -1.697804e-05 4.370585e-08
4.341893e-05 -1.699974e-05 -5.379608e-08
4.255899e-05 -1.664868e-05 1.538298e-07
4.340405e-05 -1.697883e-05 4.827293e-08
4.342803e-05 -1.700239e-05 -6.128955e-08
4.254257e-05 -1.664224e-05 1.517824e-07
4.252878e-05 -1.663912e-05 -1.532977e-07
4.341087e-05 -1.698155e-05 5.868229e-08
4.343813e-05 -1.700539e-05 -6.831686e-08
4.252644e-05 -1.663592e-05 1.494901e-07
4.251222e-05 -1.663286e-05 -1.508412e-07
4.341888e-05 -1.698473e-05 6.851733e-08
4.344913e-05 -1.700873e-05 -7.485273e-08
4.251063e-05 -1.662972e-05 1.469779e-07
4.249613e-05 -1.662674e-05 -1.481761e-07
4.342797e-05 -1.698834e-05 7.774856e-08
4.346097e-05 -1.701238e-05 -8.087910e-08
4.249517e-05 -1.662367e-05 1.442834e-07
4.248056e-05 -1.662078e-05 -1.453482e-07
4.343806e-05 -1.699233e-05 8.635681e-08
4.347355e-05 -1.701631e-05 -8.638323e-08
4.343810e-05 -1.700538e-05 6.832124e-08
4.248009e-05 -1.661778e-05 1.414520e-07
4.246550e-05 -1.661497e-05 -1.424054e-07
4.344905e-05 -1.699667e-05 9.432946e-08
4.348681e-05 -1.702050e-05 -9.135629e-08
4.344911e-05 -1.700872e-05 7.485742e-08
4.246537e-05 -1.661203e-05 1.385244e-07
4.245089e-05 -1.660932e-05 -1.393833e-07
4.346087e-05 -1.700133e-05 1.016581e-07
4.350067e-05 -1.702492e-05 -9.579226e-08
4.245103e-05 -1.660643e-05 1.355281e-07
4.243668e-05 -1.660380e-05 -1.363038e-07
4.347344e-05 -1.700628e-05 1.083370e-07
4.351507e-05 -1.702955e-05 -9.968710e-08
4.243704e-05 -1.660098e-05 1.324806e-07
4.242284e-05 -1.659842e-05 -1.331802e-07
4.348669e-05 -1.701150e-05 1.143625e-07
4.352993e-05 -1.703437e-05 -1.030381e-07
4.242340e-05 -1.659565e-05 1.293929e-07
4.240935e-05 -1.659318e-05 -1.300212e-07
4.350055e-05 -1.701695e-05 1.197319e-07
4.354519e-05 -1.703933e-05 -1.058436e-07
4.238454e-05 -1.658049e-05 1.199482e-07
4.241011e-05 -1.659047e-05 1.262722e-07
4.239620e-05 -1.658807e-05 -1.268320e-07
4.356077e-05 -1.704443e-05 -1.081022e-07
4.351494e-05 -1.702262e-05 1.244434e-07
4.239715e-05 -1.658541e-05 1.231229e-07
4.357661e-05 -1.704963e-05 -1.098133e-07
4.352979e-05 -1.702846e-05 1.284958e-07
4.237226e-05 -1.657569e-05 1.167500e-07
4.354669e-05 -1.703766e-05 1.357067e-07
4.359264e-05 -1.705490e-05 -1.109761e-07
4.236031e-05 -1.657103e-05 1.135296e-07
4.234696e-05 -1.656891e-05 -1.138271e-07
4.356389e-05 -1.704381e-05 1.381466e-07
4.360878e-05 -1.706023e-05 -1.115900e-07
4.234871e-05 -1.656650e-05 1.102877e-07
4.233549e-05 -1.656445e-05 -1.105201e-07
4.357645e-05 -1.704683e-05 1.366887e-07
4.362498e-05 -1.706557e-05 -1.116547e-07
4.233744e-05 -1.656210e-05 1.070248e-07
4.232435e-05 -1.656012e-05 -1.071918e-07
4.359248e-05 -1.705313e-05 1.380957e-07
4.364115e-05 -1.707090e-05 -1.111693e-07
4.232651e-05 -1.655783e-05 1.037412e-07
4.231354e-05 -1.655592e-05 -1.038425e-07
4.360862e-05 -1.705949e-05 1.388394e-07
4.365723e-05 -1.707620e-05 -1.101335e-07
4.231592e-05 -1.655370e-05 1.004369e-07
4.230308e-05 -1.655185e-05 -1.004720e-07
4.362481e-05 -1.706587e-05 1.389190e-07
4.367315e-05 -1.708144e-05 -1.085464e-07
4.230568e-05 -1.654969e-05 9.711199e-08
4.229297e-05 -1.654792e-05 -9.708041e-08
4.364098e-05 -1.707224e-05 1.383336e-07
4.368883e-05 -1.708659e-05 -1.064073e-07
4.229578e-05 -1.654583e-05 9.376639e-08
4.228319e-05 -1.654412e-05 -9.366764e-08
4.365706e-05 -1.707858e-05 1.370825e-07
4.370421e-05 -1.709161e-05 -1.037154e-07
4.228623e-05 -1.654210e-05 9.040000e-08
4.227377e-05 -1.654046e-05 -9.023357e-08
4.367298e-05 -1.708485e-05 1.351645e-07
4.371921e-05 -1.709649e-05 -1.004698e-07
4.225155e-05 -1.652855e-05 7.672411e-08
4.227703e-05 -1.653850e-05 8.701270e-08
4.226469e-05 -1.653694e-05 -8.677809e-08
4.368866e-05 -1.709104e-05 1.325789e-07
4.373377e-05 -1.710120e-05 -9.666969e-08
4.226818e-05 -1.653505e-05 8.360437e-08
4.225597e-05 -1.653355e-05 -8.330110e-08
4.370405e-05 -1.709711e-05 1.293245e-07
4.374781e-05 -1.710571e-05 -9.231420e-08
4.225969e-05 -1.653173e-05 8.017489e-08
4.376126e-05 -1.710998e-05 -8.740259e-08
4.371905e-05 -1.710304e-05 1.254004e-07
4.224377e-05 -1.652551e-05 7.325191e-08
4.377404e-05 -1.711399e-05 -8.193430e-08
4.373361e-05 -1.710879e-05 1.208056e-07
4.223634e-05 -1.652261e-05 6.975815e-08
4.222464e-05 -1.652140e-05 -6.917534e-08
4.376771e-05 -1.711671e-05 1.146889e-07
4.378610e-05 -1.711772e-05 -7.590914e-08
4.222928e-05 -1.651985e-05 6.624270e-08
4.221771e-05 -1.651871e-05 -6.558884e-08
4.378234e-05 -1.712187e-05 1.083106e-07
4.379735e-05 -1.712113e-05 -6.932747e-08
4.222259e-05 -1.651724e-05 6.270542e-08
4.221115e-05 -1.651617e-05 -6.198005e-08
4.377391e-05 -1.712473e-05 1.029875e-07
4.380772e-05 -1.712420e-05 -6.219053e-08
4.221626e-05 -1.651477e-05 5.914618e-08
4.220495e-05 -1.651377e-05 -5.834886e-08
4.378597e-05 -1.712951e-05 9.570099e-08
4.381714e-05 -1.712690e-05 -5.450088e-08
4.221030e-05 -1.651244e-05 5.556484e-08
4.219912e-05 -1.651151e-05 -5.469510e-08
4.379722e-05 -1.713398e-05 8.773998e-08
4.382554e-05 -1.712920e-05 -4.626296e-08
4.220470e-05 -1.651025e-05 5.196124e-08
4.219366e-05 -1.650940e-05 -5.101867e-08
4.380760e-05 -1.713810e-05 7.910448e-08
4.383283e-05 -1.713108e-05 -3.748397e-08
4.219948e-05 -1.650821e-05 4.833526e-08
4.218857e-05 -1.650744e-05 -4.731942e-08
4.381703e-05 -1.714185e-05 6.979505e-08
4.383895e-05 -1.713250e-05 -2.817494e-08
4.219464e-05 -1.650632e-05 4.468676e-08
4.218386e-05 -1.650562e-05 -4.359724e-08
4.382543e-05 -1.714521e-05 5.981312e-08
4.384380e-05 -1.713345e-05 -1.835217e-08
4.382546e-05 -1.712917e-05 4.626785e-08
4.219017e-05 -1.650457e-05 4.101563e-08
4.217952e-05 -1.650395e-05 -3.985204e-08
4.383273e-05 -1.714813e-05 4.916136e-08
4.384731e-05 -1.713390e-05 -8.039197e-09
4.383275e-05 -1.713105e-05 3.748859e-08
4.217904e-05 -1.650022e-05 2.986612e-08
4.218608e-05 -1.650297e-05 3.732181e-08
4.217556e-05 -1.650242e-05 -3.608377e-08
4.383885e-05 -1.715059e-05 3.784428e-08
4.384936e-05 -1.713382e-05 2.730734e-09
4.218237e-05 -1.650152e-05 3.360527e-08
4.384371e-05 -1.715256e-05 2.586907e-08
4.384987e-05 -1.713319e-05 1.391162e-08
4.217609e-05 -1.649907e-05 2.610460e-08
4.384722e-05 -1.715400e-05 1.324680e-08
4.384872e-05 -1.713200e-05 2.544114e-08
4.217354e-05 -1.649807e-05 2.232119e-08
4.216353e-05 -1.649781e-05 -2.078250e-08
4.384579e-05 -1.713023e-05 3.723746e-08
4.384928e-05 -1.715488e-05 -5.670079e-12
4.217138e-05 -1.649722e-05 1.851671e-08
4.216149e-05 -1.649704e-05 -1.690251e-08
4.384094e-05 -1.712790e-05 4.919894e-08
4.384978e-05 -1.715515e-05 -1.386270e-08
4.216961e-05 -1.649652e-05 1.469247e-08
4.215985e-05 -1.649642e-05 -1.300290e-08
4.388242e-05 -1.715375e-05 -3.616370e-08
4.383408e-05 -1.712503e-05 6.121617e-08
4.216825e-05 -1.649598e-05 1.085053e-08
4.215861e-05 -1.649595e-05 -9.086017e-09
4.387985e-05 -1.715232e-05 -5.159924e-08
4.382513e-05 -1.712163e-05 7.321471e-08
4.216729e-05 -1.649560e-05 6.994049e-09
4.215778e-05 -1.649565e-05 -5.155496e-09
4.384083e-05 -1.715181e-05 -5.854304e-08
4.381413e-05 -1.711770e-05 8.513678e-08
4.216676e-05 -1.649539e-05 3.127856e-09
4.215739e-05 -1.649550e-05 -1.217019e-09
4.383396e-05 -1.714913e-05 -7.412616e-08
4.380118e-05 -1.711323e-05 9.688791e-08
4.216665e-05 -1.649534e-05 -7.405953e-10
4.215745e-05 -1.649553e-05 2.720457e-09
4.382500e-05 -1.714559e-05 -8.973551e-08
4.378641e-05 -1.710820e-05 1.083595e-07
4.216697e-05 -1.649546e-05 -4.599648e-09
4.215799e-05 -1.649573e-05 6.642577e-09
4.381398e-05 -1.714119e-05 -1.051253e-07
4.376995e-05 -1.710261e-05 1.194594e-07
4.216775e-05 -1.649576e-05 -8.430828e-09
4.215907e-05 -1.649611e-05 1.052599e-08
4.380101e-05 -1.713601e-05 -1.201024e-07
4.375193e-05 -1.709649e-05 1.301159e-07
4.217282e-05 -1.649777e-05 -1.942379e-08
4.216899e-05 -1.649624e-05 -1.220532e-08
4.216076e-05 -1.649668e-05 1.433400e-08
4.378621e-05 -1.713010e-05 -1.345420e-07
4.373248e-05 -1.708986e-05 1.402756e-07
4.217069e-05 -1.649692e-05 -1.588331e-08
4.216305e-05 -1.649744e-05 1.802122e-08
4.376973e-05 -1.712353e-05 -1.483667e-07
4.371169e-05 -1.708274e-05 1.498999e-07
4.217537e-05 -1.649878e-05 -2.279567e-08
4.375169e-05 -1.711635e-05 -1.615278e-07
4.368968e-05 -1.707516e-05 1.589612e-07
4.217830e-05 -1.649995e-05 -2.597877e-08
4.217275e-05 -1.650070e-05 2.803100e-08
4.373222e-05 -1.710861e-05 -1.739946e-07
4.366652e-05 -1.706715e-05 1.674409e-07
4.218158e-05 -1.650125e-05 -2.896034e-08
4.217674e-05 -1.650207e-05 3.096042e-08
4.371141e-05 -1.710036e-05 -1.857471e-07
4.364233e-05 -1.705874e-05 1.753262e-07
4.218518e-05 -1.650267e-05 -3.173216e-08
4.218103e-05 -1.650354e-05 3.367238e-08
4.361717e-05 -1.704996e-05 1.826090e-07
4.368937e-05 -1.709163e-05 -1.967729e-07
4.218907e-05 -1.650421e-05 -3.428888e-08
4.218559e-05 -1.650513e-05 3.616282e-08
4.359114e-05 -1.704085e-05 1.892846e-07
4.366620e-05 -1.708246e-05 -2.070642e-07
4.219321e-05 -1.650585e-05 -3.662695e-08
4.219040e-05 -1.650681e-05 3.842903e-08
4.364936e-05 -1.706748e-05 -2.250076e-07
4.356431e-05 -1.703142e-05 1.953504e-07
4.219760e-05 -1.650758e-05 -3.874397e-08
4.219543e-05 -1.650857e-05 4.046924e-08
4.362204e-05 -1.705739e-05 -2.335859e-07
4.353676e-05 -1.702172e-05 2.008056e-07
4.220219e-05 -1.650939e-05 -4.063837e-08
4.220065e-05 -1.651041e-05 4.228223e-08
4.359075e-05 -1.705265e-05 -2.334961e-07
4.350858e-05 -1.701177e-05 2.056504e-07
4.220696e-05 -1.651128e-05 -4.230906e-08
4.220604e-05 -1.651231e-05 4.386723e-08
4.356391e-05 -1.704205e-05 -2.408231e-07
4.347984e-05 -1.700160e-05 2.098856e-07
4.221190e-05 -1.651322e-05 -4.375534e-08
4.221157e-05 -1.651428e-05 4.522369e-08
4.353635e-05 -1.703119e-05 -2.474092e-07
4.345063e-05 -1.699125e-05 2.135126e-07
4.222744e-05 -1.651934e-05 -4.674374e-08
4.221697e-05 -1.651522e-05 -4.497674e-08
4.221723e-05 -1.651629e-05 4.635126e-08
4.350815e-05 -1.702007e-05 -2.532560e-07
4.342102e-05 -1.698074e-05 2.165330e-07
4.222216e-05 -1.651727e-05 -4.597294e-08
4.222299e-05 -1.651834e-05 4.724969e-08
4.347940e-05 -1.700875e-05 -2.583652e-07
4.339108e-05 -1.697010e-05 2.189485e-07
4.347979e-05 -1.700158e-05 -2.098927e-07
4.223278e-05 -1.652145e-05 -4.728898e-08
4.345018e-05 -1.699724e-05 -2.627388e-07
4.336090e-05 -1.695938e-05 2.207609e-07
4.345057e-05 -1.699123e-05 -2.135197e-07
4.223817e-05 -1.652357e-05 -4.760855e-08
4.224065e-05 -1.652464e-05 4.856867e-08
4.342056e-05 -1.698558e-05 -2.663788e-07
4.333054e-05 -1.694859e-05 2.219719e-07
4.224358e-05 -1.652570e-05 -4.770235e-08
4.224658e-05 -1.652676e-05 4.854917e-08
4.339061e-05 -1.697380e-05 -2.692874e-07
4.330010e-05 -1.693776e-05 2.225832e-07
4.224899e-05 -1.652784e-05 -4.757029e-08
4.225250e-05 -1.652887e-05 4.829991e-08
4.336043e-05 -1.696193e-05 -2.714667e-07
4.326964e-05 -1.692693e-05 2.225964e-07
4.225438e-05 -1.652996e-05 -4.721225e-08
4.225839e-05 -1.653097e-05 4.782078e-08
4.323924e-05 -1.691613e-05 2.220131e-07
4.333007e-05 -1.695000e-05 -2.729188e-07
4.225971e-05 -1.653206e-05 -4.662811e-08
4.226421e-05 -1.653305e-05 4.711165e-08
4.320898e-05 -1.690538e-05 2.208346e-07
4.329963e-05 -1.693804e-05 -2.736458e-07
4.226498e-05 -1.653414e-05 -4.581773e-08
4.226995e-05 -1.653510e-05 4.617236e-08
4.325240e-05 -1.692014e-05 -2.781358e-07
4.317892e-05 -1.689472e-05 2.190624e-07
4.227015e-05 -1.653617e-05 -4.478094e-08
4.227559e-05 -1.653710e-05 4.500274e-08
4.322044e-05 -1.690827e-05 -2.770414e-07
4.314915e-05 -1.688417e-05 2.166976e-07
4.227520e-05 -1.653817e-05 -4.351757e-08
4.228110e-05 -1.653906e-05 4.360260e-08
4.320852e-05 -1.690227e-05 -2.714968e-07
4.311973e-05 -1.687376e-05 2.137415e-07
4.228012e-05 -1.654011e-05 -4.202739e-08
4.228645e-05 -1.654095e-05 4.197174e-08
4.317847e-05 -1.689048e-05 -2.693434e-07
4.309075e-05 -1.686352e-05 2.101956e-07
4.229379e-05 -1.654550e-05 -3.619353e-08
4.228487e-05 -1.654198e-05 -4.031016e-08
4.229164e-05 -1.654278e-05 4.010990e-08
4.314871e-05 -1.687881e-05 -2.664746e-07
4.306226e-05 -1.685348e-05 2.060611e-07
4.228943e-05 -1.654378e-05 -3.836564e-08
4.311931e-05 -1.686728e-05 -2.628920e-07
4.303436e-05 -1.684367e-05 2.013400e-07
4.229791e-05 -1.654714e-05 -3.379359e-08
4.309034e-05 -1.685592e-05 -2.585972e-07
4.300710e-05 -1.683412e-05 1.960345e-07
4.230178e-05 -1.654867e-05 -3.116558e-08
4.231019e-05 -1.654923e-05 3.034804e-08
4.306187e-05 -1.684476e-05 -2.535918e-07
4.298056e-05 -1.682484e-05 1.901481e-07
4.230537e-05 -1.655009e-05 -2.830933e-08
4.231418e-05 -1.655059e-05 2.732798e-08
4.303398e-05 -1.683384e-05 -2.478775e-07
4.295482e-05 -1.681588e-05 1.836854e-07
4.230866e-05 -1.655140e-05 -2.522482e-08
4.231785e-05 -1.655183e-05 2.407600e-08
4.300674e-05 -1.682317e-05 -2.414560e-07
4.292995e-05 -1.680725e-05 1.766532e-07
4.231163e-05 -1.655258e-05 -2.191227e-08
4.232120e-05 -1.655293e-05 2.059245e-08
4.298023e-05 -1.681278e-05 -2.343294e-07
4.290602e-05 -1.679898e-05 1.690610e-07
4.231425e-05 -1.655362e-05 -1.837225e-08
4.232420e-05 -1.655390e-05 1.687808e-08
4.295451e-05 -1.680271e-05 -2.265001e-07
4.288312e-05 -1.679110e-05 1.609226e-07
4.231649e-05 -1.655452e-05 -1.460591e-08
4.232683e-05 -1.655472e-05 1.293427e-08
4.286133e-05 -1.678363e-05 1.522572e-07
4.292966e-05 -1.679297e-05 -2.179714e-07
4.231834e-05 -1.655527e-05 -1.061529e-08
4.232906e-05 -1.655539e-05 8.763372e-09
4.284074e-05 -1.677660e-05 1.430917e-07
4.290576e-05 -1.678361e-05 -2.087479e-07
4.231975e-05 -1.655585e-05 -6.403662e-09
4.233086e-05 -1.655588e-05 4.369105e-09
4.284724e-05 -1.677081e-05 -1.970608e-07
4.282144e-05 -1.677002e-05 1.334628e-07
4.232071e-05 -1.655626e-05 -1.976172e-09
4.233219e-05 -1.655620e-05 -2.427291e-10
4.282433e-05 -1.676251e-05 -1.859484e-07
4.280354e-05 -1.676392e-05 1.234203e-07
4.232047e-05 -1.655626e-05 1.250078e-08
4.232118e-05 -1.655647e-05 2.659324e-09
4.233303e-05 -1.655633e-05 -5.063258e-09
4.284055e-05 -1.675804e-05 -1.769868e-07
4.278716e-05 -1.675831e-05 1.130297e-07
4.232111e-05 -1.655648e-05 7.490955e-09
4.282128e-05 -1.675048e-05 -1.650828e-07
4.277241e-05 -1.675319e-05 1.023741e-07
4.231918e-05 -1.655580e-05 1.766152e-08
4.280341e-05 -1.674345e-05 -1.525618e-07
4.275941e-05 -1.674855e-05 9.154991e-08
4.231721e-05 -1.655507e-05 2.293105e-08
4.232996e-05 -1.655454e-05 -2.602349e-08
4.278705e-05 -1.673702e-05 -1.394693e-07
4.274825e-05 -1.674437e-05 8.063959e-08
4.231447e-05 -1.655403e-05 2.824332e-08
4.232698e-05 -1.655337e-05 -3.145451e-08
4.277232e-05 -1.673123e-05 -1.258762e-07
4.273895e-05 -1.674064e-05 6.969194e-08
4.231092e-05 -1.655265e-05 3.349399e-08
4.232265e-05 -1.655184e-05 -3.675987e-08
4.275935e-05 -1.672614e-05 -1.118955e-07
4.273145e-05 -1.673740e-05 5.877062e-08
4.275942e-05 -1.674855e-05 -9.155167e-08
4.230653e-05 -1.655090e-05 3.852780e-08
4.231679e-05 -1.654993e-05 -4.175134e-08
4.274820e-05 -1.672181e-05 -9.769947e-08
4.272567e-05 -1.673464e-05 4.797109e-08
4.274826e-05 -1.674437e-05 -8.064058e-08
4.230132e-05 -1.654881e-05 4.316017e-08
4.230963e-05 -1.654767e-05 -4.623784e-08
4.273892e-05 -1.671823e-05 -8.350503e-08
4.272149e-05 -1.673239e-05 3.738275e-08
4.229538e-05 -1.654641e-05 4.723185e-08
4.230152e-05 -1.654513e-05 -5.008063e-08
4.273144e-05 -1.671538e-05 -6.950991e-08
4.271880e-05 -1.673064e-05 2.707796e-08
4.228885e-05 -1.654377e-05 5.063499e-08
4.229274e-05 -1.654239e-05 -5.319461e-08
4.272566e-05 -1.671321e-05 -5.585076e-08
4.271750e-05 -1.672938e-05 1.711202e-08
4.228184e-05 -1.654094e-05 5.330164e-08
4.228348e-05 -1.653950e-05 -5.552733e-08
4.271751e-05 -1.672858e-05 7.525887e-09
4.272149e-05 -1.671166e-05 -4.261345e-08
4.227449e-05 -1.653798e-05 5.518891e-08
4.227393e-05 -1.653651e-05 -5.704604e-08
4.271875e-05 -1.672824e-05 -1.650780e-09
4.271880e-05 -1.671068e-05 -2.985164e-08
4.225155e-05 -1.652878e-05 5.594593e-08
4.226692e-05 -1.653494e-05 5.626942e-08
4.226420e-05 -1.653346e-05 -5.773015e-08
4.268994e-05 -1.671075e-05 -1.169665e-08
4.272114e-05 -1.672832e-05 -1.039690e-08
4.225923e-05 -1.653186e-05 5.652554e-08
4.269199e-05 -1.671105e-05 -5.438539e-11
4.272461e-05 -1.672882e-05 -1.869779e-08
4.224395e-05 -1.652575e-05 5.452336e-08
4.271875e-05 -1.671085e-05 5.296800e-09
4.272910e-05 -1.672971e-05 -2.654346e-08
4.223655e-05 -1.652279e-05 5.225333e-08
4.222590e-05 -1.652154e-05 -5.192205e-08
4.272113e-05 -1.671183e-05 1.591745e-08
4.273454e-05 -1.673096e-05 -3.392731e-08
4.222943e-05 -1.651995e-05 4.913318e-08
4.221696e-05 -1.651881e-05 -4.831167e-08
4.272460e-05 -1.671323e-05 2.597763e-08
4.274088e-05 -1.673256e-05 -4.084511e-08
4.222269e-05 -1.651726e-05 4.516132e-08
4.220845e-05 -1.651625e-05 -4.383453e-08
4.272908e-05 -1.671502e-05 3.547375e-08
4.274806e-05 -1.673449e-05 -4.729431e-08
4.221642e-05 -1.651475e-05 4.033685e-08
4.220047e-05 -1.651390e-05 -3.849000e-08
4.273452e-05 -1.671718e-05 4.440367e-08
4.275601e-05 -1.673673e-05 -5.327343e-08
4.221069e-05 -1.651246e-05 3.465905e-08
4.219310e-05 -1.651178e-05 -3.227752e-08
4.274085e-05 -1.671969e-05 5.276620e-08
4.276468e-05 -1.673924e-05 -5.878175e-08
4.220561e-05 -1.651042e-05 2.812709e-08
4.218643e-05 -1.650993e-05 -2.519624e-08
4.274802e-05 -1.672253e-05 6.056076e-08
4.277401e-05 -1.674201e-05 -6.381892e-08
4.220125e-05 -1.650867e-05 2.073964e-08
4.218053e-05 -1.650839e-05 -1.724469e-08
4.275597e-05 -1.672566e-05 6.778710e-08
4.278395e-05 -1.674502e-05 -6.838486e-08
4.219769e-05 -1.650723e-05 1.249451e-08
4.217550e-05 -1.650718e-05 -8.420490e-09
4.276463e-05 -1.672908e-05 7.444516e-08
4.279444e-05 -1.674825e-05 -7.247957e-08
4.219502e-05 -1.650614e-05 3.388287e-09
4.217141e-05 -1.650634e-05 1.280084e-09
4.280541e-05 -1.675166e-05 -7.610304e-08
4.277396e-05 -1.673276e-05 8.053494e-08
4.219310e-05 -1.650526e-05 -2.916078e-08
4.219332e-05 -1.650543e-05 -6.584190e-09
4.216833e-05 -1.650589e-05 1.186255e-08
4.281681e-05 -1.675525e-05 -7.925524e-08
4.278389e-05 -1.673667e-05 8.605644e-08
4.219266e-05 -1.650513e-05 -1.743040e-08
4.278981e-05 -1.674317e-05 9.499708e-08
4.282858e-05 -1.675898e-05 -8.193602e-08
4.219471e-05 -1.650584e-05 -4.178959e-08
4.280230e-05 -1.674754e-05 9.916669e-08
4.284066e-05 -1.676283e-05 -8.414514e-08
4.219754e-05 -1.650690e-05 -5.533576e-08
4.216735e-05 -1.650859e-05 6.321804e-08
4.281673e-05 -1.674960e-05 9.921009e-08
4.285300e-05 -1.676679e-05 -8.588227e-08
4.220162e-05 -1.650844e-05 -6.982398e-08
4.217010e-05 -1.651047e-05 7.839971e-08
4.282849e-05 -1.675423e-05 1.024569e-07
4.286554e-05 -1.677082e-05 -8.714695e-08
4.220699e-05 -1.651048e-05 -8.528572e-08
4.217406e-05 -1.651284e-05 9.457192e-08
4.284057e-05 -1.675899e-05 1.051341e-07
4.287821e-05 -1.677490e-05 -8.793868e-08
4.221365e-05 -1.651301e-05 -1.017603e-07
4.217914e-05 -1.651569e-05 1.117733e-07
4.285290e-05 -1.676385e-05 1.072412e-07
4.289095e-05 -1.677902e-05 -8.825684e-08
4.222158e-05 -1.651601e-05 -1.192959e-07
4.218525e-05 -1.651899e-05 1.300505e-07
4.286543e-05 -1.676878e-05 1.087777e-07
4.290371e-05 -1.678314e-05 -8.810083e-08
4.223076e-05 -1.651946e-05 -1.379496e-07
4.219222e-05 -1.652269e-05 1.494583e-07
4.287810e-05 -1.677377e-05 1.097427e-07
4.291644e-05 -1.678725e-05 -8.747005e-08
4.224111e-05 -1.652332e-05 -1.577874e-07
4.219983e-05 -1.652674e-05 1.700588e-07
4.289084e-05 -1.677879e-05 1.101356e-07
4.292906e-05 -1.679131e-05 -8.636399e-08
4.289092e-05 -1.677901e-05 8.826191e-08
4.225255e-05 -1.652753e-05 -1.788828e-07
4.220777e-05 -1.653103e-05 1.919190e-07
4.290361e-05 -1.678382e-05 1.099556e-07
4.294152e-05 -1.679532e-05 -8.478235e-08
4.290368e-05 -1.678313e-05 8.810588e-08
4.230711e-05 -1.654632e-05 -2.772599e-07
4.226498e-05 -1.653202e-05 -2.013128e-07
4.221568e-05 -1.653545e-05 2.151067e-07
4.291633e-05 -1.678884e-05 1.092017e-07
4.295375e-05 -1.679924e-05 -8.272520e-08
4.227828e-05 -1.653672e-05 -2.251512e-07
4.222310e-05 -1.653985e-05 2.396819e-07
4.296571e-05 -1.680305e-05 -8.019314e-08
4.292895e-05 -1.679382e-05 1.078734e-07
4.229235e-05 -1.654151e-05 -2.504578e-07
4.297732e-05 -1.680672e-05 -7.718762e-08
4.294141e-05 -1.679874e-05 1.059697e-07
4.232262e-05 -1.655106e-05 -3.055234e-07
4.223441e-05 -1.654791e-05 2.931018e-07
4.296666e-05 -1.680579e-05 1.039185e-07
4.298853e-05 -1.681025e-05 -7.371134e-08
4.233905e-05 -1.655571e-05 -3.351060e-07
4.223772e-05 -1.655372e-05 3.516471e-07
4.297978e-05 -1.681042e-05 1.005198e-07
4.299927e-05 -1.681359e-05 -6.976876e-08
4.235691e-05 -1.656033e-05 -3.656806e-07
4.223584e-05 -1.655534e-05 3.819544e-07
4.297722e-05 -1.681289e-05 9.680185e-08
4.300948e-05 -1.681673e-05 -6.536681e-08
4.237711e-05 -1.656511e-05 -3.965980e-07
4.223247e-05 -1.655605e-05 4.117198e-07
4.298843e-05 -1.681733e-05 9.259366e-08
4.301908e-05 -1.681965e-05 -6.051580e-08
4.240128e-05 -1.657060e-05 -4.266266e-07
4.223004e-05 -1.655648e-05 4.393933e-07
4.299917e-05 -1.682159e-05 8.781086e-08
4.302802e-05 -1.682233e-05 -5.523065e-08
4.243287e-05 -1.657758e-05 -4.548677e-07
4.300939e-05 -1.682564e-05 8.245589e-08
4.303620e-05 -1.682474e-05 -4.953245e-08
4.247362e-05 -1.658611e-05 -4.769141e-07
4.257969e-05 -1.614248e-05 8.067552e-10
4.301899e-05 -1.682946e-05 7.653291e-08
4.304355e-05 -1.682687e-05 -4.345029e-08
4.251680e-05 -1.659914e-05 -4.758928e-07
4.274378e-05 -1.644409e-05 -2.758433e-08
4.256986e-05 -1.613933e-05 -3.268384e-09
4.302793e-05 -1.683301e-05 7.004857e-08
4.304998e-05 -1.682869e-05 -3.702346e-08
4.261772e-05 -1.661707e-05 -4.495242e-07
4.256571e-05 -1.615441e-05 -1.618874e-08
4.303612e-05 -1.683628e-05 6.301327e-08
4.305541e-05 -1.683020e-05 -3.030320e-08
4.304347e-05 -1.683923e-05 5.544309e-08
4.305972e-05 -1.683140e-05 -2.335237e-08
4.304991e-05 -1.684181e-05 4.736298e-08
4.306285e-05 -1.683229e-05 -1.623659e-08
4.305534e-05 -1.684400e-05 3.881215e-08
4.306474e-05 -1.683287e-05 -8.998250e-09
4.305966e-05 -1.684574e-05 2.985306e-08
4.306538e-05 -1.683315e-05 -1.672866e-09
4.306484e-05 -1.683308e-05 5.679960e-09
4.306279e-05 -1.684700e-05 2.058439e-08
4.306468e-05 -1.684774e-05 1.114614e-08
4.306316e-05 -1.683267e-05 1.299412e-08
4.308772e-05 -1.684759e-05 -3.106443e-09
4.306042e-05 -1.683191e-05 2.021359e-08
4.306478e-05 -1.684773e-05 -7.677966e-09
4.305667e-05 -1.683080e-05 2.729456e-08
4.306310e-05 -1.684703e-05 -1.687451e-08
4.305197e-05 -1.682935e-05 3.420409e-08
4.306036e-05 -1.684591e-05 -2.585571e-08
4.304636e-05 -1.682756e-05 4.091798e-08
4.305661e-05 -1.684440e-05 -3.459172e-08
4.303989e-05 -1.682545e-05 4.741885e-08
4.305190e-05 -1.684252e-05 -4.306315e-08
4.303260e-05 -1.682303e-05 5.369440e-08
4.304629e-05 -1.684028e-05 -5.125726e-08
4.302452e-05 -1.682031e-05 5.973611e-08
4.303981e-05 -1.683771e-05 -5.916561e-08
4.301570e-05 -1.681730e-05 6.553827e-08
4.303252e-05 -1.683482e-05 -6.678266e-08
4.300616e-05 -1.681400e-05 7.109714e-08
4.303255e-05 -1.682301e-05 -5.369703e-08
4.302444e-05 -1.683162e-05 -7.410479e-08
4.299593e-05 -1.681045e-05 7.641040e-08
4.302447e-05 -1.682029e-05 -5.973891e-08
4.298505e-05 -1.680663e-05 8.147672e-08
4.301561e-05 -1.682813e-05 -8.112974e-08
4.297355e-05 -1.680257e-05 8.629546e-08
4.300606e-05 -1.682436e-05 -8.785615e-08
4.300439e-05 -1.681788e-05 -9.912042e-08
4.296147e-05 -1.679829e-05 9.086640e-08
4.299251e-05 -1.681348e-05 -1.051986e-07
4.294882e-05 -1.679378e-05 9.518960e-08
4.297344e-05 -1.681150e-05 -1.062387e-07
4.293565e-05 -1.678907e-05 9.926530e-08
4.296135e-05 -1.680673e-05 -1.117672e-07
4.292199e-05 -1.678416e-05 1.030938e-07
4.294870e-05 -1.680175e-05 -1.169963e-07
4.290786e-05 -1.677907e-05 1.066756e-07
4.293552e-05 -1.679656e-05 -1.219266e-07
4.289329e-05 -1.677382e-05 1.100110e-07
4.292185e-05 -1.679118e-05 -1.265582e-07
4.287833e-05 -1.676840e-05 1.131004e-07
4.290772e-05 -1.678562e-05 -1.308917e-07
4.286300e-05 -1.676284e-05 1.159441e-07
4.289315e-05 -1.677989e-05 -1.349273e-07
4.284732e-05 -1.675715e-05 1.185426e-07
4.287818e-05 -1.677400e-05 -1.386654e-07
4.283134e-05 -1.675134e-05 1.208961e-07
4.286284e-05 -1.676797e-05 -1.421065e-07
4.281509e-05 -1.674542e-05 1.230051e-07
4.279858e-05 -1.673941e-05 1.248697e-07
4.284717e-05 -1.676181e-05 -1.452509e-07
4.278187e-05 -1.673331e-05 1.264904e-07
4.283118e-05 -1.675553e-05 -1.480990e-07
4.281186e-05 -1.674578e-05 -1.544750e-07
4.276497e-05 -1.672714e-05 1.278674e-07
4.279457e-05 -1.673927e-05 -1.566203e-07
4.274791e-05 -1.672091e-05 1.290013e-07
4.278170e-05 -1.673609e-05 -1.548694e-07
4.273074e-05 -1.671464e-05 1.298924e-07
4.276480e-05 -1.672945e-05 -1.565362e-07
4.271347e-05 -1.670833e-05 1.305414e-07
4.274774e-05 -1.672276e-05 -1.579086e-07
4.269614e-05 -1.670199e-05 1.309492e-07
4.273057e-05 -1.671601e-05 -1.589872e-07
4.267878e-05 -1.669565e-05 1.311170e-07
4.271330e-05 -1.670923e-05 -1.597724e-07
4.266143e-05 -1.668930e-05 1.310464e-07
4.269597e-05 -1.670243e-05 -1.602648e-07
4.264410e-05 -1.668296e-05 1.307398e-07
4.267861e-05 -1.669562e-05 -1.604652e-07
4.262684e-05 -1.667665e-05 1.302002e-07
4.266126e-05 -1.668881e-05 -1.603745e-07
4.260968e-05 -1.667037e-05 1.294323e-07
4.264394e-05 -1.668201e-05 -1.599939e-07
4.259265e-05 -1.666414e-05 1.284419e-07
4.262668e-05 -1.667524e-05 -1.593251e-07
4.257578e-05 -1.665796e-05 1.272374e-07
4.255912e-05 -1.665184e-05 1.258298e-07
4.260966e-05 -1.667037e-05 -1.294351e-07
4.260952e-05 -1.666851e-05 -1.583703e-07
4.254270e-05 -1.664580e-05 1.242333e-07
4.259263e-05 -1.666413e-05 -1.284447e-07
4.259249e-05 -1.666183e-05 -1.571329e-07
4.256291e-05 -1.665199e-05 -1.574691e-07
4.252657e-05 -1.663984e-05 1.224658e-07
4.254570e-05 -1.664550e-05 -1.555136e-07
4.251075e-05 -1.663396e-05 1.205479e-07
4.254256e-05 -1.664224e-05 -1.517834e-07
4.249529e-05 -1.662816e-05 1.184962e-07
4.252643e-05 -1.663591e-05 -1.494910e-07
4.248020e-05 -1.662245e-05 1.163209e-07
4.251062e-05 -1.662972e-05 -1.469788e-07
4.246548e-05 -1.661685e-05 1.140362e-07
4.249516e-05 -1.662367e-05 -1.442842e-07
4.245113e-05 -1.661135e-05 1.116623e-07
4.248008e-05 -1.661777e-05 -1.414528e-07
4.243713e-05 -1.660596e-05 1.092177e-07
4.246536e-05 -1.661203e-05 -1.385250e-07
4.242349e-05 -1.660070e-05 1.067174e-07
4.245102e-05 -1.660643e-05 -1.355287e-07
4.241019e-05 -1.659556e-05 1.041728e-07
4.243703e-05 -1.660097e-05 -1.324811e-07
4.239723e-05 -1.659054e-05 1.015924e-07
4.242339e-05 -1.659565e-05 -1.293934e-07
4.238461e-05 -1.658566e-05 9.898240e-08
4.237233e-05 -1.658090e-05 9.634713e-08
4.241010e-05 -1.659046e-05 -1.262726e-07
4.236038e-05 -1.657626e-05 9.368968e-08
4.239714e-05 -1.658541e-05 -1.231234e-07
4.237092e-05 -1.657823e-05 -1.203758e-07
4.234877e-05 -1.657176e-05 9.101215e-08
4.235877e-05 -1.657350e-05 -1.171125e-07
4.233750e-05 -1.656739e-05 8.831591e-08
4.236030e-05 -1.657103e-05 -1.135299e-07
4.232657e-05 -1.656316e-05 8.560182e-08
4.234870e-05 -1.656649e-05 -1.102880e-07
4.231598e-05 -1.655905e-05 8.287042e-08
4.233743e-05 -1.656209e-05 -1.070251e-07
4.230573e-05 -1.655508e-05 8.012194e-08
4.232650e-05 -1.655783e-05 -1.037415e-07
4.229583e-05 -1.655125e-05 7.735650e-08
4.231592e-05 -1.655369e-05 -1.004372e-07
4.228628e-05 -1.654755e-05 7.457408e-08
4.230567e-05 -1.654969e-05 -9.711228e-08
4.227707e-05 -1.654399e-05 7.177459e-08
4.229578e-05 -1.654583e-05 -9.376667e-08
4.226822e-05 -1.654056e-05 6.895792e-08
4.228623e-05 -1.654210e-05 -9.040028e-08
4.225972e-05 -1.653728e-05 6.612392e-08
4.227702e-05 -1.653850e-05 -8.701298e-08
4.225158e-05 -1.653413e-05 6.327244e-08
4.224379e-05 -1.653113e-05 6.040329e-08
4.226818e-05 -1.653505e-05 -8.360465e-08
4.223637e-05 -1.652826e-05 5.751633e-08
4.225968e-05 -1.653173e-05 -8.017517e-08
4.223959e-05 -1.652719e-05 -7.628202e-08
4.222931e-05 -1.652554e-05 5.461137e-08
4.225157e-05 -1.653413e-05 -6.327313e-08
4.223194e-05 -1.652423e-05 -7.273969e-08
4.222261e-05 -1.652296e-05 5.168825e-08
4.224379e-05 -1.653112e-05 -6.040399e-08
4.223634e-05 -1.652261e-05 -6.975843e-08
4.221628e-05 -1.652052e-05 4.874680e-08
4.222928e-05 -1.651985e-05 -6.624298e-08
4.221031e-05 -1.651822e-05 4.578687e-08
4.222258e-05 -1.651724e-05 -6.270571e-08
4.220472e-05 -1.651608e-05 4.280829e-08
4.221625e-05 -1.651476e-05 -5.914647e-08
4.219950e-05 -1.651407e-05 3.981094e-08
4.221029e-05 -1.651243e-05 -5.556512e-08
4.219465e-05 -1.651222e-05 3.679475e-08
4.220470e-05 -1.651025e-05 -5.196153e-08
4.219018e-05 -1.651051e-05 3.375972e-08
4.219948e-05 -1.650821e-05 -4.833554e-08
4.218609e-05 -1.650894e-05 3.070595e-08
4.219464e-05 -1.650632e-05 -4.468703e-08
4.218237e-05 -1.650753e-05 2.763372e-08
4.219017e-05 -1.650457e-05 -4.101590e-08
4.217904e-05 -1.650626e-05 2.454359e-08
4.217610e-05 -1.650515e-05 2.143648e-08
4.218607e-05 -1.650297e-05 -3.732206e-08
4.217354e-05 -1.650418e-05 1.831384e-08
4.218236e-05 -1.650152e-05 -3.360551e-08
4.216878e-05 -1.649982e-05 -2.847822e-08
4.217138e-05 -1.650337e-05 1.517785e-08
4.216596e-05 -1.649874e-05 -2.464138e-08
4.216961e-05 -1.650271e-05 1.203169e-08
4.217354e-05 -1.649806e-05 -2.232137e-08
4.216825e-05 -1.650220e-05 8.879872e-09
4.217138e-05 -1.649722e-05 -1.851685e-08
4.216729e-05 -1.650184e-05 5.728696e-09
4.216961e-05 -1.649652e-05 -1.469258e-08
4.216676e-05 -1.650163e-05 2.586762e-09
4.216825e-05 -1.649598e-05 -1.085061e-08
4.216665e-05 -1.650157e-05 -5.344587e-10
4.216729e-05 -1.649560e-05 -6.994090e-09
4.216697e-05 -1.650165e-05 -3.620181e-09
4.216675e-05 -1.649539e-05 -3.127849e-09
4.216775e-05 -1.650188e-05 -6.652560e-09
4.216664e-05 -1.649534e-05 7.406490e-10
4.216899e-05 -1.650224e-05 -9.613705e-09
4.216697e-05 -1.649546e-05 4.599753e-09
4.217069e-05 -1.650272e-05 -1.249264e-08
4.216775e-05 -1.649576e-05 8.430994e-09
4.217283e-05 -1.650333e-05 -1.527938e-08
4.217538e-05 -1.650407e-05 -1.795687e-08
4.216899e-05 -1.649624e-05 1.220555e-08
4.217831e-05 -1.650492e-05 -2.050684e-08
4.217068e-05 -1.649691e-05 1.588361e-08
4.216586e-05 -1.649838e-05 2.154858e-08
4.218159e-05 -1.650590e-05 -2.291382e-08
4.216911e-05 -1.649947e-05 2.489043e-08
4.218519e-05 -1.650698e-05 -2.516566e-08
4.217830e-05 -1.649995e-05 2.597923e-08
4.218907e-05 -1.650817e-05 -2.725318e-08
4.217830e-05 -1.650492e-05 2.050795e-08
4.218158e-05 -1.650125e-05 2.896084e-08
4.219322e-05 -1.650945e-05 -2.916960e-08
4.218158e-05 -1.650590e-05 2.291503e-08
4.218518e-05 -1.650267e-05 3.173270e-08
4.219761e-05 -1.651083e-05 -3.091000e-08
4.218906e-05 -1.650421e-05 3.428946e-08
4.220220e-05 -1.651228e-05 -3.247085e-08
4.219321e-05 -1.650585e-05 3.662755e-08
4.220697e-05 -1.651380e-05 -3.384967e-08
4.219759e-05 -1.650758e-05 3.874461e-08
4.221191e-05 -1.651538e-05 -3.504476e-08
4.220218e-05 -1.650939e-05 4.063903e-08
4.221699e-05 -1.651702e-05 -3.605495e-08
4.220696e-05 -1.651127e-05 4.230975e-08
4.222217e-05 -1.651870e-05 -3.687947e-08
4.221189e-05 -1.651322e-05 4.375604e-08
4.222745e-05 -1.652041e-05 -3.751782e-08
4.223280e-05 -1.652216e-05 -3.796968e-08
4.221696e-05 -1.651522e-05 4.497746e-08
4.223819e-05 -1.652392e-05 -3.823484e-08
4.222215e-05 -1.651726e-05 4.597367e-08
4.222883e-05 -1.652042e-05 4.791882e-08
4.224360e-05 -1.652568e-05 -3.831313e-08
4.223472e-05 -1.652252e-05 4.835852e-08
4.224901e-05 -1.652745e-05 -3.820444e-08
4.223816e-05 -1.652357e-05 4.760929e-08
4.225439e-05 -1.652921e-05 -3.790866e-08
4.224357e-05 -1.652570e-05 4.770310e-08
4.225972e-05 -1.653095e-05 -3.742564e-08
4.224898e-05 -1.652783e-05 4.757104e-08
4.226499e-05 -1.653266e-05 -3.675521e-08
4.225436e-05 -1.652995e-05 4.721300e-08
4.227016e-05 -1.653433e-05 -3.589718e-08
4.225970e-05 -1.653205e-05 4.662886e-08
4.227521e-05 -1.653596e-05 -3.485132e-08
4.226496e-05 -1.653413e-05 4.581848e-08
4.228013e-05 -1.653754e-05 -3.361734e-08
4.227013e-05 -1.653617e-05 4.478170e-08
4.228488e-05 -1.653905e-05 -3.219493e-08
4.227519e-05 -1.653816e-05 4.351832e-08
4.228944e-05 -1.654048e-05 -3.058377e-08
4.228010e-05 -1.654010e-05 4.202814e-08
4.229379e-05 -1.654184e-05 -2.878355e-08
4.229792e-05 -1.654310e-05 -2.679402e-08
4.228485e-05 -1.654197e-05 4.031091e-08
4.230179e-05 -1.654426e-05 -2.461507e-08
4.228941e-05 -1.654378e-05 3.836638e-08
4.230140e-05 -1.654620e-05 3.569234e-08
4.230538e-05 -1.654531e-05 -2.224684e-08
4.230593e-05 -1.654777e-05 3.313613e-08
4.230867e-05 -1.654625e-05 -1.968987e-08
4.230176e-05 -1.654866e-05 3.116628e-08
4.231163e-05 -1.654706e-05 -1.694535e-08
4.230535e-05 -1.655008e-05 2.831001e-08
4.231425e-05 -1.654773e-05 -1.401542e-08
4.230864e-05 -1.655139e-05 2.522546e-08
4.231649e-05 -1.654827e-05 -1.090360e-08
4.230865e-05 -1.654624e-05 1.969145e-08
4.231161e-05 -1.655257e-05 2.191285e-08
4.231834e-05 -1.654865e-05 -7.615408e-09
4.231161e-05 -1.654705e-05 1.694682e-08
4.231422e-05 -1.655361e-05 1.837276e-08
4.231975e-05 -1.654887e-05 -4.159102e-09
4.231647e-05 -1.655451e-05 1.460634e-08
4.232071e-05 -1.654893e-05 -5.467615e-10
4.231831e-05 -1.655526e-05 1.061562e-08
4.232118e-05 -1.654881e-05 3.204410e-09
4.231973e-05 -1.655584e-05 6.403877e-09
4.232111e-05 -1.654852e-05 7.070346e-09
4.232069e-05 -1.655625e-05 1.976251e-09
4.232047e-05 -1.654804e-05 1.101798e-08
4.231919e-05 -1.654739e-05 1.500280e-08
4.232116e-05 -1.655646e-05 -2.659398e-09
4.231721e-05 -1.654655e-05 1.896651e-08
4.232109e-05 -1.655647e-05 -7.491192e-09
4.233296e-05 -1.655594e-05 -1.526892e-08
4.231448e-05 -1.654555e-05 2.283621e-08
4.233189e-05 -1.655538e-05 -2.060086e-08
4.231093e-05 -1.654441e-05 2.652990e-08
4.231719e-05 -1.655506e-05 -2.293188e-08
4.230654e-05 -1.654317e-05 2.998426e-08
4.231445e-05 -1.655402e-05 -2.824439e-08
4.230133e-05 -1.654183e-05 3.315926e-08
4.231090e-05 -1.655264e-05 -3.349534e-08
4.229540e-05 -1.654039e-05 3.599494e-08
4.230651e-05 -1.655090e-05 -3.852942e-08
4.228887e-05 -1.653886e-05 3.840974e-08
4.230130e-05 -1.654880e-05 -4.316206e-08
4.228186e-05 -1.653723e-05 4.033009e-08
4.229537e-05 -1.654640e-05 -4.723398e-08
4.227452e-05 -1.653554e-05 4.169704e-08
4.228883e-05 -1.654376e-05 -5.063735e-08
4.226694e-05 -1.653381e-05 4.246568e-08
4.228183e-05 -1.654094e-05 -5.330421e-08
4.225926e-05 -1.653207e-05 4.260280e-08
4.227448e-05 -1.653798e-05 -5.519166e-08
4.225157e-05 -1.653035e-05 4.208439e-08
4.224398e-05 -1.652868e-05 4.089340e-08
4.226691e-05 -1.653494e-05 -5.627235e-08
4.223657e-05 -1.652709e-05 3.901791e-08
4.225923e-05 -1.653186e-05 -5.652863e-08
4.224473e-05 -1.652737e-05 -5.654709e-08
4.222945e-05 -1.652562e-05 3.644970e-08
4.223519e-05 -1.652441e-05 -5.466660e-08
4.222271e-05 -1.652430e-05 3.318296e-08
4.223655e-05 -1.652279e-05 -5.225685e-08
4.221643e-05 -1.652316e-05 2.921343e-08
4.222944e-05 -1.651995e-05 -4.913681e-08
4.221070e-05 -1.652225e-05 2.453747e-08
4.222270e-05 -1.651726e-05 -4.516508e-08
4.220562e-05 -1.652158e-05 1.915134e-08
4.222272e-05 -1.652430e-05 -3.319189e-08
4.221643e-05 -1.651475e-05 -4.034073e-08
4.220125e-05 -1.652120e-05 1.305041e-08
4.221644e-05 -1.652317e-05 -2.922261e-08
4.221071e-05 -1.651247e-05 -3.466306e-08
4.219769e-05 -1.652114e-05 6.228437e-09
4.220563e-05 -1.651043e-05 -2.813124e-08
4.219502e-05 -1.652144e-05 -1.323326e-09
4.220127e-05 -1.650868e-05 -2.074395e-08
4.219332e-05 -1.652213e-05 -9.617068e-09
4.219772e-05 -1.650724e-05 -1.249902e-08
4.219266e-05 -1.652324e-05 -1.866954e-08
4.219505e-05 -1.650616e-05 -3.393040e-09
4.219310e-05 -1.652481e-05 -2.850330e-08
4.219471e-05 -1.652687e-05 -3.914809e-08
4.219335e-05 -1.650545e-05 6.579159e-09
4.219754e-05 -1.652945e-05 -5.064238e-08
4.219269e-05 -1.650515e-05 1.742504e-08
4.216548e-05 -1.650630e-05 3.570757e-08
4.220163e-05 -1.653259e-05 -6.303486e-08
4.216580e-05 -1.650720e-05 4.899558e-08
4.220701e-05 -1.653631e-05 -7.638578e-08
4.219759e-05 -1.650692e-05 5.532927e-08
4.221368e-05 -1.654063e-05 -9.076790e-08
4.220168e-05 -1.650847e-05 6.981720e-08
4.222163e-05 -1.654557e-05 -1.062664e-07
4.220705e-05 -1.651051e-05 8.527885e-08
4.223082e-05 -1.655115e-05 -1.229777e-07
4.221372e-05 -1.651303e-05 1.017537e-07
4.224119e-05 -1.655735e-05 -1.410049e-07
4.222166e-05 -1.651604e-05 1.192902e-07
4.225265e-05 -1.656416e-05 -1.604507e-07
4.223084e-05 -1.651949e-05 1.379457e-07
4.226510e-05 -1.657154e-05 -1.814036e-07
4.224119e-05 -1.652335e-05 1.577870e-07
4.227842e-05 -1.657944e-05 -2.039162e-07
4.225264e-05 -1.652757e-05 1.788879e-07
4.229251e-05 -1.658777e-05 -2.279711e-07
4.226507e-05 -1.653206e-05 2.013264e-07
4.230730e-05 -1.659639e-05 -2.534300e-07
4.227836e-05 -1.653675e-05 2.251771e-07
4.232284e-05 -1.660514e-05 -2.799558e-07
4.233932e-05 -1.661375e-05 -3.068973e-07
4.229241e-05 -1.654154e-05 2.504999e-07
4.230715e-05 -1.654633e-05 2.773200e-07
4.235724e-05 -1.662188e-05 -3.331149e-07
4.223725e-05 -1.655119e-05 3.218433e-07
4.237756e-05 -1.662897e-05 -3.567087e-07
4.233891e-05 -1.655564e-05 3.351569e-07
4.240190e-05 -1.663414e-05 -3.745571e-07
4.235651e-05 -1.656014e-05 3.656080e-07
4.243379e-05 -1.663836e-05 -3.825604e-07
4.237615e-05 -1.656470e-05 3.961249e-07
4.258031e-05 -1.614367e-05 1.739604e-10
4.239914e-05 -1.656979e-05 4.251583e-07
4.223230e-05 -1.655558e-05 4.610721e-07
4.251440e-05 -1.657293e-05 3.248135e-07
4.275950e-05 -1.658938e-05 1.330222e-07
4.257556e-05 -1.660370e-05 4.276213e-07
4.246380e-05 -1.658318e-05 4.686748e-07
4.257226e-05 -1.614281e-05 3.770760e-09
4.255948e-05 -1.657204e-05 2.872692e-07
4.289692e-05 -1.661817e-05 1.963636e-07
4.249799e-05 -1.659273e-05 4.603939e-07
4.264819e-05 -1.664350e-05 2.355216e-07
4.256324e-05 -1.615711e-05 1.625376e-08
4.271152e-05 -1.632021e-05 6.155451e-09
4.254089e-05 -1.660734e-05 -3.265450e-07
4.262674e-05 -1.629092e-05 1.593669e-08
4.269298e-05 -1.629092e-05 1.755309e-10
4.268822e-05 -1.628457e-05 4.040073e-10
4.247503e-05 -1.663445e-05 -3.737379e-07
4.269311e-05 -1.629016e-05 5.702783e-10
4.273814e-05 -1.637104e-05 -2.091369e-08
4.270976e-05 -1.631683e-05 -5.971610e-09
4.261695e-05 -1.631683e-05 -4.659010e-08
4.260115e-05 -1.656702e-05 -2.452117e-07
4.267116e-05 -1.660114e-05 -3.040316e-07
4.262597e-05 -1.629016e-05 -1.460334e-08
4.280355e-05 -1.662199e-05 -1.721668e-07
4.274967e-05 -1.658709e-05 -1.307926e-07
4.277950e-05 -1.650509e-05 -5.753568e-08
4.274390e-05 -1.672686e-05 4.478349e-08
4.275338e-05 -1.643830e-05 -2.262308e-08
4.272606e-05 -1.665300e-05 -2.316763e-07
4.274130e-05 -1.641420e-05 -3.485597e-09
4.274100e-05 -1.641396e-05 4.984656e-09
4.261992e-05 -1.632055e-05 4.926279e-08
4.242911e-05 -1.663542e-05 3.843919e-07
4.275383e-05 -1.643717e-05 2.459647e-08
4.279199e-05 -1.655094e-05 1.498859e-07
4.246503e-05 -1.662926e-05 3.783187e-07
4.251523e-05 -1.659963e-05 3.413622e-07
4.279396e-05 -1.650576e-05 6.295345e-08
4.267612e-05 -1.663300e-05 3.313361e-07
4.267242e-05 -1.641396e-05 1.479092e-08
4.264359e-05 -1.665214e-05 3.820966e-07
4.266767e-05 -1.643717e-05 5.951647e-08
4.239973e-05 -1.663267e-05 3.754813e-07
4.237658e-05 -1.662836e-05 3.573079e-07
4.259870e-05 -1.665637e-05 3.889407e-07
4.235684e-05 -1.662172e-05 3.335420e-07
4.255282e-05 -1.665047e-05 3.809789e-07
4.233917e-05 -1.661377e-05 3.071978e-07
4.251457e-05 -1.664170e-05 3.657978e-07
4.232282e-05 -1.660521e-05 2.801616e-07
4.247928e-05 -1.663211e-05 3.429392e-07
4.230734e-05 -1.659647e-05 2.535659e-07
4.244707e-05 -1.662191e-05 3.167989e-07
4.244719e-05 -1.667130e-05 -2.629975e-07
4.229258e-05 -1.658784e-05 2.280561e-07
4.241776e-05 -1.661163e-05 2.895689e-07
4.227850e-05 -1.657951e-05 2.039650e-07
4.239105e-05 -1.660161e-05 2.625424e-07
4.239110e-05 -1.664757e-05 -2.217552e-07
4.226518e-05 -1.657160e-05 1.814275e-07
4.236671e-05 -1.659202e-05 2.364828e-07
4.225273e-05 -1.656420e-05 1.604578e-07
4.234453e-05 -1.658297e-05 2.118051e-07
4.243818e-05 -1.664163e-05 -2.050128e-07
4.224127e-05 -1.655739e-05 1.410013e-07
4.232436e-05 -1.657451e-05 1.886963e-07
4.223090e-05 -1.655118e-05 1.229677e-07
4.230611e-05 -1.656668e-05 1.671998e-07
4.222170e-05 -1.654560e-05 1.062529e-07
4.228969e-05 -1.655951e-05 1.472738e-07
4.221375e-05 -1.654066e-05 9.075272e-08
4.227505e-05 -1.655301e-05 1.288303e-07
4.220707e-05 -1.653633e-05 7.637016e-08
4.226211e-05 -1.654717e-05 1.117615e-07
4.220169e-05 -1.653261e-05 6.301950e-08
4.225083e-05 -1.654198e-05 9.595559e-08
4.219759e-05 -1.652947e-05 5.062766e-08
4.224115e-05 -1.653743e-05 8.130692e-08
4.219476e-05 -1.652688e-05 3.913417e-08
4.223301e-05 -1.653349e-05 6.772078e-08
4.219314e-05 -1.652482e-05 2.849020e-08
4.222633e-05 -1.653015e-05 5.511565e-08
4.222631e-05 -1.654921e-05 -4.731986e-08
4.219269e-05 -1.652325e-05 1.865723e-08
4.222106e-05 -1.652737e-05 4.342356e-08
4.219335e-05 -1.652214e-05 9.605455e-09
4.221712e-05 -1.652512e-05 3.258922e-08
4.221709e-05 -1.654146e-05 -2.910050e-08
4.219505e-05 -1.652145e-05 1.312303e-09
4.221444e-05 -1.652337e-05 2.256873e-08
4.223309e-05 -1.653938e-05 -2.333801e-08
4.219772e-05 -1.652115e-05 -6.238959e-09
4.221293e-05 -1.652210e-05 1.332793e-08
4.220127e-05 -1.652121e-05 -1.306051e-08
4.221252e-05 -1.652126e-05 4.840802e-09
4.220564e-05 -1.652159e-05 -1.916108e-08
4.221313e-05 -1.652082e-05 -2.912075e-09
4.221072e-05 -1.652225e-05 -2.454692e-08
4.221466e-05 -1.652075e-05 -9.944886e-09
4.221705e-05 -1.652102e-05 -1.626782e-08
4.222019e-05 -1.652159e-05 -2.188808e-08
4.222946e-05 -1.652562e-05 -3.645838e-08
4.222401e-05 -1.652242e-05 -2.681083e-08
4.223658e-05 -1.652709e-05 -3.902635e-08
4.222842e-05 -1.652349e-05 -3.103995e-08
4.222401e-05 -1.652959e-05 1.798698e-08
4.224398e-05 -1.652868e-05 -4.090155e-08
4.223333e-05 -1.652475e-05 -3.457885e-08
4.225157e-05 -1.653035e-05 -4.209223e-08
4.223865e-05 -1.652618e-05 -3.743116e-08
4.223866e-05 -1.653011e-05 2.632210e-08
4.225926e-05 -1.653207e-05 -4.261030e-08
4.224429e-05 -1.652775e-05 -3.960154e-08
4.226694e-05 -1.653381e-05 -4.247279e-08
4.225018e-05 -1.652940e-05 -4.109657e-08
4.225019e-05 -1.653120e-05 2.923024e-08
4.227451e-05 -1.653554e-05 -4.170373e-08
4.225620e-05 -1.653112e-05 -4.192574e-08
4.225446e-05 -1.653145e-05 2.968798e-08
4.228185e-05 -1.653723e-05 -4.033630e-08
4.226228e-05 -1.653288e-05 -4.210275e-08
4.228885e-05 -1.653885e-05 -3.841543e-08
4.226832e-05 -1.653463e-05 -4.164695e-08
4.226231e-05 -1.653261e-05 3.012247e-08
4.229538e-05 -1.654038e-05 -3.600007e-08
4.227424e-05 -1.653634e-05 -4.058514e-08
4.226835e-05 -1.653338e-05 2.986127e-08
4.230131e-05 -1.654182e-05 -3.316378e-08
4.227994e-05 -1.653800e-05 -3.895354e-08
4.230652e-05 -1.654316e-05 -2.998813e-08
4.228533e-05 -1.653957e-05 -3.679963e-08
4.231091e-05 -1.654440e-05 -2.653312e-08
4.229034e-05 -1.654104e-05 -3.418311e-08
4.231446e-05 -1.654554e-05 -2.283879e-08
4.229490e-05 -1.654241e-05 -3.117398e-08
4.231719e-05 -1.654654e-05 -1.896849e-08
4.229898e-05 -1.654370e-05 -2.784442e-08
4.231916e-05 -1.654738e-05 -1.500422e-08
4.230253e-05 -1.654493e-05 -2.426204e-08
4.232044e-05 -1.654803e-05 -1.101889e-08
4.230552e-05 -1.654604e-05 -2.049491e-08
4.230554e-05 -1.653996e-05 1.577847e-08
4.232109e-05 -1.654851e-05 -7.070797e-09
4.230794e-05 -1.654700e-05 -1.661571e-08
4.232116e-05 -1.654880e-05 -3.204449e-09
4.230978e-05 -1.654779e-05 -1.269417e-08
4.230980e-05 -1.654158e-05 1.022665e-08
4.232069e-05 -1.654892e-05 5.470883e-10
4.231105e-05 -1.654838e-05 -8.789517e-09
4.230315e-05 -1.654196e-05 8.464958e-09
4.231973e-05 -1.654886e-05 4.159747e-09
4.231179e-05 -1.654879e-05 -4.948841e-09
4.231831e-05 -1.654864e-05 7.616319e-09
4.231201e-05 -1.654901e-05 -1.208183e-09
4.231647e-05 -1.654826e-05 1.090474e-08
4.231174e-05 -1.654905e-05 2.405637e-09
4.231423e-05 -1.654773e-05 1.401674e-08
4.231100e-05 -1.654891e-05 5.873108e-09
4.230982e-05 -1.654861e-05 9.180361e-09
4.230823e-05 -1.654816e-05 1.231775e-08
4.230536e-05 -1.654531e-05 2.224849e-08
4.230625e-05 -1.654755e-05 1.527878e-08
4.230177e-05 -1.654425e-05 2.461678e-08
4.230391e-05 -1.654680e-05 1.805923e-08
4.230627e-05 -1.654304e-05 -1.114933e-08
4.229790e-05 -1.654309e-05 2.679577e-08
4.230122e-05 -1.654592e-05 2.065647e-08
4.229378e-05 -1.654183e-05 2.878533e-08
4.229822e-05 -1.654492e-05 2.306903e-08
4.229824e-05 -1.654128e-05 -1.726857e-08
4.228942e-05 -1.654048e-05 3.058557e-08
4.229493e-05 -1.654380e-05 2.529616e-08
4.228486e-05 -1.653904e-05 3.219674e-08
4.229136e-05 -1.654258e-05 2.733761e-08
4.229139e-05 -1.653953e-05 -2.062741e-08
4.228011e-05 -1.653753e-05 3.361916e-08
4.228756e-05 -1.654126e-05 2.919344e-08
4.228621e-05 -1.653910e-05 -2.103246e-08
4.227520e-05 -1.653596e-05 3.485314e-08
4.228352e-05 -1.653985e-05 3.086389e-08
4.227015e-05 -1.653433e-05 3.589901e-08
4.227929e-05 -1.653837e-05 3.234926e-08
4.226498e-05 -1.653265e-05 3.675703e-08
4.227488e-05 -1.653682e-05 3.364991e-08
4.225971e-05 -1.653094e-05 3.742745e-08
4.227032e-05 -1.653521e-05 3.476615e-08
4.225438e-05 -1.652920e-05 3.791047e-08
4.226563e-05 -1.653354e-05 3.569830e-08
4.224899e-05 -1.652745e-05 3.820625e-08
4.226084e-05 -1.653184e-05 3.644661e-08
4.226565e-05 -1.653223e-05 -2.720591e-08
4.224359e-05 -1.652568e-05 3.831494e-08
4.225596e-05 -1.653010e-05 3.701132e-08
4.226086e-05 -1.653082e-05 -2.779426e-08
4.223818e-05 -1.652391e-05 3.823663e-08
4.225102e-05 -1.652834e-05 3.739258e-08
4.223279e-05 -1.652215e-05 3.797147e-08
4.224605e-05 -1.652657e-05 3.759056e-08
4.222744e-05 -1.652041e-05 3.751960e-08
4.224106e-05 -1.652479e-05 3.760536e-08
4.224108e-05 -1.652492e-05 -2.870435e-08
4.222216e-05 -1.651869e-05 3.688123e-08
4.223608e-05 -1.652302e-05 3.743709e-08
4.221698e-05 -1.651701e-05 3.605668e-08
4.223113e-05 -1.652126e-05 3.708589e-08
4.223115e-05 -1.652196e-05 -2.829559e-08
4.221190e-05 -1.651538e-05 3.504646e-08
4.222625e-05 -1.651952e-05 3.655189e-08
4.222965e-05 -1.652121e-05 -2.757655e-08
4.220697e-05 -1.651380e-05 3.385134e-08
4.222144e-05 -1.651781e-05 3.583535e-08
4.220219e-05 -1.651227e-05 3.247247e-08
4.221673e-05 -1.651614e-05 3.493664e-08
4.219760e-05 -1.651082e-05 3.091156e-08
4.221215e-05 -1.651452e-05 3.385634e-08
4.219322e-05 -1.650945e-05 2.917109e-08
4.220772e-05 -1.651296e-05 3.259535e-08
4.218907e-05 -1.650817e-05 2.725459e-08
4.220347e-05 -1.651147e-05 3.115503e-08
4.218518e-05 -1.650698e-05 2.516697e-08
4.219941e-05 -1.651005e-05 2.953737e-08
4.219556e-05 -1.650871e-05 2.774520e-08
4.219197e-05 -1.650747e-05 2.578252e-08
4.217537e-05 -1.650407e-05 1.795785e-08
4.218864e-05 -1.650633e-05 2.365486e-08
4.217282e-05 -1.650333e-05 1.528022e-08
4.218560e-05 -1.650530e-05 2.136965e-08
4.218864e-05 -1.650982e-05 -1.783068e-08
4.217069e-05 -1.650272e-05 1.249334e-08
4.218287e-05 -1.650439e-05 1.893671e-08
4.218288e-05 -1.650834e-05 -1.421939e-08
4.216899e-05 -1.650224e-05 9.614250e-09
4.218048e-05 -1.650359e-05 1.636856e-08
4.218049e-05 -1.650775e-05 -1.227130e-08
4.216775e-05 -1.650188e-05 6.652959e-09
4.217845e-05 -1.650292e-05 1.368036e-08
4.218435e-05 -1.650743e-05 -1.111919e-08
4.216697e-05 -1.650165e-05 3.620432e-09
4.217678e-05 -1.650238e-05 1.088874e-08
4.216664e-05 -1.650157e-05 5.345752e-10
4.217550e-05 -1.650195e-05 8.009644e-09
4.216675e-05 -1.650163e-05 -2.586769e-09
4.217460e-05 -1.650164e-05 5.058272e-09
4.216729e-05 -1.650183e-05 -5.728816e-09
4.217410e-05 -1.650148e-05 2.050781e-09
4.216825e-05 -1.650219e-05 -8.880091e-09
4.217401e-05 -1.650145e-05 -9.963493e-10
4.216961e-05 -1.650271e-05 -1.203200e-08
4.217433e-05 -1.650158e-05 -4.068467e-09
4.217138e-05 -1.650337e-05 -1.517824e-08
4.217505e-05 -1.650186e-05 -7.153624e-09
4.217354e-05 -1.650418e-05 -1.831430e-08
4.217617e-05 -1.650229e-05 -1.024257e-08
4.217505e-05 -1.650673e-05 5.592725e-09
4.217610e-05 -1.650515e-05 -2.143700e-08
4.217768e-05 -1.650287e-05 -1.332834e-08
4.217617e-05 -1.650716e-05 7.991035e-09
4.217904e-05 -1.650626e-05 -2.454415e-08
4.217960e-05 -1.650360e-05 -1.640585e-08
4.217960e-05 -1.650845e-05 1.279902e-08
4.218237e-05 -1.650753e-05 -2.763432e-08
4.218191e-05 -1.650449e-05 -1.947145e-08
4.218608e-05 -1.650894e-05 -3.070657e-08
4.218461e-05 -1.650553e-05 -2.252261e-08
4.218461e-05 -1.651033e-05 1.758897e-08
4.219017e-05 -1.651050e-05 -3.376037e-08
4.218769e-05 -1.650672e-05 -2.555761e-08
4.219152e-05 -1.651077e-05 1.829329e-08
4.219465e-05 -1.651221e-05 -3.679542e-08
4.219117e-05 -1.650806e-05 -2.857535e-08
4.219949e-05 -1.651407e-05 -3.981162e-08
4.219502e-05 -1.650955e-05 -3.157514e-08
4.220472e-05 -1.651607e-05 -4.280897e-08
4.219926e-05 -1.651118e-05 -3.455662e-08
4.221031e-05 -1.651822e-05 -4.578755e-08
4.220387e-05 -1.651297e-05 -3.751962e-08
4.221627e-05 -1.652052e-05 -4.874750e-08
4.220886e-05 -1.651490e-05 -4.046411e-08
4.222260e-05 -1.652295e-05 -5.168895e-08
4.221422e-05 -1.651698e-05 -4.339016e-08
4.222930e-05 -1.652554e-05 -5.461206e-08
4.221996e-05 -1.651920e-05 -4.629788e-08
4.223636e-05 -1.652826e-05 -5.751702e-08
4.222606e-05 -1.652156e-05 -4.918741e-08
4.223253e-05 -1.652408e-05 -5.205892e-08
4.223937e-05 -1.652673e-05 -5.491259e-08
4.223940e-05 -1.653121e-05 4.301755e-08
4.225972e-05 -1.653728e-05 -6.612461e-08
4.224657e-05 -1.652952e-05 -5.774858e-08
4.226821e-05 -1.654056e-05 -6.895862e-08
4.225414e-05 -1.653246e-05 -6.056706e-08
4.227707e-05 -1.654399e-05 -7.177528e-08
4.226206e-05 -1.653554e-05 -6.336822e-08
4.226305e-05 -1.653828e-05 4.726840e-08
4.228627e-05 -1.654755e-05 -7.457478e-08
4.227034e-05 -1.653875e-05 -6.615222e-08
4.229582e-05 -1.655125e-05 -7.735720e-08
4.227897e-05 -1.654211e-05 -6.891922e-08
4.230572e-05 -1.655508e-05 -8.012266e-08
4.228796e-05 -1.654560e-05 -7.166939e-08
4.231597e-05 -1.655905e-05 -8.287115e-08
4.229730e-05 -1.654924e-05 -7.440287e-08
4.232656e-05 -1.656315e-05 -8.560257e-08
4.230699e-05 -1.655300e-05 -7.711978e-08
4.233749e-05 -1.656739e-05 -8.831669e-08
4.231703e-05 -1.655691e-05 -7.982018e-08
4.234876e-05 -1.657176e-05 -9.101296e-08
4.232741e-05 -1.656094e-05 -8.250406e-08
4.236037e-05 -1.657626e-05 -9.369054e-08
4.233813e-05 -1.656512e-05 -8.517127e-08
4.237232e-05 -1.658089e-05 -9.634804e-08
4.234920e-05 -1.656942e-05 -8.782145e-08
4.238460e-05 -1.658565e-05 -9.898338e-08
4.236061e-05 -1.657386e-05 -9.045399e-08
4.234926e-05 -1.657360e-05 6.885297e-08
4.239722e-05 -1.659054e-05 -1.015935e-07
4.237236e-05 -1.657843e-05 -9.306783e-08
4.236067e-05 -1.657801e-05 7.091709e-08
4.241018e-05 -1.659556e-05 -1.041740e-07
4.238444e-05 -1.658313e-05 -9.566133e-08
4.238451e-05 -1.658722e-05 7.499283e-08
4.242348e-05 -1.660070e-05 -1.067186e-07
4.239686e-05 -1.658796e-05 -9.823205e-08
4.239526e-05 -1.658951e-05 7.398244e-08
4.243712e-05 -1.660596e-05 -1.092190e-07
4.240961e-05 -1.659292e-05 -1.007765e-07
4.245112e-05 -1.661134e-05 -1.116638e-07
4.242270e-05 -1.659800e-05 -1.032896e-07
4.246547e-05 -1.661684e-05 -1.140378e-07
4.243611e-05 -1.660321e-05 -1.057645e-07
4.248019e-05 -1.662245e-05 -1.163227e-07
4.244986e-05 -1.660855e-05 -1.081921e-07
4.249528e-05 -1.662816e-05 -1.184982e-07
4.246394e-05 -1.661400e-05 -1.105602e-07
4.251074e-05 -1.663395e-05 -1.205500e-07
4.247834e-05 -1.661957e-05 -1.128537e-07
4.252655e-05 -1.663983e-05 -1.224681e-07
4.249306e-05 -1.662524e-05 -1.150552e-07
4.254269e-05 -1.664579e-05 -1.242357e-07
4.250807e-05 -1.663100e-05 -1.171466e-07
4.255911e-05 -1.665184e-05 -1.258323e-07
4.252338e-05 -1.663685e-05 -1.191111e-07
4.257577e-05 -1.665795e-05 -1.272401e-07
4.253895e-05 -1.664277e-05 -1.209317e-07
4.253906e-05 -1.664557e-05 9.413769e-08
4.255477e-05 -1.664877e-05 -1.225901e-07
4.257083e-05 -1.665485e-05 -1.240690e-07
4.257094e-05 -1.665710e-05 9.645988e-08
4.262682e-05 -1.667664e-05 -1.302032e-07
4.258708e-05 -1.666100e-05 -1.253538e-07
4.257532e-05 -1.665962e-05 3.929135e-08
4.264408e-05 -1.668296e-05 -1.307428e-07
4.260350e-05 -1.666721e-05 -1.264329e-07
4.266140e-05 -1.668929e-05 -1.310495e-07
4.262006e-05 -1.667348e-05 -1.272973e-07
4.267876e-05 -1.669564e-05 -1.311201e-07
4.263673e-05 -1.667978e-05 -1.279403e-07
4.269612e-05 -1.670198e-05 -1.309524e-07
4.265348e-05 -1.668612e-05 -1.283570e-07
4.271344e-05 -1.670832e-05 -1.305446e-07
4.267027e-05 -1.669247e-05 -1.285436e-07
4.273071e-05 -1.671463e-05 -1.298956e-07
4.268708e-05 -1.669883e-05 -1.284976e-07
4.274789e-05 -1.672090e-05 -1.290045e-07
4.270388e-05 -1.670518e-05 -1.282171e-07
4.276494e-05 -1.672713e-05 -1.278707e-07
4.272064e-05 -1.671152e-05 -1.277008e-07
4.278184e-05 -1.673330e-05 -1.264936e-07
4.273731e-05 -1.671782e-05 -1.269475e-07
4.279855e-05 -1.673940e-05 -1.248730e-07
4.275389e-05 -1.672409e-05 -1.259568e-07
4.281505e-05 -1.674541e-05 -1.230083e-07
4.277032e-05 -1.673030e-05 -1.247280e-07
4.277610e-05 -1.672962e-05 6.671999e-08
4.283131e-05 -1.675133e-05 -1.208994e-07
4.278659e-05 -1.673645e-05 -1.232607e-07
4.277045e-05 -1.672829e-05 9.682198e-08
4.284729e-05 -1.675714e-05 -1.185458e-07
4.280265e-05 -1.674252e-05 -1.215545e-07
4.278206e-05 -1.673242e-05 6.417985e-08
4.286296e-05 -1.676283e-05 -1.159474e-07
4.281849e-05 -1.674850e-05 -1.196092e-07
4.287829e-05 -1.676839e-05 -1.131036e-07
4.283407e-05 -1.675438e-05 -1.174243e-07
4.289325e-05 -1.677380e-05 -1.100142e-07
4.284935e-05 -1.676014e-05 -1.149997e-07
4.290782e-05 -1.677906e-05 -1.066789e-07
4.286431e-05 -1.676578e-05 -1.123350e-07
4.292194e-05 -1.678415e-05 -1.030971e-07
4.287892e-05 -1.677128e-05 -1.094298e-07
4.293561e-05 -1.678905e-05 -9.926854e-08
4.289314e-05 -1.677663e-05 -1.062838e-07
4.294878e-05 -1.679376e-05 -9.519282e-08
4.290694e-05 -1.678182e-05 -1.028965e-07
4.296142e-05 -1.679827e-05 -9.086961e-08
4.292030e-05 -1.678683e-05 -9.926767e-08
4.297351e-05 -1.680256e-05 -8.629865e-08
4.293317e-05 -1.679165e-05 -9.539681e-08
4.298501e-05 -1.680661e-05 -8.147987e-08
4.294553e-05 -1.679628e-05 -9.128355e-08
4.299588e-05 -1.681043e-05 -7.641349e-08
4.295735e-05 -1.680069e-05 -8.692758e-08
4.295743e-05 -1.679381e-05 6.714073e-08
4.300611e-05 -1.681399e-05 -7.110016e-08
4.296859e-05 -1.680487e-05 -8.232870e-08
4.301565e-05 -1.681728e-05 -6.554119e-08
4.297922e-05 -1.680882e-05 -7.748692e-08
4.297930e-05 -1.680119e-05 5.972803e-08
4.298921e-05 -1.681252e-05 -7.240257e-08
4.297549e-05 -1.680309e-05 5.651140e-08
4.299854e-05 -1.681596e-05 -6.707654e-08
4.303984e-05 -1.682543e-05 -4.742130e-08
4.300716e-05 -1.681912e-05 -6.151048e-08
4.304630e-05 -1.682754e-05 -4.092020e-08
4.301504e-05 -1.682199e-05 -5.570721e-08
4.300722e-05 -1.681036e-05 4.719540e-08
4.305191e-05 -1.682933e-05 -3.420603e-08
4.302216e-05 -1.682457e-05 -4.967118e-08
4.305661e-05 -1.683078e-05 -2.729620e-08
4.302847e-05 -1.682684e-05 -4.340913e-08
4.306036e-05 -1.683189e-05 -2.021489e-08
4.303395e-05 -1.682879e-05 -3.693091e-08
4.306311e-05 -1.683265e-05 -1.299503e-08
4.303856e-05 -1.683040e-05 -3.025059e-08
4.306478e-05 -1.683306e-05 -5.680455e-09
4.304226e-05 -1.683167e-05 -2.338773e-08
4.306533e-05 -1.683312e-05 1.672828e-09
4.304503e-05 -1.683259e-05 -1.636900e-08
4.306468e-05 -1.683285e-05 8.998703e-09
4.304684e-05 -1.683315e-05 -9.229757e-09
4.304688e-05 -1.682204e-05 6.765367e-09
4.306279e-05 -1.683226e-05 1.623755e-08
4.304765e-05 -1.683336e-05 -2.015296e-09
4.305967e-05 -1.683138e-05 2.335384e-08
4.304745e-05 -1.683322e-05 5.219487e-09
4.304749e-05 -1.682205e-05 -4.044554e-09
4.305535e-05 -1.683018e-05 3.030514e-08
4.304624e-05 -1.683277e-05 1.241470e-08
4.304993e-05 -1.682867e-05 3.702586e-08
4.304403e-05 -1.683203e-05 1.951303e-08
4.303396e-05 -1.682201e-05 -6.591912e-09
4.304350e-05 -1.682685e-05 4.345310e-08
4.304085e-05 -1.683100e-05 2.645937e-08
4.303614e-05 -1.682472e-05 4.953562e-08
4.303670e-05 -1.682966e-05 3.319504e-08
4.302796e-05 -1.682231e-05 5.523416e-08
4.303163e-05 -1.682801e-05 3.966118e-08
4.301903e-05 -1.681964e-05 6.051960e-08
4.302568e-05 -1.682604e-05 4.580642e-08
4.300943e-05 -1.681672e-05 6.537087e-08
4.301892e-05 -1.682378e-05 5.158949e-08
4.267177e-05 -1.663950e-05 -3.144522e-07
4.267195e-05 -1.641420e-05 -1.415893e-08
4.299922e-05 -1.681357e-05 6.977305e-08
4.301141e-05 -1.682123e-05 5.697873e-08
4.264298e-05 -1.665973e-05 -3.723326e-07
4.266648e-05 -1.643830e-05 -5.971509e-08
4.298849e-05 -1.681023e-05 7.371582e-08
4.300321e-05 -1.681842e-05 6.195067e-08
4.259904e-05 -1.666047e-05 -3.847551e-07
4.297728e-05 -1.680671e-05 7.719225e-08
4.299437e-05 -1.681537e-05 6.648833e-08
4.255370e-05 -1.668140e-05 2.904280e-07
4.255304e-05 -1.665256e-05 -3.788661e-07
4.296567e-05 -1.680303e-05 8.019789e-08
4.298498e-05 -1.681211e-05 7.057976e-08
4.251525e-05 -1.668551e-05 2.908971e-07
4.251450e-05 -1.664263e-05 -3.645824e-07
4.295371e-05 -1.679922e-05 8.273005e-08
4.297508e-05 -1.680866e-05 7.421680e-08
4.297516e-05 -1.680342e-05 -5.620913e-08
4.247981e-05 -1.668076e-05 2.801569e-07
4.247901e-05 -1.663243e-05 -3.421805e-07
4.294148e-05 -1.679530e-05 8.478727e-08
4.296475e-05 -1.680504e-05 7.739409e-08
4.292902e-05 -1.679130e-05 8.636896e-08
4.295404e-05 -1.680127e-05 8.010831e-08
4.295412e-05 -1.679747e-05 -6.082717e-08
4.241809e-05 -1.666017e-05 2.432539e-07
4.241750e-05 -1.661157e-05 -2.892894e-07
4.291640e-05 -1.678723e-05 8.747507e-08
4.294301e-05 -1.679738e-05 8.235755e-08
4.294467e-05 -1.679599e-05 -6.068743e-08
4.234470e-05 -1.662291e-05 1.795670e-07
4.236653e-05 -1.659194e-05 -2.363785e-07
4.293172e-05 -1.679339e-05 8.414092e-08
4.234438e-05 -1.658290e-05 -2.117459e-07
4.292025e-05 -1.678933e-05 8.545818e-08
4.232450e-05 -1.661126e-05 1.598452e-07
4.232424e-05 -1.657445e-05 -1.886670e-07
4.287818e-05 -1.677489e-05 8.794377e-08
4.290863e-05 -1.678522e-05 8.630954e-08
4.230622e-05 -1.660041e-05 1.414265e-07
4.230601e-05 -1.656664e-05 -1.671902e-07
4.286551e-05 -1.677081e-05 8.715206e-08
4.289695e-05 -1.678108e-05 8.669544e-08
4.290872e-05 -1.678430e-05 -6.570932e-08
4.228978e-05 -1.659045e-05 1.243750e-07
4.228961e-05 -1.655948e-05 -1.472766e-07
4.285298e-05 -1.676678e-05 8.588738e-08
4.288525e-05 -1.677693e-05 8.661646e-08
4.227512e-05 -1.658142e-05 1.086676e-07
4.227498e-05 -1.655298e-05 -1.288406e-07
4.284064e-05 -1.676282e-05 8.415026e-08
4.287359e-05 -1.677280e-05 8.607323e-08
4.226217e-05 -1.657331e-05 9.423287e-08
4.226205e-05 -1.654714e-05 -1.117759e-07
4.282856e-05 -1.675897e-05 8.194115e-08
4.286204e-05 -1.676872e-05 8.506638e-08
4.225087e-05 -1.656608e-05 8.097651e-08
4.225078e-05 -1.654195e-05 -9.597195e-08
4.281679e-05 -1.675524e-05 7.926037e-08
4.285065e-05 -1.676470e-05 8.359646e-08
4.224118e-05 -1.655969e-05 6.879810e-08
4.224110e-05 -1.653740e-05 -8.132385e-08
4.280539e-05 -1.675166e-05 7.610818e-08
4.283949e-05 -1.676077e-05 8.166395e-08
4.223303e-05 -1.655409e-05 5.760098e-08
4.223296e-05 -1.653347e-05 -6.773744e-08
4.279442e-05 -1.674824e-05 7.248471e-08
4.282861e-05 -1.675695e-05 7.926924e-08
4.282868e-05 -1.676106e-05 -6.020517e-08
4.278394e-05 -1.674502e-05 6.838999e-08
4.281808e-05 -1.675326e-05 7.641259e-08
4.222103e-05 -1.652735e-05 -4.343861e-08
4.277400e-05 -1.674201e-05 6.382403e-08
4.280794e-05 -1.674973e-05 7.309417e-08
4.280800e-05 -1.675527e-05 -5.535845e-08
4.221444e-05 -1.653847e-05 2.105233e-08
4.221441e-05 -1.652336e-05 -2.258197e-08
4.276467e-05 -1.673923e-05 5.878683e-08
4.279827e-05 -1.674639e-05 6.931404e-08
4.221293e-05 -1.653599e-05 1.368453e-08
4.221291e-05 -1.652209e-05 -1.334039e-08
4.275600e-05 -1.673672e-05 5.327847e-08
4.278911e-05 -1.674324e-05 6.507217e-08
4.221252e-05 -1.653398e-05 6.945357e-09
4.221250e-05 -1.652125e-05 -4.852584e-09
4.274805e-05 -1.673449e-05 4.729927e-08
4.278053e-05 -1.674032e-05 6.036851e-08
4.278915e-05 -1.675021e-05 -4.905857e-08
4.221313e-05 -1.653241e-05 8.100269e-10
4.221310e-05 -1.652081e-05 2.900848e-09
4.274087e-05 -1.673256e-05 4.084997e-08
4.277259e-05 -1.673765e-05 5.520303e-08
4.221466e-05 -1.653122e-05 -4.740083e-09
4.221464e-05 -1.652075e-05 9.934131e-09
4.273453e-05 -1.673096e-05 3.393203e-08
4.276534e-05 -1.673526e-05 4.957582e-08
4.221705e-05 -1.653038e-05 -9.718846e-09
4.221703e-05 -1.652101e-05 1.625745e-08
4.272909e-05 -1.672970e-05 2.654801e-08
4.275884e-05 -1.673315e-05 4.348729e-08
4.222020e-05 -1.652985e-05 -1.413653e-08
4.222018e-05 -1.652158e-05 2.187803e-08
4.272461e-05 -1.672882e-05 1.870211e-08
4.275316e-05 -1.673136e-05 3.693837e-08
4.222843e-05 -1.652957e-05 -2.131831e-08
4.222400e-05 -1.652242e-05 2.680106e-08
4.272114e-05 -1.672832e-05 1.040095e-08
4.274835e-05 -1.672991e-05 2.993084e-08
4.222841e-05 -1.652349e-05 3.103043e-08
4.271875e-05 -1.672824e-05 1.654498e-09
4.274446e-05 -1.672882e-05 2.246781e-08
4.223334e-05 -1.652976e-05 -2.409438e-08
4.223332e-05 -1.652475e-05 3.456957e-08
4.271751e-05 -1.672858e-05 -7.522558e-09
4.274157e-05 -1.672811e-05 1.455430e-08
4.271750e-05 -1.672938e-05 -1.710914e-08
4.273973e-05 -1.672781e-05 6.198118e-09
4.273973e-05 -1.674117e-05 -2.891639e-09
4.224429e-05 -1.652774e-05 3.959279e-08
4.271880e-05 -1.673064e-05 -2.707559e-08
4.273900e-05 -1.672793e-05 -2.589096e-09
4.225622e-05 -1.653187e-05 -2.993197e-08
4.225621e-05 -1.653113e-05 4.191763e-08
4.272149e-05 -1.673240e-05 -3.738094e-08
4.273945e-05 -1.672850e-05 -1.179045e-08
4.273945e-05 -1.674317e-05 1.109366e-08
4.226834e-05 -1.653338e-05 -2.987203e-08
4.226229e-05 -1.653288e-05 4.209502e-08
4.272568e-05 -1.673465e-05 -4.796991e-08
4.274113e-05 -1.672954e-05 -2.138203e-08
4.275732e-05 -1.674362e-05 1.388467e-08
4.227426e-05 -1.653416e-05 -2.917738e-08
4.226833e-05 -1.653463e-05 4.163965e-08
4.273146e-05 -1.673740e-05 -5.877011e-08
4.274412e-05 -1.673106e-05 -3.133081e-08
4.227425e-05 -1.653635e-05 4.057832e-08
4.273895e-05 -1.674065e-05 -6.969216e-08
4.274846e-05 -1.673309e-05 -4.159226e-08
4.227995e-05 -1.653495e-05 -2.808878e-08
4.227995e-05 -1.653800e-05 3.894723e-08
4.275422e-05 -1.673562e-05 -5.210816e-08
4.228534e-05 -1.653574e-05 -2.665280e-08
4.228534e-05 -1.653957e-05 3.679390e-08
4.276145e-05 -1.673866e-05 -6.280576e-08
4.229035e-05 -1.653654e-05 -2.492094e-08
4.229035e-05 -1.654104e-05 3.417800e-08
4.277242e-05 -1.675319e-05 -1.023766e-07
4.277016e-05 -1.674218e-05 -7.360091e-08
4.229491e-05 -1.653735e-05 -2.294245e-08
4.229492e-05 -1.654242e-05 3.116955e-08
4.278716e-05 -1.675831e-05 -1.130329e-07
4.278038e-05 -1.674615e-05 -8.440880e-08
4.277019e-05 -1.675908e-05 5.791837e-08
4.229898e-05 -1.653819e-05 -2.075067e-08
4.229899e-05 -1.654371e-05 2.784069e-08
4.280355e-05 -1.676392e-05 -1.234242e-07
4.279208e-05 -1.675054e-05 -9.515007e-08
4.230253e-05 -1.653907e-05 -1.835890e-08
4.230254e-05 -1.654493e-05 2.425901e-08
4.282144e-05 -1.677002e-05 -1.334673e-07
4.280526e-05 -1.675538e-05 -1.057429e-07
4.284074e-05 -1.677660e-05 -1.430967e-07
4.281991e-05 -1.676072e-05 -1.161007e-07
4.230796e-05 -1.654701e-05 1.661397e-08
4.286133e-05 -1.678363e-05 -1.522627e-07
4.283596e-05 -1.676655e-05 -1.261430e-07
4.231106e-05 -1.654224e-05 -7.353516e-09
4.231107e-05 -1.654839e-05 8.788848e-09
4.288312e-05 -1.679110e-05 -1.609284e-07
4.285337e-05 -1.677288e-05 -1.358024e-07
4.285350e-05 -1.678767e-05 1.044767e-07
4.231179e-05 -1.654278e-05 -4.477285e-09
4.231181e-05 -1.654880e-05 4.948635e-09
4.290602e-05 -1.679898e-05 -1.690672e-07
4.287205e-05 -1.677968e-05 -1.450259e-07
4.231201e-05 -1.654319e-05 -1.638144e-09
4.231203e-05 -1.654902e-05 1.208387e-09
4.292994e-05 -1.680725e-05 -1.766597e-07
4.289194e-05 -1.678693e-05 -1.537733e-07
4.289211e-05 -1.680025e-05 1.183227e-07
4.231174e-05 -1.654345e-05 1.133168e-09
4.231176e-05 -1.654906e-05 -2.405075e-09
4.295481e-05 -1.681587e-05 -1.836922e-07
4.291297e-05 -1.679462e-05 -1.620146e-07
4.291713e-05 -1.680336e-05 1.190133e-07
4.231100e-05 -1.654357e-05 3.813066e-09
4.231102e-05 -1.654892e-05 -5.872240e-09
4.298055e-05 -1.682484e-05 -1.901551e-07
4.293505e-05 -1.680270e-05 -1.697280e-07
4.230982e-05 -1.654353e-05 6.383984e-09
4.230984e-05 -1.654862e-05 -9.179235e-09
4.300708e-05 -1.683411e-05 -1.960416e-07
4.295811e-05 -1.681117e-05 -1.768980e-07
4.293526e-05 -1.681439e-05 1.307252e-07
4.230823e-05 -1.654335e-05 8.833174e-09
4.230825e-05 -1.654816e-05 -1.231642e-08
4.303434e-05 -1.684367e-05 -2.013471e-07
4.298208e-05 -1.681999e-05 -1.835133e-07
4.295834e-05 -1.682201e-05 1.363226e-07
4.230391e-05 -1.654257e-05 1.333327e-08
4.230627e-05 -1.654756e-05 -1.527728e-08
4.306224e-05 -1.685347e-05 -2.060683e-07
4.300689e-05 -1.682914e-05 -1.895664e-07
4.230392e-05 -1.654681e-05 -1.805760e-08
4.309072e-05 -1.686351e-05 -2.102028e-07
4.303245e-05 -1.683858e-05 -1.950519e-07
4.230123e-05 -1.654198e-05 1.537397e-08
4.230124e-05 -1.654593e-05 -2.065475e-08
4.311970e-05 -1.687375e-05 -2.137489e-07
4.305871e-05 -1.684830e-05 -1.999660e-07
4.314912e-05 -1.688415e-05 -2.167049e-07
4.308559e-05 -1.685825e-05 -2.043060e-07
4.229494e-05 -1.654381e-05 -2.529432e-08
4.317889e-05 -1.689470e-05 -2.190697e-07
4.311300e-05 -1.686842e-05 -2.080701e-07
4.228756e-05 -1.653849e-05 2.209077e-08
4.228757e-05 -1.654126e-05 -2.919155e-08
4.320894e-05 -1.690537e-05 -2.208419e-07
4.314089e-05 -1.687878e-05 -2.112568e-07
4.228353e-05 -1.653738e-05 2.340541e-08
4.228354e-05 -1.653986e-05 -3.086198e-08
4.323920e-05 -1.691611e-05 -2.220204e-07
4.316917e-05 -1.688929e-05 -2.138647e-07
4.227930e-05 -1.653619e-05 2.457425e-08
4.227930e-05 -1.653837e-05 -3.234735e-08
4.326960e-05 -1.692692e-05 -2.226037e-07
4.319777e-05 -1.689993e-05 -2.158926e-07
4.319812e-05 -1.690282e-05 1.668728e-07
4.227489e-05 -1.653493e-05 2.559755e-08
4.227490e-05 -1.653682e-05 -3.364799e-08
4.330006e-05 -1.693774e-05 -2.225904e-07
4.322662e-05 -1.691067e-05 -2.173393e-07
4.227033e-05 -1.653360e-05 2.647560e-08
4.227034e-05 -1.653521e-05 -3.476423e-08
4.333050e-05 -1.694857e-05 -2.219791e-07
4.325564e-05 -1.692148e-05 -2.182036e-07
4.325600e-05 -1.692259e-05 1.686758e-07
4.226085e-05 -1.653082e-05 2.779701e-08
4.226564e-05 -1.653355e-05 -3.569638e-08
4.336085e-05 -1.695936e-05 -2.207681e-07
4.328476e-05 -1.693234e-05 -2.184841e-07
4.327099e-05 -1.692755e-05 1.651063e-07
4.225597e-05 -1.652937e-05 2.824086e-08
4.226085e-05 -1.653184e-05 -3.644470e-08
4.339103e-05 -1.697009e-05 -2.189557e-07
4.331390e-05 -1.694320e-05 -2.181794e-07
4.225597e-05 -1.653011e-05 -3.700940e-08
4.342096e-05 -1.698072e-05 -2.165401e-07
4.334298e-05 -1.695404e-05 -2.172878e-07
4.225103e-05 -1.652790e-05 2.854038e-08
4.225103e-05 -1.652835e-05 -3.739068e-08
4.337193e-05 -1.696484e-05 -2.158078e-07
4.224606e-05 -1.652641e-05 2.869575e-08
4.224605e-05 -1.652657e-05 -3.758865e-08
4.340067e-05 -1.697555e-05 -2.137377e-07
4.350852e-05 -1.701174e-05 -2.056574e-07
4.342912e-05 -1.698616e-05 -2.110756e-07
4.223609e-05 -1.652302e-05 -3.743521e-08
4.353670e-05 -1.702169e-05 -2.008126e-07
4.345721e-05 -1.699662e-05 -2.078198e-07
4.342948e-05 -1.698184e-05 1.630358e-07
4.222626e-05 -1.652051e-05 2.787862e-08
4.222625e-05 -1.651952e-05 -3.655003e-08
4.356424e-05 -1.703140e-05 -1.953573e-07
4.348486e-05 -1.700692e-05 -2.039686e-07
4.222145e-05 -1.651909e-05 2.731585e-08
4.222144e-05 -1.651781e-05 -3.583351e-08
4.359107e-05 -1.704082e-05 -1.892913e-07
4.351198e-05 -1.701701e-05 -1.995204e-07
4.221674e-05 -1.651771e-05 2.661060e-08
4.221674e-05 -1.651614e-05 -3.493482e-08
4.361710e-05 -1.704994e-05 -1.826156e-07
4.353850e-05 -1.702687e-05 -1.944742e-07
4.221216e-05 -1.651637e-05 2.576372e-08
4.221216e-05 -1.651452e-05 -3.385455e-08
4.364225e-05 -1.705871e-05 -1.753326e-07
4.356434e-05 -1.703647e-05 -1.888291e-07
4.356465e-05 -1.702757e-05 1.455382e-07
4.220773e-05 -1.651509e-05 2.477650e-08
4.220773e-05 -1.651296e-05 -3.259361e-08
4.366645e-05 -1.706712e-05 -1.674470e-07
4.358942e-05 -1.704577e-05 -1.825853e-07
4.220347e-05 -1.651388e-05 2.365081e-08
4.220347e-05 -1.651147e-05 -3.115335e-08
4.368960e-05 -1.707513e-05 -1.589671e-07
4.361366e-05 -1.705475e-05 -1.757444e-07
4.361393e-05 -1.704401e-05 1.352713e-07
4.219941e-05 -1.651274e-05 2.238928e-08
4.219941e-05 -1.651005e-05 -2.953575e-08
4.371161e-05 -1.708271e-05 -1.499053e-07
4.363697e-05 -1.706337e-05 -1.683096e-07
4.361280e-05 -1.704821e-05 1.296431e-07
4.219557e-05 -1.651168e-05 2.099555e-08
4.219557e-05 -1.650871e-05 -2.774366e-08
4.373239e-05 -1.708983e-05 -1.402806e-07
4.365928e-05 -1.707160e-05 -1.602869e-07
4.219197e-05 -1.651071e-05 1.947454e-08
4.219197e-05 -1.650747e-05 -2.578108e-08
4.375185e-05 -1.709646e-05 -1.301204e-07
4.368050e-05 -1.707941e-05 -1.516861e-07
4.218560e-05 -1.650903e-05 1.607816e-08
4.218864e-05 -1.650633e-05 -2.365351e-08
4.376986e-05 -1.710258e-05 -1.194634e-07
4.370054e-05 -1.708677e-05 -1.425220e-07
4.378632e-05 -1.710817e-05 -1.083629e-07
4.371933e-05 -1.709366e-05 -1.328165e-07
4.370075e-05 -1.707249e-05 1.093542e-07
4.218288e-05 -1.650834e-05 1.422101e-08
4.380109e-05 -1.711320e-05 -9.689063e-08
4.373677e-05 -1.710003e-05 -1.226007e-07
4.371952e-05 -1.707856e-05 1.018472e-07
4.217845e-05 -1.650726e-05 1.024511e-08
4.217845e-05 -1.650292e-05 -1.367955e-08
4.381404e-05 -1.711767e-05 -8.513878e-08
4.375278e-05 -1.710587e-05 -1.119176e-07
4.217678e-05 -1.650686e-05 8.147919e-09
4.217678e-05 -1.650238e-05 -1.088808e-08
4.382504e-05 -1.712160e-05 -7.321593e-08
4.376729e-05 -1.711115e-05 -1.008245e-07
4.217550e-05 -1.650656e-05 5.986017e-09
4.217550e-05 -1.650195e-05 -8.009152e-09
4.383398e-05 -1.712499e-05 -6.121661e-08
4.378022e-05 -1.711587e-05 -8.939598e-08
4.217460e-05 -1.650635e-05 3.761711e-09
4.217460e-05 -1.650165e-05 -5.057941e-09
4.384085e-05 -1.712787e-05 -4.919860e-08
4.379150e-05 -1.712003e-05 -7.772221e-08
4.217410e-05 -1.650626e-05 1.480756e-09
4.217411e-05 -1.650148e-05 -2.050595e-09
4.384569e-05 -1.713020e-05 -3.723638e-08
4.380113e-05 -1.712367e-05 -6.590136e-08
4.217401e-05 -1.650629e-05 -8.464989e-10
4.217401e-05 -1.650145e-05 9.963947e-10
4.384863e-05 -1.713196e-05 -2.543937e-08
4.380907e-05 -1.712682e-05 -5.402719e-08
4.380916e-05 -1.710879e-05 4.262911e-08
4.217433e-05 -1.650644e-05 -3.208178e-09
4.217433e-05 -1.650158e-05 4.068388e-09
4.384978e-05 -1.713315e-05 -1.390922e-08
4.381534e-05 -1.712946e-05 -4.219097e-08
4.217617e-05 -1.650716e-05 -7.991522e-09
4.217505e-05 -1.650186e-05 7.153436e-09
4.384928e-05 -1.713378e-05 -2.727773e-09
4.381993e-05 -1.713155e-05 -3.049004e-08
4.382001e-05 -1.711392e-05 2.508923e-08
4.217769e-05 -1.650773e-05 -1.039577e-08
4.217617e-05 -1.650229e-05 1.024228e-08
4.384722e-05 -1.713386e-05 8.042664e-09
4.382288e-05 -1.713306e-05 -1.902059e-08
4.380146e-05 -1.711522e-05 1.980713e-08
4.217769e-05 -1.650287e-05 1.332796e-08
4.384372e-05 -1.713342e-05 1.835607e-08
4.382425e-05 -1.713399e-05 -7.865403e-09
4.383887e-05 -1.713247e-05 2.817923e-08
4.382411e-05 -1.713436e-05 2.909558e-09
4.218191e-05 -1.650449e-05 1.947093e-08
4.382252e-05 -1.713418e-05 1.325402e-08
4.218770e-05 -1.651149e-05 -1.997027e-08
4.218770e-05 -1.650672e-05 2.555699e-08
4.381956e-05 -1.713348e-05 2.313080e-08
4.219117e-05 -1.651280e-05 -2.233851e-08
4.219117e-05 -1.650806e-05 2.857469e-08
4.381706e-05 -1.712687e-05 5.450598e-08
4.381531e-05 -1.713228e-05 3.251309e-08
4.219503e-05 -1.651426e-05 -2.469350e-08
4.219502e-05 -1.650955e-05 3.157446e-08
4.380764e-05 -1.712417e-05 6.219580e-08
4.380985e-05 -1.713061e-05 4.138200e-08
4.381539e-05 -1.711843e-05 -2.327339e-08
4.219926e-05 -1.651586e-05 -2.703457e-08
4.219926e-05 -1.651118e-05 3.455592e-08
4.379727e-05 -1.712110e-05 6.933287e-08
4.380324e-05 -1.712850e-05 4.972458e-08
4.220388e-05 -1.651762e-05 -2.936133e-08
4.220387e-05 -1.651297e-05 3.751891e-08
4.378603e-05 -1.711769e-05 7.591463e-08
4.379557e-05 -1.712597e-05 5.753224e-08
4.220887e-05 -1.651952e-05 -3.167361e-08
4.220886e-05 -1.651490e-05 4.046339e-08
4.377397e-05 -1.711397e-05 8.193986e-08
4.378691e-05 -1.712306e-05 6.479954e-08
4.221423e-05 -1.652157e-05 -3.397136e-08
4.221422e-05 -1.651698e-05 4.338943e-08
4.376119e-05 -1.710995e-05 8.740819e-08
4.377733e-05 -1.711979e-05 7.152324e-08
4.221997e-05 -1.652376e-05 -3.625462e-08
4.221996e-05 -1.651920e-05 4.629715e-08
4.374774e-05 -1.710568e-05 9.231984e-08
4.376690e-05 -1.711619e-05 7.770166e-08
4.376700e-05 -1.710727e-05 -5.865235e-08
4.222608e-05 -1.652610e-05 -3.852349e-08
4.222606e-05 -1.652157e-05 4.918668e-08
4.373370e-05 -1.710118e-05 9.667535e-08
4.375569e-05 -1.711229e-05 8.333416e-08
4.225533e-05 -1.653530e-05 4.512198e-08
4.223255e-05 -1.652858e-05 -4.077809e-08
4.223254e-05 -1.652408e-05 5.205819e-08
4.371915e-05 -1.709647e-05 1.004755e-07
4.374379e-05 -1.710812e-05 8.842076e-08
4.374390e-05 -1.710086e-05 -6.706843e-08
4.370415e-05 -1.709159e-05 1.037211e-07
4.373125e-05 -1.710369e-05 9.296191e-08
4.372991e-05 -1.709928e-05 -6.775779e-08
4.368877e-05 -1.708656e-05 1.064130e-07
4.371816e-05 -1.709906e-05 9.695830e-08
4.226208e-05 -1.653994e-05 -4.965714e-08
4.226206e-05 -1.653554e-05 6.336749e-08
4.367309e-05 -1.708142e-05 1.085521e-07
4.370459e-05 -1.709423e-05 1.004108e-07
4.227037e-05 -1.654313e-05 -5.184287e-08
4.227034e-05 -1.653876e-05 6.615149e-08
4.365717e-05 -1.707618e-05 1.101392e-07
4.369060e-05 -1.708924e-05 1.033202e-07
4.227900e-05 -1.654646e-05 -5.401532e-08
4.227898e-05 -1.654211e-05 6.891849e-08
4.364110e-05 -1.707088e-05 1.111751e-07
4.367627e-05 -1.708412e-05 1.056874e-07
4.228799e-05 -1.654993e-05 -5.617460e-08
4.228797e-05 -1.654561e-05 7.166866e-08
4.362493e-05 -1.706555e-05 1.116604e-07
4.366167e-05 -1.707890e-05 1.075132e-07
4.367639e-05 -1.708100e-05 -8.063031e-08
4.229734e-05 -1.655354e-05 -5.832084e-08
4.229731e-05 -1.654924e-05 7.440214e-08
4.360873e-05 -1.706021e-05 1.115958e-07
4.364687e-05 -1.707360e-05 1.087985e-07
4.366180e-05 -1.707660e-05 -8.206488e-08
4.230703e-05 -1.655728e-05 -6.045407e-08
4.230700e-05 -1.655301e-05 7.711904e-08
4.359259e-05 -1.705489e-05 1.109818e-07
4.363194e-05 -1.706825e-05 1.095439e-07
4.231707e-05 -1.656116e-05 -6.257428e-08
4.231703e-05 -1.655691e-05 7.981943e-08
4.357656e-05 -1.704961e-05 1.098190e-07
4.361696e-05 -1.706288e-05 1.097501e-07
4.232745e-05 -1.656517e-05 -6.468130e-08
4.232741e-05 -1.656095e-05 8.250329e-08
4.356073e-05 -1.704442e-05 1.081079e-07
4.360199e-05 -1.705751e-05 1.094176e-07
4.233818e-05 -1.656932e-05 -6.677480e-08
4.233814e-05 -1.656512e-05 8.517047e-08
4.354515e-05 -1.703932e-05 1.058492e-07
4.358710e-05 -1.705218e-05 1.085470e-07
4.358722e-05 -1.705399e-05 -8.287969e-08
4.236066e-05 -1.657801e-05 -7.091830e-08
4.234921e-05 -1.656942e-05 8.782063e-08
4.352989e-05 -1.703435e-05 1.030437e-07
4.357237e-05 -1.704691e-05 1.071386e-07
4.351503e-05 -1.702954e-05 9.969265e-08
4.355786e-05 -1.704173e-05 1.051932e-07
4.355798e-05 -1.704518e-05 -8.024678e-08
4.237241e-05 -1.658255e-05 -7.296575e-08
4.350063e-05 -1.702491e-05 9.579771e-08
4.354365e-05 -1.703667e-05 1.027113e-07
4.355509e-05 -1.704294e-05 -7.790444e-08
4.239692e-05 -1.659202e-05 -7.700038e-08
4.239686e-05 -1.658796e-05 9.823099e-08
4.348677e-05 -1.702049e-05 9.136161e-08
4.352980e-05 -1.703175e-05 9.969386e-08
4.240968e-05 -1.659693e-05 -7.897984e-08
4.240962e-05 -1.659292e-05 1.007753e-07
4.347352e-05 -1.701630e-05 8.638838e-08
4.351638e-05 -1.702700e-05 9.614216e-08
4.242277e-05 -1.660197e-05 -8.092654e-08
4.242270e-05 -1.659801e-05 1.032883e-07
4.346094e-05 -1.701237e-05 8.088405e-08
4.350347e-05 -1.702244e-05 9.205826e-08
4.243619e-05 -1.660711e-05 -8.283264e-08
4.243612e-05 -1.660322e-05 1.057631e-07
4.349113e-05 -1.701811e-05 8.744529e-08
4.244994e-05 -1.661237e-05 -8.468831e-08
4.244987e-05 -1.660855e-05 1.081906e-07
4.347944e-05 -1.701403e-05 8.230794e-08
4.246402e-05 -1.661772e-05 -8.648182e-08
4.246395e-05 -1.661401e-05 1.105585e-07
4.342801e-05 -1.700238e-05 6.129358e-08
4.346845e-05 -1.701022e-05 7.665323e-08
4.247842e-05 -1.662316e-05 -8.820029e-08
4.247835e-05 -1.661957e-05 1.128519e-07
4.341891e-05 -1.699973e-05 5.379971e-08
4.345825e-05 -1.700671e-05 7.049134e-08
4.346852e-05 -1.701932e-05 -5.790921e-08
4.249314e-05 -1.662868e-05 -8.983159e-08
4.249306e-05 -1.662525e-05 1.150532e-07
4.341089e-05 -1.699746e-05 4.587439e-08
4.344891e-05 -1.700353e-05 6.383685e-08
4.250816e-05 -1.663425e-05 -9.136781e-08
4.250808e-05 -1.663101e-05 1.171445e-07
4.340407e-05 -1.699559e-05 3.756446e-08
4.344049e-05 -1.700070e-05 5.671020e-08
4.252347e-05 -1.663989e-05 -9.280576e-08
4.252339e-05 -1.663685e-05 1.191089e-07
4.339854e-05 -1.699412e-05 2.893105e-08
4.343308e-05 -1.699825e-05 4.913948e-08
4.339441e-05 -1.699305e-05 2.004932e-08
4.342673e-05 -1.699618e-05 4.116244e-08
4.342676e-05 -1.700875e-05 -3.061132e-08
4.255479e-05 -1.664877e-05 1.225875e-07
4.339178e-05 -1.699238e-05 1.099779e-08
4.342151e-05 -1.699453e-05 3.282832e-08
4.260361e-05 -1.666882e-05 -9.823779e-08
4.258709e-05 -1.666101e-05 1.253510e-07
4.339072e-05 -1.699210e-05 1.826928e-09
4.341749e-05 -1.699328e-05 2.419847e-08
4.341750e-05 -1.700675e-05 -1.787542e-08
4.260351e-05 -1.666722e-05 1.264299e-07
4.339120e-05 -1.699222e-05 -7.421213e-09
4.341469e-05 -1.699244e-05 1.534326e-08
4.343186e-05 -1.700628e-05 -1.449609e-08
4.262017e-05 -1.667474e-05 -9.889163e-08
4.262008e-05 -1.667348e-05 1.272943e-07
4.339318e-05 -1.699276e-05 -1.667561e-08
4.341314e-05 -1.699196e-05 6.332865e-09
4.263684e-05 -1.668069e-05 -9.937923e-08
4.263675e-05 -1.667979e-05 1.279372e-07
4.339658e-05 -1.699374e-05 -2.585764e-08
4.341287e-05 -1.699185e-05 -2.767000e-09
4.265359e-05 -1.668667e-05 -9.969471e-08
4.265349e-05 -1.668612e-05 1.283538e-07
4.340130e-05 -1.699516e-05 -3.490106e-08
4.341386e-05 -1.699214e-05 -1.188799e-08
4.267039e-05 -1.669266e-05 -9.983363e-08
4.267029e-05 -1.669248e-05 1.285404e-07
4.340729e-05 -1.699702e-05 -4.375439e-08
4.341613e-05 -1.699287e-05 -2.095882e-08
4.268720e-05 -1.669865e-05 -9.979271e-08
4.268710e-05 -1.669884e-05 1.284943e-07
4.341448e-05 -1.699931e-05 -5.237919e-08
4.341965e-05 -1.699405e-05 -2.991440e-08
4.270400e-05 -1.670464e-05 -9.956956e-08
4.270390e-05 -1.670519e-05 1.282138e-07
4.342279e-05 -1.700201e-05 -6.074747e-08
4.342439e-05 -1.699567e-05 -3.870138e-08
4.341967e-05 -1.700770e-05 2.258476e-08
4.272075e-05 -1.671061e-05 -9.916246e-08
4.272066e-05 -1.671152e-05 1.276974e-07
4.343219e-05 -1.700512e-05 -6.883926e-08
4.343030e-05 -1.699773e-05 -4.727837e-08
4.342441e-05 -1.700903e-05 2.932019e-08
4.273742e-05 -1.671654e-05 -9.857020e-08
4.273734e-05 -1.671783e-05 1.269442e-07
4.344261e-05 -1.700862e-05 -7.664057e-08
4.343735e-05 -1.700022e-05 -5.561441e-08
4.275399e-05 -1.672244e-05 -9.779190e-08
4.275391e-05 -1.672410e-05 1.259534e-07
4.345403e-05 -1.701250e-05 -8.414182e-08
4.344549e-05 -1.700313e-05 -6.368697e-08
4.346638e-05 -1.701674e-05 -9.133664e-08
4.345467e-05 -1.700644e-05 -7.148001e-08
4.278669e-05 -1.673405e-05 -9.567490e-08
4.278661e-05 -1.673646e-05 1.232572e-07
4.347964e-05 -1.702134e-05 -9.822088e-08
4.346487e-05 -1.701013e-05 -7.898239e-08
4.346493e-05 -1.702144e-05 6.063282e-08
4.281859e-05 -1.674536e-05 -9.280809e-08
4.281852e-05 -1.674851e-05 1.196057e-07
4.349376e-05 -1.702627e-05 -1.047920e-07
4.347603e-05 -1.701421e-05 -8.618659e-08
4.283416e-05 -1.675087e-05 -9.109277e-08
4.283410e-05 -1.675439e-05 1.174209e-07
4.350870e-05 -1.703152e-05 -1.110484e-07
4.348812e-05 -1.701864e-05 -9.308769e-08
4.348820e-05 -1.702901e-05 7.168573e-08
4.284944e-05 -1.675626e-05 -8.918915e-08
4.284938e-05 -1.676015e-05 1.149963e-07
4.352443e-05 -1.703707e-05 -1.169895e-07
4.350110e-05 -1.702341e-05 -9.968261e-08
4.350598e-05 -1.703085e-05 7.274041e-08
4.286440e-05 -1.676152e-05 -8.709696e-08
4.286434e-05 -1.676579e-05 1.123316e-07
4.354090e-05 -1.704292e-05 -1.226147e-07
4.351492e-05 -1.702852e-05 -1.059695e-07
4.287900e-05 -1.676665e-05 -8.481590e-08
4.287895e-05 -1.677129e-05 1.094264e-07
4.355807e-05 -1.704905e-05 -1.279238e-07
4.352955e-05 -1.703394e-05 -1.119474e-07
4.289322e-05 -1.677163e-05 -8.234566e-08
4.289317e-05 -1.677664e-05 1.062803e-07
4.357591e-05 -1.705544e-05 -1.329170e-07
4.354494e-05 -1.703966e-05 -1.176157e-07
4.290702e-05 -1.677644e-05 -7.968592e-08
4.290698e-05 -1.678183e-05 1.028931e-07
4.359439e-05 -1.706207e-05 -1.375941e-07
4.356106e-05 -1.704567e-05 -1.229743e-07
4.292036e-05 -1.678107e-05 -7.683633e-08
4.292033e-05 -1.678684e-05 9.926426e-08
4.357788e-05 -1.705194e-05 -1.280232e-07
4.293323e-05 -1.678552e-05 -7.379659e-08
4.293320e-05 -1.679167e-05 9.539340e-08
4.359534e-05 -1.705847e-05 -1.327623e-07
4.294559e-05 -1.678977e-05 -7.056642e-08
4.294556e-05 -1.679629e-05 9.128016e-08
4.365317e-05 -1.708330e-05 -1.497284e-07
4.361341e-05 -1.706524e-05 -1.371917e-07
4.367376e-05 -1.709076e-05 -1.531401e-07
4.363205e-05 -1.707223e-05 -1.413113e-07
4.361357e-05 -1.707185e-05 1.062897e-07
4.296862e-05 -1.680489e-05 8.232536e-08
4.369478e-05 -1.709840e-05 -1.562349e-07
4.365122e-05 -1.707943e-05 -1.451210e-07
4.298925e-05 -1.680450e-05 -5.574210e-08
4.298925e-05 -1.681254e-05 7.239933e-08
4.371619e-05 -1.710618e-05 -1.590123e-07
4.367088e-05 -1.708682e-05 -1.486205e-07
4.299857e-05 -1.680756e-05 -5.156357e-08
4.299858e-05 -1.681597e-05 6.707338e-08
4.373795e-05 -1.711411e-05 -1.614717e-07
4.369099e-05 -1.709439e-05 -1.518097e-07
4.369118e-05 -1.709912e-05 1.177467e-07
4.301506e-05 -1.681285e-05 -4.265547e-08
4.300720e-05 -1.681914e-05 6.150744e-08
4.376002e-05 -1.712216e-05 -1.636128e-07
4.371151e-05 -1.710213e-05 -1.546880e-07
4.301508e-05 -1.682201e-05 5.570432e-08
4.378236e-05 -1.713031e-05 -1.654347e-07
4.373240e-05 -1.711000e-05 -1.572550e-07
4.373261e-05 -1.711379e-05 1.220102e-07
4.302217e-05 -1.681507e-05 -3.793633e-08
4.302220e-05 -1.682459e-05 4.966847e-08
4.380493e-05 -1.713856e-05 -1.669370e-07
4.375362e-05 -1.711801e-05 -1.595103e-07
4.374702e-05 -1.711745e-05 1.201073e-07
4.302848e-05 -1.681699e-05 -3.305156e-08
4.302851e-05 -1.682686e-05 4.340664e-08
4.382769e-05 -1.714688e-05 -1.681191e-07
4.377514e-05 -1.712613e-05 -1.614532e-07
4.303396e-05 -1.681861e-05 -2.801382e-08
4.303399e-05 -1.682881e-05 3.692868e-08
4.385060e-05 -1.715526e-05 -1.689805e-07
4.379689e-05 -1.713435e-05 -1.630831e-07
4.303856e-05 -1.681991e-05 -2.284036e-08
4.303860e-05 -1.683042e-05 3.024866e-08
4.387361e-05 -1.716368e-05 -1.695207e-07
4.381886e-05 -1.714265e-05 -1.643995e-07
4.304227e-05 -1.682092e-05 -1.755403e-08
4.304231e-05 -1.683169e-05 2.338615e-08
4.389669e-05 -1.717213e-05 -1.697395e-07
4.384099e-05 -1.715102e-05 -1.654017e-07
4.304503e-05 -1.682161e-05 -1.218413e-08
4.304508e-05 -1.683261e-05 1.636781e-08
4.391979e-05 -1.718058e-05 -1.696373e-07
4.386325e-05 -1.715944e-05 -1.660893e-07
4.394287e-05 -1.718904e-05 -1.692145e-07
4.388559e-05 -1.716789e-05 -1.664619e-07
4.386348e-05 -1.716037e-05 1.289103e-07
4.304765e-05 -1.682215e-05 -1.342790e-09
4.304769e-05 -1.683338e-05 2.014982e-09
4.396589e-05 -1.719747e-05 -1.684727e-07
4.390797e-05 -1.717636e-05 -1.665195e-07
4.388582e-05 -1.716835e-05 1.291984e-07
4.304404e-05 -1.682113e-05 1.459246e-08
4.304629e-05 -1.683279e-05 -1.241396e-08
4.398880e-05 -1.720586e-05 -1.674143e-07
4.393036e-05 -1.718483e-05 -1.662624e-07
4.304408e-05 -1.683205e-05 -1.951174e-08
4.401155e-05 -1.721420e-05 -1.660432e-07
4.395270e-05 -1.719329e-05 -1.656916e-07
4.304085e-05 -1.682038e-05 1.972666e-08
4.304089e-05 -1.683102e-05 -2.645755e-08
4.403411e-05 -1.722247e-05 -1.643654e-07
4.397495e-05 -1.720172e-05 -1.648089e-07
4.303671e-05 -1.681942e-05 2.474173e-08
4.303674e-05 -1.682968e-05 -3.319272e-08
4.405642e-05 -1.723066e-05 -1.623892e-07
4.399708e-05 -1.721010e-05 -1.636172e-07
4.399731e-05 -1.720819e-05 1.269836e-07
4.303164e-05 -1.681823e-05 2.959908e-08
4.303167e-05 -1.682803e-05 -3.965841e-08
4.407843e-05 -1.723874e-05 -1.601269e-07
4.401903e-05 -1.721842e-05 -1.621211e-07
4.302570e-05 -1.681679e-05 3.425603e-08
4.302573e-05 -1.682606e-05 -4.580324e-08
4.410008e-05 -1.724672e-05 -1.575946e-07
4.404078e-05 -1.722665e-05 -1.603275e-07
4.404100e-05 -1.722384e-05 1.244573e-07
4.301894e-05 -1.681512e-05 3.867313e-08
4.301897e-05 -1.682379e-05 -5.158593e-08
4.412133e-05 -1.725457e-05 -1.548136e-07
4.406226e-05 -1.723480e-05 -1.582458e-07
4.404810e-05 -1.722777e-05 1.208357e-07
4.301144e-05 -1.681321e-05 4.281705e-08
4.301145e-05 -1.682125e-05 -5.697485e-08
4.414210e-05 -1.726229e-05 -1.518086e-07
4.408344e-05 -1.724283e-05 -1.558890e-07
4.300324e-05 -1.681106e-05 4.666120e-08
4.300325e-05 -1.681844e-05 -6.194649e-08
4.416237e-05 -1.726987e-05 -1.486002e-07
4.410428e-05 -1.725075e-05 -1.532740e-07
4.299441e-05 -1.680870e-05 5.018518e-08
4.299441e-05 -1.681539e-05 -6.648390e-08
4.418209e-05 -1.727731e-05 -1.452011e-07
4.412473e-05 -1.725854e-05 -1.504216e-07
4.298502e-05 -1.680615e-05 5.337383e-08
4.298502e-05 -1.681213e-05 -7.057511e-08
4.420126e-05 -1.728460e-05 -1.416293e-07
4.414478e-05 -1.726620e-05 -1.473539e-07
4.416439e-05 -1.727373e-05 -1.440921e-07
4.296478e-05 -1.680505e-05 -7.738913e-08
4.418354e-05 -1.728111e-05 -1.406572e-07
4.294306e-05 -1.679429e-05 6.260217e-08
4.294304e-05 -1.679740e-05 -8.235239e-08
4.425549e-05 -1.730535e-05 -1.301150e-07
4.420220e-05 -1.728832e-05 -1.370713e-07
4.293178e-05 -1.679103e-05 6.400566e-08
4.293176e-05 -1.679341e-05 -8.413569e-08
4.427247e-05 -1.731188e-05 -1.260717e-07
4.422036e-05 -1.729536e-05 -1.333564e-07
4.420238e-05 -1.728292e-05 1.069650e-07
4.292030e-05 -1.678769e-05 6.504407e-08
4.292028e-05 -1.678934e-05 -8.545291e-08
4.428892e-05 -1.731821e-05 -1.219458e-07
4.423800e-05 -1.730220e-05 -1.295310e-07
4.289700e-05 -1.678087e-05 6.602450e-08
4.290866e-05 -1.678523e-05 -8.630423e-08
4.430481e-05 -1.732432e-05 -1.177446e-07
4.425512e-05 -1.730884e-05 -1.256096e-07
4.289697e-05 -1.678109e-05 -8.669011e-08
4.432015e-05 -1.733023e-05 -1.134732e-07
4.427171e-05 -1.731528e-05 -1.216035e-07
4.288530e-05 -1.677745e-05 6.596678e-08
4.288527e-05 -1.677694e-05 -8.661111e-08
4.433493e-05 -1.733591e-05 -1.091353e-07
4.428775e-05 -1.732151e-05 -1.175207e-07
4.428791e-05 -1.731540e-05 9.184776e-08
4.287365e-05 -1.677404e-05 6.554422e-08
4.287361e-05 -1.677281e-05 -8.606787e-08
4.434914e-05 -1.734138e-05 -1.047332e-07
4.430325e-05 -1.732753e-05 -1.133672e-07
4.286209e-05 -1.677067e-05 6.475721e-08
4.286206e-05 -1.676873e-05 -8.506101e-08
4.436277e-05 -1.734662e-05 -1.002685e-07
4.431819e-05 -1.733333e-05 -1.091470e-07
4.431833e-05 -1.732702e-05 8.530113e-08
4.285071e-05 -1.676737e-05 6.360614e-08
4.285067e-05 -1.676471e-05 -8.359107e-08
4.437582e-05 -1.735163e-05 -9.574234e-08
4.433257e-05 -1.733891e-05 -1.048631e-07
4.431831e-05 -1.732997e-05 8.155376e-08
4.283954e-05 -1.676415e-05 6.209130e-08
4.283951e-05 -1.676078e-05 -8.165856e-08
4.438828e-05 -1.735641e-05 -9.115524e-08
4.434637e-05 -1.734427e-05 -1.005171e-07
4.440014e-05 -1.736095e-05 -8.650764e-08
4.435959e-05 -1.734940e-05 -9.611049e-08
4.281809e-05 -1.675327e-05 -7.640718e-08
4.441138e-05 -1.736526e-05 -8.179976e-08
4.437222e-05 -1.735430e-05 -9.164392e-08
4.278914e-05 -1.675021e-05 4.906636e-08
4.279828e-05 -1.674639e-05 -6.930863e-08
4.442201e-05 -1.736932e-05 -7.703170e-08
4.438426e-05 -1.735897e-05 -8.711789e-08
4.278056e-05 -1.674801e-05 4.537148e-08
4.278912e-05 -1.674325e-05 -6.506678e-08
4.443201e-05 -1.737314e-05 -7.220356e-08
4.439569e-05 -1.736340e-05 -8.253265e-08
4.438437e-05 -1.735220e-05 6.803801e-08
4.278054e-05 -1.674033e-05 -6.036314e-08
4.444137e-05 -1.737670e-05 -6.731539e-08
4.440650e-05 -1.736759e-05 -7.788836e-08
4.439580e-05 -1.735654e-05 6.444354e-08
4.277261e-05 -1.674605e-05 4.131351e-08
4.277260e-05 -1.673766e-05 -5.519769e-08
4.445009e-05 -1.738002e-05 -6.236721e-08
4.441669e-05 -1.737153e-05 -7.318510e-08
4.276536e-05 -1.674437e-05 3.689293e-08
4.276534e-05 -1.673526e-05 -4.957054e-08
4.445816e-05 -1.738308e-05 -5.735909e-08
4.442624e-05 -1.737522e-05 -6.842293e-08
4.275886e-05 -1.674299e-05 3.211075e-08
4.275885e-05 -1.673315e-05 -4.348210e-08
4.446556e-05 -1.738588e-05 -5.229109e-08
4.443516e-05 -1.737867e-05 -6.360187e-08
4.275317e-05 -1.674191e-05 2.696883e-08
4.275316e-05 -1.673136e-05 -3.693329e-08
4.447229e-05 -1.738841e-05 -4.716326e-08
4.444342e-05 -1.738186e-05 -5.872197e-08
4.274835e-05 -1.674118e-05 2.147027e-08
4.274835e-05 -1.672991e-05 -2.992592e-08
4.447835e-05 -1.739068e-05 -4.197570e-08
4.445103e-05 -1.738479e-05 -5.378329e-08
4.445112e-05 -1.737740e-05 4.191109e-08
4.274447e-05 -1.674080e-05 1.562002e-08
4.274446e-05 -1.672882e-05 -2.246309e-08
4.448372e-05 -1.739269e-05 -3.672849e-08
4.445797e-05 -1.738746e-05 -4.878588e-08
4.274157e-05 -1.674079e-05 9.425569e-09
4.274157e-05 -1.672811e-05 -1.454984e-08
4.448840e-05 -1.739442e-05 -3.142174e-08
4.446424e-05 -1.738987e-05 -4.372983e-08
4.446433e-05 -1.738230e-05 3.403313e-08
4.449237e-05 -1.739587e-05 -2.605554e-08
4.446983e-05 -1.739201e-05 -3.861521e-08
4.445859e-05 -1.738358e-05 3.128207e-08
4.273900e-05 -1.672793e-05 2.592862e-09
4.449563e-05 -1.739705e-05 -2.063002e-08
4.447473e-05 -1.739388e-05 -3.344212e-08
4.274114e-05 -1.674480e-05 -1.849666e-08
4.274113e-05 -1.672954e-05 2.138485e-08
4.449818e-05 -1.739794e-05 -1.514535e-08
4.447893e-05 -1.739547e-05 -2.821066e-08
4.274412e-05 -1.674685e-05 -2.613388e-08
4.274411e-05 -1.673106e-05 3.133306e-08
4.450000e-05 -1.739855e-05 -9.601699e-09
4.448242e-05 -1.739679e-05 -2.292094e-08
4.274847e-05 -1.674933e-05 -3.395271e-08
4.274846e-05 -1.673308e-05 4.159388e-08
4.448520e-05 -1.739783e-05 -1.757310e-08
4.275424e-05 -1.675221e-05 -4.189675e-08
4.275422e-05 -1.673562e-05 5.210911e-08
4.448726e-05 -1.739859e-05 -1.216730e-08
4.276147e-05 -1.675547e-05 -4.990448e-08
4.276144e-05 -1.673866e-05 6.280595e-08
4.450103e-05 -1.739864e-05 7.379785e-09
4.448858e-05 -1.739906e-05 -6.703740e-09
4.278042e-05 -1.676301e-05 -6.590604e-08
4.277016e-05 -1.674218e-05 7.360029e-08
4.449988e-05 -1.739809e-05 1.315517e-08
4.448917e-05 -1.739924e-05 -1.182734e-09
4.278037e-05 -1.674615e-05 8.440734e-08
4.449796e-05 -1.739723e-05 1.898626e-08
4.448902e-05 -1.739913e-05 4.395289e-09
4.448924e-05 -1.739097e-05 6.931420e-10
4.279214e-05 -1.676724e-05 -7.385157e-08
4.279207e-05 -1.675054e-05 9.514779e-08
4.449527e-05 -1.739608e-05 2.487124e-08
4.448811e-05 -1.739872e-05 1.002967e-08
4.448909e-05 -1.739077e-05 -3.677378e-09
4.280534e-05 -1.677179e-05 -8.173465e-08
4.280526e-05 -1.675538e-05 1.057398e-07
4.449179e-05 -1.739462e-05 3.080749e-08
4.448644e-05 -1.739802e-05 1.571945e-08
4.282000e-05 -1.677670e-05 -8.950843e-08
4.281990e-05 -1.676072e-05 1.160970e-07
4.448753e-05 -1.739285e-05 3.679122e-08
4.448400e-05 -1.739701e-05 2.146318e-08
4.448408e-05 -1.738841e-05 -1.704384e-08
4.283608e-05 -1.678199e-05 -9.711182e-08
4.283596e-05 -1.676655e-05 1.261386e-07
4.448247e-05 -1.739078e-05 4.281711e-08
4.448079e-05 -1.739570e-05 2.725876e-08
4.447659e-05 -1.738840e-05 4.887770e-08
4.447679e-05 -1.739409e-05 3.310314e-08
4.447687e-05 -1.738534e-05 -2.614528e-08
4.287205e-05 -1.677968e-05 1.450204e-07
4.446989e-05 -1.738571e-05 5.496274e-08
4.447201e-05 -1.739217e-05 3.899200e-08
4.446460e-05 -1.738462e-05 -2.765981e-08
4.291315e-05 -1.680713e-05 -1.247282e-07
4.291297e-05 -1.679462e-05 1.620082e-07
4.446235e-05 -1.738270e-05 6.105842e-08
4.446642e-05 -1.738994e-05 4.491930e-08
4.295833e-05 -1.682201e-05 -1.363330e-07
4.293505e-05 -1.680271e-05 1.697213e-07
4.445395e-05 -1.737939e-05 6.714670e-08
4.446003e-05 -1.738739e-05 5.087674e-08
4.298232e-05 -1.682996e-05 -1.415072e-07
4.295812e-05 -1.681118e-05 1.768909e-07
4.444467e-05 -1.737577e-05 7.320545e-08
4.445282e-05 -1.738454e-05 5.685315e-08
4.298209e-05 -1.682000e-05 1.835061e-07
4.443449e-05 -1.737186e-05 7.921200e-08
4.444479e-05 -1.738137e-05 6.283399e-08
4.300714e-05 -1.683823e-05 -1.462475e-07
4.300690e-05 -1.682914e-05 1.895590e-07
4.442343e-05 -1.736766e-05 8.515200e-08
4.443594e-05 -1.737789e-05 6.880112e-08
4.303272e-05 -1.684680e-05 -1.505467e-07
4.303247e-05 -1.683859e-05 1.950444e-07
4.441149e-05 -1.736318e-05 9.101231e-08
4.442626e-05 -1.737412e-05 7.473387e-08
4.443604e-05 -1.736902e-05 -5.381946e-08
4.305899e-05 -1.685563e-05 -1.543999e-07
4.305873e-05 -1.684830e-05 1.999584e-07
4.439870e-05 -1.735840e-05 9.677144e-08
4.441578e-05 -1.737006e-05 8.061174e-08
4.442637e-05 -1.736531e-05 -5.836456e-08
4.308588e-05 -1.686470e-05 -1.578036e-07
4.308560e-05 -1.685826e-05 2.042984e-07
4.438511e-05 -1.735334e-05 1.024069e-07
4.440449e-05 -1.736572e-05 8.641541e-08
4.311330e-05 -1.687398e-05 -1.607553e-07
4.311302e-05 -1.686843e-05 2.080624e-07
4.437075e-05 -1.734800e-05 1.079001e-07
4.439241e-05 -1.736109e-05 9.212472e-08
4.314120e-05 -1.688344e-05 -1.632535e-07
4.314091e-05 -1.687879e-05 2.112491e-07
4.435565e-05 -1.734239e-05 1.132369e-07
4.437955e-05 -1.735618e-05 9.771895e-08
4.316949e-05 -1.689307e-05 -1.652967e-07
4.316919e-05 -1.688930e-05 2.138570e-07
4.433985e-05 -1.733651e-05 1.184069e-07
4.436593e-05 -1.735098e-05 1.031796e-07
4.436608e-05 -1.734296e-05 -8.021955e-08
4.432337e-05 -1.733037e-05 1.234024e-07
4.435159e-05 -1.734550e-05 1.084918e-07
4.322665e-05 -1.691069e-05 2.173317e-07
4.430626e-05 -1.732399e-05 1.282183e-07
4.433653e-05 -1.733975e-05 1.136442e-07
4.433669e-05 -1.733222e-05 -8.835246e-08
4.328509e-05 -1.693253e-05 -1.689007e-07
4.328479e-05 -1.693235e-05 2.184765e-07
4.428853e-05 -1.731737e-05 1.328509e-07
4.432080e-05 -1.733374e-05 1.186283e-07
4.432042e-05 -1.732957e-05 -8.819184e-08
4.331423e-05 -1.694249e-05 -1.686545e-07
4.331393e-05 -1.694321e-05 2.181718e-07
4.427021e-05 -1.731052e-05 1.372978e-07
4.430442e-05 -1.732747e-05 1.234382e-07
4.334331e-05 -1.695244e-05 -1.679473e-07
4.334302e-05 -1.695406e-05 2.172802e-07
4.425133e-05 -1.730345e-05 1.415576e-07
4.428740e-05 -1.732096e-05 1.280696e-07
4.337225e-05 -1.696233e-05 -1.667778e-07
4.337197e-05 -1.696485e-05 2.158003e-07
4.423192e-05 -1.729618e-05 1.456294e-07
4.426979e-05 -1.731421e-05 1.325198e-07
4.340099e-05 -1.697213e-05 -1.651448e-07
4.340071e-05 -1.697557e-05 2.137301e-07
4.425160e-05 -1.730725e-05 1.367868e-07
4.345751e-05 -1.699138e-05 -1.604829e-07
4.342917e-05 -1.698618e-05 2.110680e-07
4.423286e-05 -1.730006e-05 1.408697e-07
4.345726e-05 -1.699664e-05 2.078123e-07
4.417072e-05 -1.727319e-05 1.567136e-07
4.421360e-05 -1.729268e-05 1.447678e-07
4.348515e-05 -1.700076e-05 -1.574516e-07
4.348491e-05 -1.700694e-05 2.039611e-07
4.414942e-05 -1.726518e-05 1.600315e-07
4.419384e-05 -1.728510e-05 1.484808e-07
4.421381e-05 -1.728707e-05 -1.127105e-07
4.351226e-05 -1.700994e-05 -1.539523e-07
4.351203e-05 -1.701703e-05 1.995130e-07
4.412771e-05 -1.725700e-05 1.631614e-07
4.417361e-05 -1.727733e-05 1.520089e-07
4.353877e-05 -1.701888e-05 -1.499846e-07
4.353856e-05 -1.702689e-05 1.944669e-07
4.410562e-05 -1.724868e-05 1.661035e-07
4.415293e-05 -1.726939e-05 1.553521e-07
4.408317e-05 -1.724022e-05 1.688583e-07
4.413182e-05 -1.726129e-05 1.585107e-07
4.358948e-05 -1.704580e-05 1.825783e-07
4.406038e-05 -1.723162e-05 1.714261e-07
4.411032e-05 -1.725303e-05 1.614850e-07
4.363717e-05 -1.705170e-05 -1.294590e-07
4.363703e-05 -1.706339e-05 1.683030e-07
4.403728e-05 -1.722291e-05 1.738074e-07
4.408845e-05 -1.724462e-05 1.642754e-07
4.408869e-05 -1.724069e-05 -1.280196e-07
4.365946e-05 -1.705903e-05 -1.231883e-07
4.365934e-05 -1.707163e-05 1.602806e-07
4.401390e-05 -1.721408e-05 1.760025e-07
4.406623e-05 -1.723608e-05 1.668823e-07
4.368066e-05 -1.706596e-05 -1.164830e-07
4.368056e-05 -1.707944e-05 1.516801e-07
4.399026e-05 -1.720515e-05 1.780118e-07
4.404368e-05 -1.722741e-05 1.693060e-07
4.404394e-05 -1.722404e-05 -1.319693e-07
4.371945e-05 -1.707853e-05 -1.018550e-07
4.370061e-05 -1.708680e-05 1.425164e-07
4.396638e-05 -1.719613e-05 1.798358e-07
4.402084e-05 -1.721863e-05 1.715470e-07
4.402872e-05 -1.721990e-05 -1.296457e-07
4.373688e-05 -1.708415e-05 -9.399630e-08
4.371940e-05 -1.709368e-05 1.328114e-07
4.394229e-05 -1.718703e-05 1.814747e-07
4.399773e-05 -1.720974e-05 1.736057e-07
4.373684e-05 -1.710006e-05 1.225962e-07
4.391802e-05 -1.717785e-05 1.829291e-07
4.397437e-05 -1.720076e-05 1.754824e-07
4.375287e-05 -1.708931e-05 -8.583407e-08
4.375286e-05 -1.710590e-05 1.119136e-07
4.389358e-05 -1.716862e-05 1.841993e-07
4.395078e-05 -1.719168e-05 1.771775e-07
4.376736e-05 -1.709401e-05 -7.742692e-08
4.376736e-05 -1.711118e-05 1.008213e-07
4.386900e-05 -1.715933e-05 1.852857e-07
4.392700e-05 -1.718254e-05 1.786915e-07
4.378027e-05 -1.709828e-05 -6.884251e-08
4.378029e-05 -1.711590e-05 8.939344e-08
4.384431e-05 -1.714999e-05 1.861887e-07
4.390304e-05 -1.717332e-05 1.800247e-07
4.392727e-05 -1.718054e-05 -1.393426e-07
4.379155e-05 -1.710214e-05 -6.015007e-08
4.379158e-05 -1.712006e-05 7.772048e-08
4.381953e-05 -1.714062e-05 1.869087e-07
4.387892e-05 -1.716404e-05 1.811776e-07
4.390331e-05 -1.717160e-05 -1.403911e-07
4.380115e-05 -1.710563e-05 -5.140378e-08
4.380120e-05 -1.712370e-05 6.590047e-08
4.379468e-05 -1.713122e-05 1.874461e-07
4.385468e-05 -1.715472e-05 1.821505e-07
4.376979e-05 -1.712181e-05 1.878014e-07
4.383034e-05 -1.714535e-05 1.829439e-07
4.381541e-05 -1.712949e-05 4.219175e-08
4.374487e-05 -1.711239e-05 1.879748e-07
4.380592e-05 -1.713596e-05 1.835581e-07
4.382289e-05 -1.711582e-05 -1.642591e-08
4.382296e-05 -1.713309e-05 1.902282e-08
4.371997e-05 -1.710298e-05 1.879668e-07
4.378145e-05 -1.712654e-05 1.839935e-07
4.382425e-05 -1.711729e-05 -7.930357e-09
4.382433e-05 -1.713402e-05 7.868269e-09
4.369509e-05 -1.709357e-05 1.877776e-07
4.375694e-05 -1.711712e-05 1.842506e-07
4.375722e-05 -1.711703e-05 -1.437245e-07
4.382411e-05 -1.711828e-05 3.359090e-10
4.382418e-05 -1.713439e-05 -2.906124e-09
4.367026e-05 -1.708419e-05 1.874076e-07
4.373243e-05 -1.710769e-05 1.843297e-07
4.382252e-05 -1.711879e-05 8.319599e-09
4.382259e-05 -1.713421e-05 -1.325009e-08
4.364551e-05 -1.707483e-05 1.868571e-07
4.370793e-05 -1.709827e-05 1.842311e-07
4.370821e-05 -1.709872e-05 -1.437159e-07
4.381957e-05 -1.711883e-05 1.597853e-08
4.381963e-05 -1.713351e-05 -2.312644e-08
4.362085e-05 -1.706552e-05 1.861263e-07
4.368347e-05 -1.708886e-05 1.839552e-07
4.369641e-05 -1.709414e-05 -1.400982e-07
4.380987e-05 -1.711753e-05 3.020199e-08
4.381538e-05 -1.713231e-05 -3.250836e-08
4.359632e-05 -1.705625e-05 1.852152e-07
4.365907e-05 -1.707948e-05 1.835023e-07
4.380992e-05 -1.713064e-05 -4.137696e-08
4.363476e-05 -1.707014e-05 1.828726e-07
4.380327e-05 -1.711624e-05 3.672580e-08
4.380331e-05 -1.712853e-05 -4.971929e-08
4.361055e-05 -1.706083e-05 1.820663e-07
4.379560e-05 -1.711454e-05 4.284018e-08
4.379564e-05 -1.712600e-05 -5.752675e-08
4.352366e-05 -1.702882e-05 1.813997e-07
4.358648e-05 -1.705158e-05 1.810834e-07
4.378694e-05 -1.711245e-05 4.853720e-08
4.378697e-05 -1.712309e-05 -6.479389e-08
4.349983e-05 -1.701984e-05 1.797661e-07
4.356256e-05 -1.704239e-05 1.799240e-07
4.358675e-05 -1.705338e-05 -1.412607e-07
4.377737e-05 -1.711002e-05 5.381179e-08
4.377738e-05 -1.711982e-05 -7.151749e-08
4.347623e-05 -1.701094e-05 1.779506e-07
4.353882e-05 -1.703327e-05 1.785878e-07
4.345288e-05 -1.700215e-05 1.759527e-07
4.351528e-05 -1.702423e-05 1.770745e-07
4.375575e-05 -1.711231e-05 -8.332828e-08
4.342981e-05 -1.699347e-05 1.737724e-07
4.349196e-05 -1.701528e-05 1.753836e-07
4.373132e-05 -1.709725e-05 7.064341e-08
4.373131e-05 -1.710372e-05 -9.295596e-08
4.340704e-05 -1.698492e-05 1.714093e-07
4.346889e-05 -1.700643e-05 1.735145e-07
4.371823e-05 -1.709344e-05 7.378219e-08
4.371821e-05 -1.709908e-05 -9.695233e-08
4.338460e-05 -1.697649e-05 1.688625e-07
4.344609e-05 -1.699768e-05 1.714668e-07
4.370466e-05 -1.708944e-05 7.649397e-08
4.370464e-05 -1.709425e-05 -1.004048e-07
4.336250e-05 -1.696819e-05 1.661317e-07
4.342357e-05 -1.698905e-05 1.692400e-07
4.369068e-05 -1.708528e-05 7.877936e-08
4.369065e-05 -1.708926e-05 -1.033142e-07
4.334078e-05 -1.696005e-05 1.632163e-07
4.340137e-05 -1.698055e-05 1.668335e-07
4.340161e-05 -1.698451e-05 -1.300790e-07
4.366175e-05 -1.707658e-05 8.207360e-08
4.367631e-05 -1.708414e-05 -1.056814e-07
4.331945e-05 -1.695206e-05 1.601161e-07
4.337951e-05 -1.697218e-05 1.642467e-07
4.364695e-05 -1.707211e-05 8.308367e-08
4.366171e-05 -1.707892e-05 -1.075072e-07
4.329854e-05 -1.694423e-05 1.568310e-07
4.335802e-05 -1.696395e-05 1.614793e-07
4.335824e-05 -1.696846e-05 -1.258801e-07
4.364691e-05 -1.707361e-05 -1.087925e-07
4.327807e-05 -1.693658e-05 1.533610e-07
4.333690e-05 -1.695587e-05 1.585310e-07
4.335270e-05 -1.696442e-05 -1.216919e-07
4.363203e-05 -1.706758e-05 8.366976e-08
4.363198e-05 -1.706826e-05 -1.095379e-07
4.331619e-05 -1.694795e-05 1.554016e-07
4.361705e-05 -1.706303e-05 8.383231e-08
4.361700e-05 -1.706289e-05 -1.097441e-07
4.323856e-05 -1.692184e-05 1.458663e-07
4.329592e-05 -1.694020e-05 1.520911e-07
4.360207e-05 -1.705849e-05 8.357174e-08
4.360203e-05 -1.705753e-05 -1.094116e-07
4.327610e-05 -1.693263e-05 1.485995e-07
4.320110e-05 -1.690789e-05 1.376327e-07
4.325675e-05 -1.692525e-05 1.449268e-07
4.327629e-05 -1.693825e-05 -1.157838e-07
4.357240e-05 -1.704693e-05 -1.071326e-07
4.318319e-05 -1.690124e-05 1.332391e-07
4.323791e-05 -1.691806e-05 1.410731e-07
4.354373e-05 -1.704092e-05 7.830723e-08
4.354368e-05 -1.703668e-05 -1.027054e-07
4.316586e-05 -1.689482e-05 1.286610e-07
4.321958e-05 -1.691108e-05 1.370386e-07
4.352987e-05 -1.703682e-05 7.593922e-08
4.352983e-05 -1.703176e-05 -9.968796e-08
4.314913e-05 -1.688863e-05 1.238986e-07
4.320181e-05 -1.690431e-05 1.328234e-07
4.321975e-05 -1.691752e-05 -1.067211e-07
4.351645e-05 -1.703288e-05 7.315339e-08
4.351641e-05 -1.702701e-05 -9.613635e-08
4.313303e-05 -1.688269e-05 1.189519e-07
4.318460e-05 -1.689776e-05 1.284275e-07
4.350353e-05 -1.702914e-05 6.995268e-08
4.350350e-05 -1.702245e-05 -9.205256e-08
4.311758e-05 -1.687701e-05 1.138210e-07
4.316798e-05 -1.689145e-05 1.238510e-07
4.349119e-05 -1.702562e-05 6.634151e-08
4.349116e-05 -1.701812e-05 -8.743974e-08
4.310280e-05 -1.687158e-05 1.085057e-07
4.315198e-05 -1.688537e-05 1.190941e-07
4.347949e-05 -1.702234e-05 6.232642e-08
4.347946e-05 -1.701404e-05 -8.230259e-08
4.308872e-05 -1.686643e-05 1.030061e-07
4.313662e-05 -1.687955e-05 1.141567e-07
4.345829e-05 -1.701658e-05 5.312606e-08
4.346847e-05 -1.701023e-05 -7.664812e-08
4.307535e-05 -1.686155e-05 9.732194e-08
4.312191e-05 -1.687398e-05 1.090388e-07
4.312204e-05 -1.688207e-05 -8.476449e-08
4.345827e-05 -1.700672e-05 -7.048652e-08
4.306272e-05 -1.685697e-05 9.145316e-08
4.310789e-05 -1.686868e-05 1.037404e-07
4.344894e-05 -1.701414e-05 4.797234e-08
4.344893e-05 -1.700354e-05 -6.383238e-08
4.305085e-05 -1.685268e-05 8.539949e-08
4.309457e-05 -1.686365e-05 9.826145e-08
4.309468e-05 -1.687230e-05 -7.631048e-08
4.344052e-05 -1.701202e-05 4.248017e-08
4.344051e-05 -1.700071e-05 -5.670613e-08
4.303976e-05 -1.684870e-05 7.916064e-08
4.308198e-05 -1.685891e-05 9.260171e-08
4.309812e-05 -1.686979e-05 -7.238034e-08
4.343310e-05 -1.701022e-05 3.668143e-08
4.343309e-05 -1.699825e-05 -4.913585e-08
4.307014e-05 -1.685446e-05 8.676101e-08
4.305908e-05 -1.685032e-05 8.073909e-08
4.342153e-05 -1.699453e-05 -3.282574e-08
4.301143e-05 -1.683868e-05 5.932899e-08
4.304881e-05 -1.684648e-05 7.453561e-08
4.341469e-05 -1.700619e-05 1.130371e-08
4.341470e-05 -1.699244e-05 -1.534193e-08
4.300370e-05 -1.683602e-05 5.234513e-08
4.303936e-05 -1.684297e-05 6.815016e-08
4.304889e-05 -1.685624e-05 -5.769397e-08
4.341314e-05 -1.700590e-05 4.634754e-09
4.341316e-05 -1.699197e-05 -6.332197e-09
4.299687e-05 -1.683370e-05 4.517372e-08
4.303075e-05 -1.683978e-05 6.158226e-08
4.341287e-05 -1.700588e-05 -2.117889e-09
4.341288e-05 -1.699186e-05 2.767008e-09
4.299096e-05 -1.683174e-05 3.781423e-08
4.302300e-05 -1.683694e-05 5.483139e-08
4.341386e-05 -1.700615e-05 -8.934622e-09
4.341387e-05 -1.699215e-05 1.188738e-08
4.298600e-05 -1.683015e-05 3.026626e-08
4.301615e-05 -1.683443e-05 4.789698e-08
4.341614e-05 -1.700674e-05 -1.577471e-08
4.341615e-05 -1.699288e-05 2.095763e-08
4.298199e-05 -1.682894e-05 2.252962e-08
4.301020e-05 -1.683229e-05 4.077844e-08
4.342440e-05 -1.700902e-05 -2.932356e-08
4.341967e-05 -1.699405e-05 2.991271e-08
4.297898e-05 -1.682811e-05 1.460450e-08
4.300519e-05 -1.683050e-05 3.347526e-08
4.343032e-05 -1.701073e-05 -3.594064e-08
4.342440e-05 -1.699567e-05 3.869921e-08
4.297697e-05 -1.682768e-05 6.491733e-09
4.300113e-05 -1.682909e-05 2.598708e-08
4.343032e-05 -1.699773e-05 4.727578e-08
4.297600e-05 -1.682765e-05 -1.806907e-09
4.299805e-05 -1.682806e-05 1.831379e-08
4.343737e-05 -1.701283e-05 -4.240418e-08
4.343736e-05 -1.700023e-05 5.561146e-08
4.297609e-05 -1.682803e-05 -1.028823e-08
4.299598e-05 -1.682743e-05 1.045577e-08
4.299602e-05 -1.683973e-05 -7.384925e-09
4.344552e-05 -1.701532e-05 -4.868745e-08
4.344550e-05 -1.700313e-05 6.368370e-08
4.297727e-05 -1.682882e-05 -1.894702e-08
4.299493e-05 -1.682719e-05 2.414167e-09
4.345471e-05 -1.701819e-05 -5.477040e-08
4.345469e-05 -1.700644e-05 7.147647e-08
4.297956e-05 -1.683004e-05 -2.777522e-08
4.299494e-05 -1.682735e-05 -5.808773e-09
4.299498e-05 -1.684023e-05 5.370878e-09
4.298301e-05 -1.683170e-05 -3.676084e-08
4.299602e-05 -1.682794e-05 -1.420915e-08
4.301013e-05 -1.684028e-05 8.200132e-09
4.347605e-05 -1.701421e-05 8.618267e-08
4.298764e-05 -1.683379e-05 -4.588655e-08
4.299821e-05 -1.682895e-05 -2.278072e-08
4.350117e-05 -1.703331e-05 -7.686515e-08
4.350112e-05 -1.702342e-05 9.967846e-08
4.299350e-05 -1.683634e-05 -5.512786e-08
4.300153e-05 -1.683039e-05 -3.151404e-08
4.299825e-05 -1.684237e-05 1.864864e-08
4.351500e-05 -1.703794e-05 -8.179848e-08
4.351494e-05 -1.702853e-05 1.059653e-07
4.300063e-05 -1.683933e-05 -6.445094e-08
4.300600e-05 -1.683228e-05 -4.039526e-08
4.300156e-05 -1.684406e-05 2.545826e-08
4.352963e-05 -1.704289e-05 -8.648989e-08
4.352957e-05 -1.703395e-05 1.119431e-07
4.300911e-05 -1.684277e-05 -7.381021e-08
4.301165e-05 -1.683461e-05 -4.940471e-08
4.354504e-05 -1.704814e-05 -9.093836e-08
4.354497e-05 -1.703967e-05 1.176114e-07
4.301898e-05 -1.684666e-05 -8.314649e-08
4.301851e-05 -1.683740e-05 -5.851519e-08
4.356117e-05 -1.705368e-05 -9.514336e-08
4.356109e-05 -1.704568e-05 1.229700e-07
4.303031e-05 -1.685097e-05 -9.238819e-08
4.302661e-05 -1.684065e-05 -6.769009e-08
4.357799e-05 -1.705948e-05 -9.910466e-08
4.357790e-05 -1.705195e-05 1.280188e-07
4.304315e-05 -1.685569e-05 -1.014652e-07
4.303597e-05 -1.684435e-05 -7.688182e-08
4.359546e-05 -1.706554e-05 -1.028222e-07
4.359537e-05 -1.705848e-05 1.327580e-07
4.305750e-05 -1.686078e-05 -1.103351e-07
4.304659e-05 -1.684849e-05 -8.603163e-08
4.363218e-05 -1.707836e-05 -1.095260e-07
4.361344e-05 -1.706525e-05 1.371874e-07
4.307331e-05 -1.686627e-05 -1.189556e-07
4.305848e-05 -1.685304e-05 -9.507354e-08
4.363208e-05 -1.707225e-05 1.413070e-07
4.309048e-05 -1.687214e-05 -1.272559e-07
4.307160e-05 -1.685796e-05 -1.039431e-07
4.365136e-05 -1.708509e-05 -1.125123e-07
4.365125e-05 -1.707945e-05 1.451167e-07
4.310890e-05 -1.687840e-05 -1.351635e-07
4.308595e-05 -1.686324e-05 -1.125792e-07
4.308608e-05 -1.687647e-05 8.690046e-08
4.367103e-05 -1.709201e-05 -1.152547e-07
4.367091e-05 -1.708684e-05 1.486162e-07
4.312845e-05 -1.688503e-05 -1.426177e-07
4.310149e-05 -1.686890e-05 -1.209171e-07
4.314903e-05 -1.689202e-05 -1.495717e-07
4.311816e-05 -1.687495e-05 -1.288900e-07
4.311832e-05 -1.688707e-05 9.912956e-08
4.371155e-05 -1.710214e-05 1.546837e-07
4.313592e-05 -1.688139e-05 -1.364382e-07
4.314059e-05 -1.688972e-05 9.994476e-08
4.375379e-05 -1.712131e-05 -1.237810e-07
4.375366e-05 -1.711803e-05 1.595061e-07
4.315469e-05 -1.688821e-05 -1.435128e-07
4.377531e-05 -1.712896e-05 -1.253002e-07
4.377518e-05 -1.712615e-05 1.614490e-07
4.321597e-05 -1.691485e-05 -1.671211e-07
4.317439e-05 -1.689537e-05 -1.500755e-07
4.379707e-05 -1.713670e-05 -1.265736e-07
4.379694e-05 -1.713437e-05 1.630789e-07
4.323971e-05 -1.692300e-05 -1.718013e-07
4.319495e-05 -1.690285e-05 -1.560975e-07
4.317460e-05 -1.690522e-05 1.153037e-07
4.381904e-05 -1.714453e-05 -1.276010e-07
4.381890e-05 -1.714267e-05 1.643953e-07
4.326403e-05 -1.693137e-05 -1.758767e-07
4.321627e-05 -1.691063e-05 -1.615575e-07
4.384117e-05 -1.715242e-05 -1.283820e-07
4.384104e-05 -1.715104e-05 1.653976e-07
4.328884e-05 -1.693992e-05 -1.793404e-07
4.323830e-05 -1.691868e-05 -1.664399e-07
4.388578e-05 -1.716833e-05 -1.292045e-07
4.386329e-05 -1.715946e-05 1.660852e-07
4.331407e-05 -1.694864e-05 -1.821873e-07
4.326093e-05 -1.692696e-05 -1.707335e-07
4.390816e-05 -1.717633e-05 -1.292466e-07
4.388564e-05 -1.716791e-05 1.664578e-07
4.333963e-05 -1.695750e-05 -1.844137e-07
4.328411e-05 -1.693545e-05 -1.744302e-07
4.390802e-05 -1.717638e-05 1.665155e-07
4.336545e-05 -1.696645e-05 -1.860171e-07
4.330774e-05 -1.694412e-05 -1.775243e-07
4.393054e-05 -1.718432e-05 -1.290438e-07
4.393041e-05 -1.718485e-05 1.662585e-07
4.339145e-05 -1.697547e-05 -1.869954e-07
4.333174e-05 -1.695294e-05 -1.800117e-07
4.395288e-05 -1.719230e-05 -1.285978e-07
4.395275e-05 -1.719331e-05 1.656877e-07
4.341754e-05 -1.698454e-05 -1.873469e-07
4.335605e-05 -1.696188e-05 -1.818896e-07
4.397513e-05 -1.720026e-05 -1.279115e-07
4.397500e-05 -1.720174e-05 1.648051e-07
4.344365e-05 -1.699362e-05 -1.870703e-07
4.338057e-05 -1.697091e-05 -1.831556e-07
4.346970e-05 -1.700267e-05 -1.861643e-07
4.340524e-05 -1.697999e-05 -1.838081e-07
4.340554e-05 -1.698070e-05 1.415639e-07
4.401909e-05 -1.721844e-05 1.621175e-07
4.349560e-05 -1.701167e-05 -1.846276e-07
4.342996e-05 -1.698910e-05 -1.838457e-07
4.406242e-05 -1.723154e-05 -1.228771e-07
4.406231e-05 -1.723482e-05 1.582425e-07
4.352129e-05 -1.702059e-05 -1.824591e-07
4.345466e-05 -1.699820e-05 -1.832671e-07
4.345497e-05 -1.699702e-05 1.411347e-07
4.408360e-05 -1.723917e-05 -1.210939e-07
4.408349e-05 -1.724286e-05 1.558858e-07
4.354667e-05 -1.702938e-05 -1.796574e-07
4.347926e-05 -1.700727e-05 -1.820710e-07
4.410443e-05 -1.724671e-05 -1.191284e-07
4.410433e-05 -1.725077e-05 1.532711e-07
4.357166e-05 -1.703803e-05 -1.762212e-07
4.350368e-05 -1.701626e-05 -1.802564e-07
4.412488e-05 -1.725416e-05 -1.169960e-07
4.412479e-05 -1.725856e-05 1.504188e-07
4.359619e-05 -1.704650e-05 -1.721494e-07
4.352784e-05 -1.702516e-05 -1.778219e-07
4.350399e-05 -1.701319e-05 1.387666e-07
4.414492e-05 -1.726151e-05 -1.147085e-07
4.414484e-05 -1.726622e-05 1.473513e-07
4.362017e-05 -1.705476e-05 -1.674404e-07
4.355165e-05 -1.703392e-05 -1.747663e-07
4.416453e-05 -1.726876e-05 -1.122711e-07
4.416445e-05 -1.727375e-05 1.440898e-07
4.364351e-05 -1.706276e-05 -1.620930e-07
4.357503e-05 -1.704252e-05 -1.710883e-07
4.418367e-05 -1.727589e-05 -1.096876e-07
4.418360e-05 -1.728113e-05 1.406550e-07
4.366615e-05 -1.707049e-05 -1.561057e-07
4.359790e-05 -1.705092e-05 -1.667867e-07
4.422047e-05 -1.728975e-05 -1.041276e-07
4.420226e-05 -1.728835e-05 1.370693e-07
4.368798e-05 -1.707791e-05 -1.494774e-07
4.362018e-05 -1.705909e-05 -1.618601e-07
4.422042e-05 -1.729538e-05 1.333546e-07
4.370893e-05 -1.708498e-05 -1.422069e-07
4.364178e-05 -1.706699e-05 -1.563070e-07
4.423811e-05 -1.729643e-05 -1.011825e-07
4.423807e-05 -1.730222e-05 1.295292e-07
4.372891e-05 -1.709167e-05 -1.342934e-07
4.366262e-05 -1.707460e-05 -1.501263e-07
4.425522e-05 -1.730294e-05 -9.814689e-08
4.425519e-05 -1.730887e-05 1.256080e-07
4.374785e-05 -1.709796e-05 -1.257362e-07
4.368262e-05 -1.708189e-05 -1.433167e-07
4.427180e-05 -1.730926e-05 -9.503289e-08
4.427177e-05 -1.731531e-05 1.216020e-07
4.376566e-05 -1.710380e-05 -1.165357e-07
4.370170e-05 -1.708881e-05 -1.358770e-07
4.378225e-05 -1.710916e-05 -1.066930e-07
4.371976e-05 -1.709533e-05 -1.278066e-07
4.430332e-05 -1.732756e-05 1.133659e-07
4.373672e-05 -1.710143e-05 -1.191052e-07
4.433264e-05 -1.733248e-05 -8.194819e-08
4.433263e-05 -1.733894e-05 1.048619e-07
4.381143e-05 -1.711834e-05 -8.509350e-08
4.375251e-05 -1.710707e-05 -1.097734e-07
4.375270e-05 -1.709250e-05 8.342835e-08
4.434644e-05 -1.733775e-05 -7.854300e-08
4.434644e-05 -1.734430e-05 1.005160e-07
4.376703e-05 -1.711221e-05 -9.981269e-08
4.435965e-05 -1.734279e-05 -7.508915e-08
4.435966e-05 -1.734943e-05 9.610939e-08
4.383471e-05 -1.712522e-05 -6.099010e-08
4.378020e-05 -1.711683e-05 -8.922662e-08
4.373730e-05 -1.708594e-05 5.056480e-08
4.437228e-05 -1.734760e-05 -7.158779e-08
4.437229e-05 -1.735433e-05 9.164284e-08
4.384390e-05 -1.712773e-05 -4.803378e-08
4.379193e-05 -1.712089e-05 -7.802101e-08
4.439573e-05 -1.735651e-05 -6.444518e-08
4.438432e-05 -1.735900e-05 8.711681e-08
4.385133e-05 -1.712958e-05 -3.450623e-08
4.380214e-05 -1.712435e-05 -6.620521e-08
4.440654e-05 -1.736061e-05 -6.080459e-08
4.439575e-05 -1.736343e-05 8.253158e-08
4.385689e-05 -1.713073e-05 -2.044411e-08
4.381074e-05 -1.712719e-05 -5.379341e-08
4.380229e-05 -1.710600e-05 4.933132e-08
4.440656e-05 -1.736761e-05 7.788729e-08
4.386046e-05 -1.713117e-05 -5.898300e-09
4.381765e-05 -1.712938e-05 -4.080637e-08
4.441672e-05 -1.736447e-05 -5.711803e-08
4.441675e-05 -1.737156e-05 7.318404e-08
4.386190e-05 -1.713087e-05 9.062074e-09
4.382276e-05 -1.713088e-05 -2.727370e-08
4.442627e-05 -1.736807e-05 -5.338555e-08
4.442631e-05 -1.737525e-05 6.842186e-08
4.386109e-05 -1.712982e-05 2.434566e-08
4.382600e-05 -1.713166e-05 -1.323653e-08
4.443518e-05 -1.737143e-05 -4.960716e-08
4.443522e-05 -1.737870e-05 6.360079e-08
4.385787e-05 -1.712803e-05 3.983753e-08
4.382728e-05 -1.713171e-05 1.249279e-09
4.444344e-05 -1.737453e-05 -4.578289e-08
4.444349e-05 -1.738189e-05 5.872089e-08
4.385212e-05 -1.712551e-05 5.540868e-08
4.382653e-05 -1.713100e-05 1.611007e-08
4.384374e-05 -1.712231e-05 7.096231e-08
4.382366e-05 -1.712953e-05 3.125253e-08
4.445804e-05 -1.738749e-05 4.878478e-08
4.383276e-05 -1.711840e-05 8.643236e-08
4.381864e-05 -1.712733e-05 4.656632e-08
4.446984e-05 -1.738432e-05 -3.002704e-08
4.446990e-05 -1.739204e-05 3.861409e-08
4.381927e-05 -1.711379e-05 1.017175e-07
4.381146e-05 -1.712444e-05 6.193677e-08
4.447474e-05 -1.738611e-05 -2.597348e-08
4.447480e-05 -1.739391e-05 3.344100e-08
4.380342e-05 -1.710844e-05 1.166895e-07
4.380212e-05 -1.712091e-05 7.725610e-08
4.447893e-05 -1.738761e-05 -2.187415e-08
4.447900e-05 -1.739550e-05 2.820953e-08
4.378539e-05 -1.710236e-05 1.312365e-07
4.379064e-05 -1.711669e-05 9.241600e-08
4.379082e-05 -1.709387e-05 -7.105560e-08
4.448242e-05 -1.738884e-05 -1.772912e-08
4.448249e-05 -1.739682e-05 2.291981e-08
4.376531e-05 -1.709558e-05 1.452703e-07
4.377703e-05 -1.711175e-05 1.073020e-07
4.448520e-05 -1.738980e-05 -1.353847e-08
4.448527e-05 -1.739786e-05 1.757197e-08
4.374334e-05 -1.708812e-05 1.587251e-07
4.376137e-05 -1.710607e-05 1.218056e-07
4.376160e-05 -1.708442e-05 -9.328002e-08
4.448726e-05 -1.739046e-05 -9.302359e-09
4.448733e-05 -1.739862e-05 1.216616e-08
4.371961e-05 -1.708001e-05 1.715526e-07
4.374374e-05 -1.709966e-05 1.358365e-07
4.372841e-05 -1.708210e-05 -9.674002e-08
4.448858e-05 -1.739085e-05 -5.021010e-09
4.448865e-05 -1.739909e-05 6.702608e-09
4.369422e-05 -1.707128e-05 1.837187e-07
4.372423e-05 -1.709254e-05 1.493239e-07
4.448902e-05 -1.739075e-05 3.675761e-09
4.448924e-05 -1.739927e-05 1.181610e-09
4.366731e-05 -1.706197e-05 1.951997e-07
4.370294e-05 -1.708475e-05 1.622146e-07
4.448811e-05 -1.739025e-05 8.089761e-09
4.448909e-05 -1.739916e-05 -4.396395e-09
4.363897e-05 -1.705211e-05 2.059795e-07
4.367997e-05 -1.707631e-05 1.744700e-07
4.448818e-05 -1.739875e-05 -1.003076e-08
4.360930e-05 -1.704175e-05 2.160479e-07
4.365543e-05 -1.706727e-05 1.860627e-07
4.448644e-05 -1.738947e-05 1.254593e-08
4.448651e-05 -1.739805e-05 -1.572050e-08
4.357842e-05 -1.703091e-05 2.253987e-07
4.362941e-05 -1.705766e-05 1.969740e-07
4.354641e-05 -1.701963e-05 2.340288e-07
4.360201e-05 -1.704752e-05 2.071914e-07
4.448086e-05 -1.739574e-05 -2.725970e-08
4.351337e-05 -1.700795e-05 2.419368e-07
4.357334e-05 -1.703688e-05 2.167073e-07
4.447202e-05 -1.738333e-05 3.074003e-08
4.447208e-05 -1.739220e-05 -3.899279e-08
4.347940e-05 -1.699591e-05 2.491229e-07
4.354348e-05 -1.702579e-05 2.255174e-07
4.446643e-05 -1.738105e-05 3.535732e-08
4.446649e-05 -1.738997e-05 -4.491999e-08
4.344458e-05 -1.698355e-05 2.555883e-07
4.351255e-05 -1.701427e-05 2.336196e-07
4.446004e-05 -1.737847e-05 3.998656e-08
4.446010e-05 -1.738743e-05 -5.087731e-08
4.348062e-05 -1.700237e-05 2.410138e-07
4.445284e-05 -1.737559e-05 4.461607e-08
4.445289e-05 -1.738457e-05 -5.685360e-08
4.344780e-05 -1.699012e-05 2.477007e-07
4.444481e-05 -1.737243e-05 4.923199e-08
4.444486e-05 -1.738140e-05 -6.283429e-08
4.333604e-05 -1.694485e-05 2.706791e-07
4.341418e-05 -1.697757e-05 2.536818e-07
4.338878e-05 -1.695791e-05 -1.368611e-07
4.442630e-05 -1.736529e-05 5.836470e-08
4.443601e-05 -1.737792e-05 -6.880127e-08
4.329879e-05 -1.693154e-05 2.742819e-07
4.337985e-05 -1.696474e-05 2.589592e-07
4.341471e-05 -1.696928e-05 -1.959794e-07
4.441582e-05 -1.736133e-05 6.286036e-08
4.442634e-05 -1.737415e-05 -7.473385e-08
4.326117e-05 -1.691808e-05 2.771749e-07
4.334491e-05 -1.695168e-05 2.635350e-07
4.336619e-05 -1.695254e-05 -1.342330e-07
4.441585e-05 -1.737009e-05 -8.061155e-08
4.322326e-05 -1.690452e-05 2.793606e-07
4.330946e-05 -1.693842e-05 2.674117e-07
4.440454e-05 -1.735711e-05 6.730299e-08
4.440456e-05 -1.736575e-05 -8.641505e-08
4.318516e-05 -1.689088e-05 2.808413e-07
4.327358e-05 -1.692499e-05 2.705916e-07
4.439246e-05 -1.735265e-05 7.168603e-08
4.439248e-05 -1.736112e-05 -9.212420e-08
4.314694e-05 -1.687720e-05 2.816193e-07
4.323736e-05 -1.691144e-05 2.730773e-07
4.437961e-05 -1.734792e-05 7.599694e-08
4.437962e-05 -1.735621e-05 -9.771828e-08
4.310871e-05 -1.686352e-05 2.816970e-07
4.320089e-05 -1.689779e-05 2.748712e-07
4.307055e-05 -1.684987e-05 2.810763e-07
4.316428e-05 -1.688409e-05 2.759754e-07
4.435166e-05 -1.734553e-05 -1.084909e-07
4.303254e-05 -1.683629e-05 2.797594e-07
4.312760e-05 -1.687037e-05 2.763923e-07
4.432089e-05 -1.732644e-05 9.224216e-08
4.432087e-05 -1.733377e-05 -1.186272e-07
4.299478e-05 -1.682280e-05 2.777483e-07
4.309094e-05 -1.685667e-05 2.761240e-07
4.430452e-05 -1.732044e-05 9.600070e-08
4.430449e-05 -1.732750e-05 -1.234370e-07
4.295735e-05 -1.680945e-05 2.750452e-07
4.305439e-05 -1.684301e-05 2.751726e-07
4.428751e-05 -1.731421e-05 9.962448e-08
4.428747e-05 -1.732099e-05 -1.280684e-07
4.292034e-05 -1.679626e-05 2.716523e-07
4.301805e-05 -1.682943e-05 2.735400e-07
4.426990e-05 -1.730774e-05 1.031097e-07
4.426986e-05 -1.731424e-05 -1.325185e-07
4.288382e-05 -1.678328e-05 2.675723e-07
4.298200e-05 -1.681597e-05 2.712284e-07
4.425172e-05 -1.730105e-05 1.064539e-07
4.425167e-05 -1.730728e-05 -1.367855e-07
4.284789e-05 -1.677052e-05 2.628082e-07
4.294632e-05 -1.680266e-05 2.682398e-07
4.423299e-05 -1.729415e-05 1.096552e-07
4.423293e-05 -1.730009e-05 -1.408683e-07
4.281263e-05 -1.675803e-05 2.573642e-07
4.291110e-05 -1.678954e-05 2.645765e-07
4.294688e-05 -1.680816e-05 -2.075244e-07
4.419398e-05 -1.727974e-05 1.156258e-07
4.421367e-05 -1.729271e-05 -1.447664e-07
4.277813e-05 -1.674583e-05 2.512456e-07
4.287642e-05 -1.677663e-05 2.602412e-07
4.291164e-05 -1.679608e-05 -2.046555e-07
4.419391e-05 -1.728513e-05 -1.484794e-07
4.274447e-05 -1.673396e-05 2.444599e-07
4.284238e-05 -1.676397e-05 2.552373e-07
4.284289e-05 -1.677258e-05 -1.973420e-07
4.417376e-05 -1.727226e-05 1.183942e-07
4.417367e-05 -1.727736e-05 -1.520074e-07
4.271173e-05 -1.672245e-05 2.370171e-07
4.280905e-05 -1.675159e-05 2.495694e-07
4.415308e-05 -1.726460e-05 1.210178e-07
4.415299e-05 -1.726942e-05 -1.553506e-07
4.268002e-05 -1.671132e-05 2.289316e-07
4.277653e-05 -1.673953e-05 2.432433e-07
4.277699e-05 -1.675018e-05 -1.879629e-07
4.413198e-05 -1.725677e-05 1.234968e-07
4.413189e-05 -1.726131e-05 -1.585092e-07
4.264942e-05 -1.670061e-05 2.202230e-07
4.274489e-05 -1.672781e-05 2.362676e-07
4.277337e-05 -1.674452e-05 -1.811950e-07
4.411049e-05 -1.724879e-05 1.258314e-07
4.411039e-05 -1.725305e-05 -1.614835e-07
4.262003e-05 -1.669033e-05 2.109182e-07
4.271422e-05 -1.671647e-05 2.286537e-07
4.259197e-05 -1.668053e-05 2.010539e-07
4.268461e-05 -1.670553e-05 2.204178e-07
4.406629e-05 -1.723611e-05 -1.668808e-07
4.256533e-05 -1.667122e-05 1.906794e-07
4.265614e-05 -1.669503e-05 2.115819e-07
4.402103e-05 -1.721551e-05 1.337315e-07
4.402091e-05 -1.721866e-05 -1.715456e-07
4.254026e-05 -1.666242e-05 1.798597e-07
4.262890e-05 -1.668499e-05 2.021761e-07
4.399793e-05 -1.720690e-05 1.353484e-07
4.399779e-05 -1.720977e-05 -1.736042e-07
4.251687e-05 -1.665414e-05 1.686774e-07
4.260297e-05 -1.667544e-05 1.922404e-07
4.397457e-05 -1.719819e-05 1.368228e-07
4.397443e-05 -1.720078e-05 -1.754809e-07
4.249530e-05 -1.664637e-05 1.572301e-07
4.257844e-05 -1.666641e-05 1.818277e-07
4.395099e-05 -1.718939e-05 1.381549e-07
4.395085e-05 -1.719171e-05 -1.771761e-07
4.255536e-05 -1.665789e-05 1.710049e-07
4.390325e-05 -1.717158e-05 1.403935e-07
4.392706e-05 -1.718256e-05 -1.786900e-07
4.253382e-05 -1.664989e-05 1.598530e-07
4.387914e-05 -1.716257e-05 1.413006e-07
4.390310e-05 -1.717334e-05 -1.800233e-07
4.244224e-05 -1.662602e-05 1.220614e-07
4.251384e-05 -1.664239e-05 1.484605e-07
4.387899e-05 -1.716407e-05 -1.811761e-07
4.242834e-05 -1.662027e-05 1.102882e-07
4.249544e-05 -1.663535e-05 1.369125e-07
4.251402e-05 -1.666052e-05 -1.157601e-07
4.385490e-05 -1.715352e-05 1.420667e-07
4.385475e-05 -1.715474e-05 -1.821490e-07
4.241619e-05 -1.661507e-05 9.864089e-08
4.247863e-05 -1.662877e-05 1.252897e-07
4.383056e-05 -1.714443e-05 1.426921e-07
4.383040e-05 -1.714538e-05 -1.829424e-07
4.240568e-05 -1.661042e-05 8.719663e-08
4.246343e-05 -1.662271e-05 1.136777e-07
4.246354e-05 -1.664097e-05 -8.987765e-08
4.380614e-05 -1.713531e-05 1.431771e-07
4.380598e-05 -1.713599e-05 -1.835566e-07
4.239673e-05 -1.660630e-05 7.601500e-08
4.244981e-05 -1.661720e-05 1.021634e-07
4.378167e-05 -1.712617e-05 1.435219e-07
4.378151e-05 -1.712657e-05 -1.839920e-07
4.238923e-05 -1.660271e-05 6.514027e-08
4.243774e-05 -1.661224e-05 9.082376e-08
4.243782e-05 -1.662993e-05 -7.253326e-08
4.238313e-05 -1.659963e-05 5.460456e-08
4.242717e-05 -1.660783e-05 7.972095e-08
4.245245e-05 -1.662714e-05 -6.606522e-08
4.373248e-05 -1.710771e-05 -1.843281e-07
4.237835e-05 -1.659705e-05 4.443073e-08
4.241805e-05 -1.660397e-05 6.890283e-08
4.368369e-05 -1.708956e-05 1.435052e-07
4.368353e-05 -1.708889e-05 -1.839537e-07
4.237483e-05 -1.659494e-05 3.463463e-08
4.241032e-05 -1.660063e-05 5.840505e-08
4.365929e-05 -1.708045e-05 1.431530e-07
4.365913e-05 -1.707951e-05 -1.835008e-07
4.237251e-05 -1.659329e-05 2.522701e-08
4.240394e-05 -1.659780e-05 4.825346e-08
4.363498e-05 -1.707137e-05 1.426620e-07
4.363481e-05 -1.707016e-05 -1.828711e-07
4.237133e-05 -1.659209e-05 1.621489e-08
4.239884e-05 -1.659546e-05 3.846635e-08
4.361077e-05 -1.706234e-05 1.420320e-07
4.361061e-05 -1.706086e-05 -1.820647e-07
4.239496e-05 -1.659359e-05 2.905627e-08
4.356278e-05 -1.704444e-05 1.403551e-07
4.358654e-05 -1.705160e-05 -1.810819e-07
4.239227e-05 -1.659218e-05 2.003156e-08
4.356262e-05 -1.704242e-05 -1.799224e-07
4.237417e-05 -1.659094e-05 -8.413333e-09
4.239070e-05 -1.659121e-05 1.139752e-08
4.353903e-05 -1.703559e-05 1.393077e-07
4.353888e-05 -1.703330e-05 -1.785862e-07
4.237706e-05 -1.659132e-05 -1.581531e-08
4.239021e-05 -1.659065e-05 3.157289e-09
4.239075e-05 -1.660445e-05 -1.072108e-08
4.351549e-05 -1.702682e-05 1.381205e-07
4.351534e-05 -1.702426e-05 -1.770729e-07
4.238085e-05 -1.659205e-05 -2.281315e-08
4.239074e-05 -1.659048e-05 -4.687444e-09
4.239026e-05 -1.660327e-05 -4.249630e-09
4.349216e-05 -1.701814e-05 1.367932e-07
4.349202e-05 -1.701531e-05 -1.753820e-07
4.238549e-05 -1.659310e-05 -2.940713e-08
4.239224e-05 -1.659070e-05 -1.213599e-08
4.346909e-05 -1.700955e-05 1.353256e-07
4.346894e-05 -1.700645e-05 -1.735129e-07
4.239092e-05 -1.659447e-05 -3.559768e-08
4.239467e-05 -1.659127e-05 -1.918826e-08
4.344628e-05 -1.700108e-05 1.337178e-07
4.344614e-05 -1.699771e-05 -1.714652e-07
4.239710e-05 -1.659613e-05 -4.138522e-08
4.239797e-05 -1.659219e-05 -2.584451e-08
4.342376e-05 -1.699272e-05 1.319698e-07
4.342362e-05 -1.698908e-05 -1.692383e-07
4.240397e-05 -1.659807e-05 -4.677013e-08
4.240209e-05 -1.659343e-05 -3.210518e-08
4.240216e-05 -1.660295e-05 2.345726e-08
4.241150e-05 -1.660026e-05 -5.175271e-08
4.240699e-05 -1.659497e-05 -3.797075e-08
4.337957e-05 -1.697220e-05 -1.642450e-07
4.241962e-05 -1.660268e-05 -5.633314e-08
4.241261e-05 -1.659679e-05 -4.344167e-08
4.241269e-05 -1.660507e-05 3.236199e-08
4.333707e-05 -1.696064e-05 1.235713e-07
4.333695e-05 -1.695589e-05 -1.585293e-07
4.242830e-05 -1.660532e-05 -6.051148e-08
4.241891e-05 -1.659887e-05 -4.851832e-08
4.242471e-05 -1.660557e-05 3.397365e-08
4.331635e-05 -1.695300e-05 1.211183e-07
4.331624e-05 -1.694797e-05 -1.553999e-07
4.243747e-05 -1.660816e-05 -6.428768e-08
4.242583e-05 -1.660120e-05 -5.320095e-08
4.329607e-05 -1.694552e-05 1.185233e-07
4.329597e-05 -1.694022e-05 -1.520894e-07
4.244710e-05 -1.661117e-05 -6.766157e-08
4.243332e-05 -1.660376e-05 -5.748971e-08
4.325689e-05 -1.693112e-05 1.129075e-07
4.327614e-05 -1.693265e-05 -1.485977e-07
4.245712e-05 -1.661434e-05 -7.063290e-08
4.244135e-05 -1.660652e-05 -6.138460e-08
4.325680e-05 -1.692527e-05 -1.449250e-07
4.246751e-05 -1.661765e-05 -7.320136e-08
4.244984e-05 -1.660947e-05 -6.488554e-08
4.323804e-05 -1.692421e-05 1.098866e-07
4.323795e-05 -1.691808e-05 -1.410714e-07
4.245877e-05 -1.661258e-05 -6.799230e-08
4.320192e-05 -1.691101e-05 1.034189e-07
4.321963e-05 -1.691110e-05 -1.370369e-07
4.246807e-05 -1.661584e-05 -7.070460e-08
4.320185e-05 -1.690433e-05 -1.328216e-07
4.250027e-05 -1.662820e-05 -7.848643e-08
4.247769e-05 -1.661923e-05 -7.302210e-08
4.318471e-05 -1.690474e-05 9.997226e-08
4.318465e-05 -1.689778e-05 -1.284257e-07
4.251156e-05 -1.663187e-05 -7.944084e-08
4.248760e-05 -1.662273e-05 -7.494446e-08
4.247780e-05 -1.662260e-05 5.556982e-08
4.316809e-05 -1.689870e-05 9.638374e-08
4.316803e-05 -1.689147e-05 -1.238493e-07
4.252296e-05 -1.663558e-05 -7.999204e-08
4.249772e-05 -1.662632e-05 -7.647140e-08
4.315208e-05 -1.689290e-05 9.265339e-08
4.315203e-05 -1.688539e-05 -1.190923e-07
4.253440e-05 -1.663930e-05 -8.014105e-08
4.250803e-05 -1.662998e-05 -7.760280e-08
4.313670e-05 -1.688735e-05 8.878121e-08
4.313666e-05 -1.687956e-05 -1.141549e-07
4.254585e-05 -1.664304e-05 -7.988983e-08
4.251846e-05 -1.663369e-05 -7.833881e-08
4.255725e-05 -1.664675e-05 -7.924159e-08
4.252896e-05 -1.663742e-05 -7.868008e-08
4.310793e-05 -1.686870e-05 -1.037386e-07
4.256854e-05 -1.665043e-05 -7.820140e-08
4.253949e-05 -1.664117e-05 -7.862796e-08
4.253961e-05 -1.664083e-05 5.995596e-08
4.308204e-05 -1.686782e-05 7.187296e-08
4.308203e-05 -1.685893e-05 -9.259988e-08
4.257967e-05 -1.665406e-05 -7.677681e-08
4.254998e-05 -1.664492e-05 -7.818485e-08
4.307020e-05 -1.686365e-05 6.729033e-08
4.307019e-05 -1.685448e-05 -8.675918e-08
4.259057e-05 -1.665761e-05 -7.497881e-08
4.256040e-05 -1.664863e-05 -7.735465e-08
4.256053e-05 -1.664708e-05 5.897915e-08
4.305912e-05 -1.685978e-05 6.256501e-08
4.305912e-05 -1.685034e-05 -8.073726e-08
4.260119e-05 -1.666108e-05 -7.282298e-08
4.257069e-05 -1.665230e-05 -7.614331e-08
4.256342e-05 -1.664864e-05 5.745651e-08
4.303939e-05 -1.685299e-05 5.268496e-08
4.304885e-05 -1.684650e-05 -7.453377e-08
4.261146e-05 -1.666443e-05 -7.033085e-08
4.258079e-05 -1.665590e-05 -7.455963e-08
4.303940e-05 -1.684299e-05 -6.814831e-08
4.262131e-05 -1.666767e-05 -6.753162e-08
4.259065e-05 -1.665941e-05 -7.261612e-08
4.303078e-05 -1.685008e-05 4.752942e-08
4.303079e-05 -1.683980e-05 -6.158041e-08
4.263066e-05 -1.667077e-05 -6.446357e-08
4.260023e-05 -1.666283e-05 -7.033016e-08
4.302303e-05 -1.684752e-05 4.222962e-08
4.302304e-05 -1.683695e-05 -5.482955e-08
4.263944e-05 -1.667374e-05 -6.117428e-08
4.260945e-05 -1.666612e-05 -6.772527e-08
4.260035e-05 -1.665903e-05 5.368754e-08
4.301616e-05 -1.684530e-05 3.678510e-08
4.301619e-05 -1.683445e-05 -4.789514e-08
4.264756e-05 -1.667658e-05 -5.771566e-08
4.261829e-05 -1.666928e-05 -6.483227e-08
4.260958e-05 -1.666184e-05 5.176746e-08
4.301021e-05 -1.684343e-05 3.119551e-08
4.301024e-05 -1.683230e-05 -4.077662e-08
4.265499e-05 -1.667928e-05 -5.412419e-08
4.262669e-05 -1.667231e-05 -6.168982e-08
4.300519e-05 -1.684194e-05 2.546061e-08
4.300522e-05 -1.683052e-05 -3.347348e-08
4.266171e-05 -1.668185e-05 -5.042594e-08
4.263462e-05 -1.667519e-05 -5.834299e-08
4.300113e-05 -1.684081e-05 1.958048e-08
4.300117e-05 -1.682911e-05 -2.598534e-08
4.266775e-05 -1.668426e-05 -4.666351e-08
4.264205e-05 -1.667796e-05 -5.483778e-08
4.299806e-05 -1.684007e-05 1.355563e-08
4.299809e-05 -1.682808e-05 -1.831212e-08
4.267315e-05 -1.668650e-05 -4.288916e-08
4.264897e-05 -1.668062e-05 -5.121725e-08
4.267795e-05 -1.668857e-05 -3.914852e-08
4.265537e-05 -1.668313e-05 -4.752528e-08
4.299497e-05 -1.682720e-05 -2.412709e-09
4.268221e-05 -1.669046e-05 -3.547775e-08
4.266124e-05 -1.668549e-05 -4.380843e-08
4.299602e-05 -1.684108e-05 -1.194682e-08
4.299606e-05 -1.682795e-05 1.421024e-08
4.268595e-05 -1.669217e-05 -3.190434e-08
4.266658e-05 -1.668766e-05 -4.011073e-08
4.300153e-05 -1.684405e-05 -2.545723e-08
4.299824e-05 -1.682896e-05 2.278156e-08
4.268922e-05 -1.669372e-05 -2.844860e-08
4.267141e-05 -1.668966e-05 -3.646915e-08
4.267151e-05 -1.668406e-05 2.908741e-08
4.300601e-05 -1.684615e-05 -3.235928e-08
4.300156e-05 -1.683041e-05 3.151458e-08
4.269204e-05 -1.669511e-05 -2.512526e-08
4.267574e-05 -1.669147e-05 -3.291292e-08
4.300603e-05 -1.683229e-05 4.039546e-08
4.269444e-05 -1.669634e-05 -2.194484e-08
4.267961e-05 -1.669311e-05 -2.946426e-08
4.267971e-05 -1.668785e-05 2.373279e-08
4.301166e-05 -1.684867e-05 -3.932966e-08
4.301168e-05 -1.683463e-05 4.940452e-08
4.269645e-05 -1.669742e-05 -1.891466e-08
4.268303e-05 -1.669458e-05 -2.613967e-08
4.267548e-05 -1.668881e-05 2.166464e-08
4.301853e-05 -1.685160e-05 -4.633762e-08
4.301855e-05 -1.683742e-05 5.851457e-08
4.268602e-05 -1.669589e-05 -2.295106e-08
4.302664e-05 -1.685492e-05 -5.334490e-08
4.302665e-05 -1.684066e-05 6.768899e-08
4.268860e-05 -1.669705e-05 -1.990690e-08
4.303601e-05 -1.685861e-05 -6.030667e-08
4.303600e-05 -1.684436e-05 7.688019e-08
4.270033e-05 -1.669984e-05 -1.076778e-08
4.269081e-05 -1.669805e-05 -1.701304e-08
4.304664e-05 -1.686264e-05 -6.717551e-08
4.304662e-05 -1.684850e-05 8.602943e-08
4.270098e-05 -1.670040e-05 -8.374163e-09
4.269265e-05 -1.669892e-05 -1.427341e-08
4.269090e-05 -1.669370e-05 1.404884e-08
4.305854e-05 -1.686697e-05 -7.391081e-08
4.305851e-05 -1.685305e-05 9.507073e-08
4.270134e-05 -1.670084e-05 -6.143264e-09
4.269414e-05 -1.669965e-05 -1.169057e-08
4.307168e-05 -1.687158e-05 -8.049092e-08
4.307164e-05 -1.685797e-05 1.039396e-07
4.270143e-05 -1.670118e-05 -4.075424e-09
4.269532e-05 -1.670026e-05 -9.266088e-09
4.270128e-05 -1.670142e-05 -2.170745e-09
4.269620e-05 -1.670075e-05 -7.000873e-09
4.310152e-05 -1.686892e-05 1.209125e-07
4.270090e-05 -1.670157e-05 -4.291867e-10
4.269679e-05 -1.670113e-05 -4.895373e-09
4.313606e-05 -1.689281e-05 -1.048635e-07
4.313596e-05 -1.688141e-05 1.364326e-07
4.270031e-05 -1.670164e-05 1.149365e-09
4.269713e-05 -1.670141e-05 -2.949763e-09
4.315484e-05 -1.689886e-05 -1.102686e-07
4.315473e-05 -1.688822e-05 1.435067e-07
4.269954e-05 -1.670164e-05 2.565056e-09
4.269723e-05 -1.670160e-05 -1.164026e-09
4.319512e-05 -1.691184e-05 -1.199657e-07
4.317444e-05 -1.689539e-05 1.500691e-07
4.269859e-05 -1.670157e-05 3.818035e-09
4.269710e-05 -1.670170e-05 4.619377e-10
4.319499e-05 -1.690287e-05 1.560908e-07
4.269750e-05 -1.670144e-05 4.908434e-09
4.269679e-05 -1.670173e-05 1.928279e-09
4.321646e-05 -1.691873e-05 -1.242007e-07
4.321632e-05 -1.691065e-05 1.615505e-07
4.269628e-05 -1.670126e-05 5.836368e-09
4.269629e-05 -1.670168e-05 3.235161e-09
4.269637e-05 -1.669981e-05 -1.850459e-09
4.323849e-05 -1.692588e-05 -1.279996e-07
4.323835e-05 -1.691870e-05 1.664327e-07
4.269496e-05 -1.670105e-05 6.601914e-09
4.269563e-05 -1.670157e-05 4.382726e-09
4.326114e-05 -1.693325e-05 -1.313482e-07
4.326099e-05 -1.692698e-05 1.707261e-07
4.269355e-05 -1.670079e-05 7.205132e-09
4.269484e-05 -1.670141e-05 5.371105e-09
4.269493e-05 -1.670003e-05 -3.527749e-09
4.328432e-05 -1.694082e-05 -1.342363e-07
4.328416e-05 -1.693548e-05 1.744226e-07
4.269207e-05 -1.670051e-05 7.646048e-09
4.269393e-05 -1.670120e-05 6.200395e-09
4.330796e-05 -1.694856e-05 -1.366566e-07
4.330779e-05 -1.694415e-05 1.775166e-07
4.269055e-05 -1.670022e-05 7.924682e-09
4.269292e-05 -1.670096e-05 6.870662e-09
4.269302e-05 -1.670009e-05 -3.965617e-09
4.333197e-05 -1.695645e-05 -1.386038e-07
4.333180e-05 -1.695297e-05 1.800040e-07
4.268900e-05 -1.669991e-05 8.041038e-09
4.269184e-05 -1.670068e-05 7.381946e-09
4.335628e-05 -1.696445e-05 -1.400743e-07
4.335611e-05 -1.696191e-05 1.818818e-07
4.268745e-05 -1.669960e-05 7.995139e-09
4.269070e-05 -1.670038e-05 7.734262e-09
4.338081e-05 -1.697254e-05 -1.410655e-07
4.338064e-05 -1.697093e-05 1.831478e-07
4.268591e-05 -1.669930e-05 7.787037e-09
4.268953e-05 -1.670007e-05 7.927615e-09
4.268440e-05 -1.669901e-05 7.416857e-09
4.268834e-05 -1.669976e-05 7.962005e-09
4.343003e-05 -1.698913e-05 1.838379e-07
4.268295e-05 -1.669874e-05 6.884839e-09
4.268715e-05 -1.669944e-05 7.837456e-09
4.350391e-05 -1.701317e-05 -1.387782e-07
4.347934e-05 -1.700730e-05 1.820632e-07
4.268158e-05 -1.669851e-05 6.191410e-09
4.268600e-05 -1.669914e-05 7.554028e-09
4.352806e-05 -1.702111e-05 -1.368647e-07
4.350376e-05 -1.701629e-05 1.802485e-07
4.268030e-05 -1.669830e-05 5.337277e-09
4.268488e-05 -1.669885e-05 7.111886e-09
4.352792e-05 -1.702519e-05 1.778140e-07
4.267914e-05 -1.669815e-05 4.323548e-09
4.268384e-05 -1.669859e-05 6.511314e-09
4.355186e-05 -1.702892e-05 -1.344637e-07
4.355173e-05 -1.703395e-05 1.747585e-07
4.267812e-05 -1.669804e-05 3.151910e-09
4.268288e-05 -1.669836e-05 5.752841e-09
4.357523e-05 -1.703657e-05 -1.315742e-07
4.357511e-05 -1.704255e-05 1.710805e-07
4.267726e-05 -1.669800e-05 1.824847e-09
4.268203e-05 -1.669817e-05 4.837305e-09
4.359810e-05 -1.704401e-05 -1.281952e-07
4.359798e-05 -1.705095e-05 1.667789e-07
4.267658e-05 -1.669802e-05 3.459363e-10
4.268130e-05 -1.669804e-05 3.766023e-09
4.362036e-05 -1.705122e-05 -1.243257e-07
4.362026e-05 -1.705912e-05 1.618523e-07
4.268073e-05 -1.669796e-05 2.540962e-09
4.268081e-05 -1.670002e-05 -1.317802e-09
4.364195e-05 -1.705817e-05 -1.199647e-07
4.364187e-05 -1.706703e-05 1.562993e-07
4.268033e-05 -1.669794e-05 1.164997e-09
4.366278e-05 -1.706482e-05 -1.151112e-07
4.366271e-05 -1.707464e-05 1.501186e-07
4.267589e-05 -1.669857e-05 -4.941041e-09
4.268011e-05 -1.669800e-05 -3.577975e-10
4.268019e-05 -1.670052e-05 9.240137e-10
4.368277e-05 -1.707114e-05 -1.097642e-07
4.368272e-05 -1.708193e-05 1.433089e-07
4.267620e-05 -1.669893e-05 -6.954424e-09
4.268011e-05 -1.669813e-05 -2.021746e-09
4.370183e-05 -1.707710e-05 -1.039234e-07
4.370179e-05 -1.708885e-05 1.358693e-07
4.267682e-05 -1.669938e-05 -9.069276e-09
4.268034e-05 -1.669836e-05 -3.819152e-09
4.371988e-05 -1.708266e-05 -9.758840e-08
4.371985e-05 -1.709537e-05 1.277990e-07
4.267779e-05 -1.669993e-05 -1.126660e-08
4.268083e-05 -1.669867e-05 -5.739803e-09
4.375574e-05 -1.709901e-05 7.039669e-08
4.373683e-05 -1.708779e-05 -9.075988e-08
4.373682e-05 -1.710147e-05 1.190977e-07
4.267914e-05 -1.670058e-05 -1.352934e-08
4.268158e-05 -1.669908e-05 -7.770654e-09
4.268087e-05 -1.670133e-05 -1.584744e-08
4.268263e-05 -1.669959e-05 -9.895926e-09
4.376713e-05 -1.711226e-05 9.980542e-08
4.268298e-05 -1.670217e-05 -1.820882e-08
4.268397e-05 -1.670019e-05 -1.209843e-08
4.379198e-05 -1.710342e-05 -5.857029e-08
4.379204e-05 -1.712093e-05 7.801422e-08
4.268546e-05 -1.670313e-05 -2.059465e-08
4.268562e-05 -1.670088e-05 -1.436177e-08
4.381077e-05 -1.710789e-05 -3.966877e-08
4.380225e-05 -1.712440e-05 6.619876e-08
4.268829e-05 -1.670420e-05 -2.298675e-08
4.268759e-05 -1.670167e-05 -1.667015e-08
4.381086e-05 -1.712724e-05 5.378736e-08
4.269146e-05 -1.670538e-05 -2.537024e-08
4.268987e-05 -1.670256e-05 -1.900674e-08
4.381766e-05 -1.710922e-05 -2.957942e-08
4.381776e-05 -1.712943e-05 4.080081e-08
4.269495e-05 -1.670668e-05 -2.773369e-08
4.269248e-05 -1.670356e-05 -2.135458e-08
4.382277e-05 -1.710990e-05 -1.910872e-08
4.382288e-05 -1.713093e-05 2.726869e-08
4.269876e-05 -1.670809e-05 -3.006856e-08
4.269540e-05 -1.670468e-05 -2.369883e-08
4.382601e-05 -1.710995e-05 -8.303726e-09
4.382612e-05 -1.713171e-05 1.323215e-08
4.270286e-05 -1.670962e-05 -3.236862e-08
4.269864e-05 -1.670592e-05 -2.602749e-08
4.382728e-05 -1.710936e-05 2.775691e-09
4.382740e-05 -1.713176e-05 -1.252963e-09
4.270726e-05 -1.671125e-05 -3.462944e-08
4.270219e-05 -1.670727e-05 -2.833131e-08
4.382653e-05 -1.710815e-05 1.405700e-08
4.382665e-05 -1.713105e-05 -1.611298e-08
4.271195e-05 -1.671300e-05 -3.684787e-08
4.270603e-05 -1.670873e-05 -3.060340e-08
4.270227e-05 -1.671087e-05 2.205820e-08
4.382367e-05 -1.710634e-05 2.545886e-08
4.382378e-05 -1.712958e-05 -3.125458e-08
4.271691e-05 -1.671485e-05 -3.902179e-08
4.271017e-05 -1.671031e-05 -3.283872e-08
4.270612e-05 -1.671228e-05 2.382390e-08
4.381866e-05 -1.710397e-05 3.690226e-08
4.381877e-05 -1.712738e-05 -4.656745e-08
4.272215e-05 -1.671681e-05 -4.114976e-08
4.271460e-05 -1.671200e-05 -3.503370e-08
4.381149e-05 -1.710109e-05 4.833246e-08
4.381159e-05 -1.712449e-05 -6.193692e-08
4.272765e-05 -1.671887e-05 -4.323087e-08
4.271931e-05 -1.671380e-05 -3.718583e-08
4.271940e-05 -1.671715e-05 2.896722e-08
4.380217e-05 -1.709771e-05 5.972625e-08
4.380225e-05 -1.712096e-05 -7.725528e-08
4.273341e-05 -1.672103e-05 -4.526456e-08
4.272430e-05 -1.671571e-05 -3.929343e-08
4.272557e-05 -1.671797e-05 2.905773e-08
4.273942e-05 -1.672329e-05 -4.725051e-08
4.272955e-05 -1.671772e-05 -4.135540e-08
4.377715e-05 -1.711180e-05 -1.072994e-07
4.274568e-05 -1.672564e-05 -4.918858e-08
4.273507e-05 -1.671983e-05 -4.337108e-08
4.374387e-05 -1.707876e-05 1.040205e-07
4.374386e-05 -1.709971e-05 -1.358325e-07
4.275218e-05 -1.672810e-05 -5.107871e-08
4.274084e-05 -1.672204e-05 -4.534005e-08
4.372439e-05 -1.707252e-05 1.144058e-07
4.372434e-05 -1.709259e-05 -1.493192e-07
4.275891e-05 -1.673064e-05 -5.292091e-08
4.274687e-05 -1.672435e-05 -4.726212e-08
4.370313e-05 -1.706569e-05 1.243836e-07
4.370305e-05 -1.708480e-05 -1.622093e-07
4.275314e-05 -1.672676e-05 -4.913721e-08
4.368019e-05 -1.705826e-05 1.339089e-07
4.368008e-05 -1.707636e-05 -1.744642e-07
4.275965e-05 -1.672926e-05 -5.096532e-08
4.365567e-05 -1.705026e-05 1.429479e-07
4.365554e-05 -1.706732e-05 -1.860565e-07
4.278048e-05 -1.673880e-05 -5.816050e-08
4.276639e-05 -1.673185e-05 -5.274650e-08
4.362968e-05 -1.704172e-05 1.514763e-07
4.362952e-05 -1.705771e-05 -1.969675e-07
4.278810e-05 -1.674169e-05 -5.981154e-08
4.277336e-05 -1.673453e-05 -5.448080e-08
4.276649e-05 -1.673463e-05 4.117833e-08
4.360231e-05 -1.703265e-05 1.594769e-07
4.360212e-05 -1.704756e-05 -2.071846e-07
4.279593e-05 -1.674466e-05 -6.141491e-08
4.278056e-05 -1.673730e-05 -5.616830e-08
4.357367e-05 -1.702310e-05 1.669383e-07
4.357344e-05 -1.703692e-05 -2.167003e-07
4.280396e-05 -1.674771e-05 -6.297064e-08
4.278796e-05 -1.674015e-05 -5.780904e-08
4.278066e-05 -1.673993e-05 4.386383e-08
4.354384e-05 -1.701310e-05 1.738531e-07
4.354359e-05 -1.702583e-05 -2.255102e-07
4.281218e-05 -1.675084e-05 -6.447873e-08
4.279558e-05 -1.674309e-05 -5.940308e-08
4.351292e-05 -1.700268e-05 1.802172e-07
4.351264e-05 -1.701431e-05 -2.336123e-07
4.282060e-05 -1.675404e-05 -6.593920e-08
4.280341e-05 -1.674610e-05 -6.095045e-08
4.348102e-05 -1.699187e-05 1.860283e-07
4.348071e-05 -1.700241e-05 -2.410064e-07
4.282920e-05 -1.675732e-05 -6.735203e-08
4.281143e-05 -1.674919e-05 -6.245118e-08
4.281154e-05 -1.675153e-05 4.879303e-08
4.335504e-05 -1.695176e-05 -1.975164e-07
4.344822e-05 -1.698071e-05 1.912861e-07
4.344789e-05 -1.699016e-05 -2.476932e-07
4.283797e-05 -1.676066e-05 -6.871721e-08
4.281964e-05 -1.675236e-05 -6.390527e-08
4.281975e-05 -1.675463e-05 4.993349e-08
4.284692e-05 -1.676407e-05 -7.003471e-08
4.282804e-05 -1.675560e-05 -6.531272e-08
4.282816e-05 -1.675780e-05 5.103725e-08
4.337994e-05 -1.696478e-05 -2.589516e-07
4.285604e-05 -1.676754e-05 -7.130452e-08
4.283662e-05 -1.675891e-05 -6.667350e-08
4.283479e-05 -1.675935e-05 5.025907e-08
4.330995e-05 -1.693333e-05 2.067994e-07
4.330954e-05 -1.693845e-05 -2.674040e-07
4.286531e-05 -1.677108e-05 -7.252663e-08
4.284538e-05 -1.676229e-05 -6.798760e-08
4.327408e-05 -1.692097e-05 2.093059e-07
4.327366e-05 -1.692503e-05 -2.705840e-07
4.287474e-05 -1.677468e-05 -7.370106e-08
4.285430e-05 -1.676573e-05 -6.925501e-08
4.323787e-05 -1.690849e-05 2.112674e-07
4.323744e-05 -1.691147e-05 -2.730697e-07
4.286339e-05 -1.676924e-05 -7.047569e-08
4.320141e-05 -1.689591e-05 2.126854e-07
4.320097e-05 -1.689783e-05 -2.748635e-07
4.287264e-05 -1.677281e-05 -7.164965e-08
4.316480e-05 -1.688327e-05 2.135619e-07
4.316435e-05 -1.688413e-05 -2.759677e-07
4.290390e-05 -1.678582e-05 -7.693926e-08
4.288203e-05 -1.677644e-05 -7.277692e-08
4.312812e-05 -1.687060e-05 2.138983e-07
4.312767e-05 -1.687040e-05 -2.763846e-07
4.291389e-05 -1.678963e-05 -7.792444e-08
4.289158e-05 -1.678013e-05 -7.385759e-08
4.288216e-05 -1.677821e-05 5.688927e-08
4.309146e-05 -1.685795e-05 2.136963e-07
4.309101e-05 -1.685670e-05 -2.761162e-07
4.292400e-05 -1.679350e-05 -7.886331e-08
4.290126e-05 -1.678387e-05 -7.489182e-08
4.305492e-05 -1.684534e-05 2.129575e-07
4.305446e-05 -1.684304e-05 -2.751648e-07
4.293423e-05 -1.679741e-05 -7.975672e-08
4.291107e-05 -1.678767e-05 -7.587988e-08
4.290138e-05 -1.678549e-05 5.854791e-08
4.301857e-05 -1.683282e-05 2.116834e-07
4.301812e-05 -1.682946e-05 -2.735322e-07
4.294457e-05 -1.680137e-05 -8.060591e-08
4.292101e-05 -1.679151e-05 -7.682222e-08
4.298250e-05 -1.682041e-05 2.098756e-07
4.298206e-05 -1.681600e-05 -2.712206e-07
4.295501e-05 -1.680537e-05 -8.141265e-08
4.293108e-05 -1.679540e-05 -7.771952e-08
4.291158e-05 -1.679606e-05 2.046670e-07
4.294638e-05 -1.680269e-05 -2.682320e-07
4.296555e-05 -1.680942e-05 -8.217937e-08
4.294125e-05 -1.679934e-05 -7.857277e-08
4.287689e-05 -1.678419e-05 2.012715e-07
4.291116e-05 -1.678957e-05 -2.645687e-07
4.297618e-05 -1.681350e-05 -8.290936e-08
4.295154e-05 -1.680332e-05 -7.938339e-08
4.287648e-05 -1.677666e-05 -2.602335e-07
4.298689e-05 -1.681762e-05 -8.360697e-08
4.296193e-05 -1.680734e-05 -8.015332e-08
4.299766e-05 -1.682178e-05 -8.427754e-08
4.297241e-05 -1.681141e-05 -8.088524e-08
4.297255e-05 -1.681257e-05 6.328766e-08
4.280911e-05 -1.675162e-05 -2.495619e-07
4.300850e-05 -1.682597e-05 -8.492682e-08
4.298299e-05 -1.681551e-05 -8.158262e-08
4.274528e-05 -1.673944e-05 1.825306e-07
4.274494e-05 -1.672783e-05 -2.362606e-07
4.301939e-05 -1.683020e-05 -8.555865e-08
4.299365e-05 -1.681964e-05 -8.224983e-08
4.299379e-05 -1.682071e-05 6.439835e-08
4.271459e-05 -1.672908e-05 1.766035e-07
4.271427e-05 -1.671649e-05 -2.286471e-07
4.303034e-05 -1.683447e-05 -8.617602e-08
4.300440e-05 -1.682382e-05 -8.289190e-08
4.300021e-05 -1.682274e-05 6.297933e-08
4.268495e-05 -1.671909e-05 1.702123e-07
4.268466e-05 -1.670555e-05 -2.204116e-07
4.301522e-05 -1.682803e-05 -8.351396e-08
4.265646e-05 -1.670951e-05 1.633836e-07
4.265619e-05 -1.669505e-05 -2.115761e-07
4.302612e-05 -1.683229e-05 -8.412076e-08
4.262919e-05 -1.670033e-05 1.561523e-07
4.262894e-05 -1.668501e-05 -2.021708e-07
4.306355e-05 -1.684748e-05 -8.799342e-08
4.303709e-05 -1.683658e-05 -8.471725e-08
4.260323e-05 -1.669157e-05 1.485622e-07
4.260301e-05 -1.667546e-05 -1.922358e-07
4.307476e-05 -1.685189e-05 -8.860396e-08
4.304814e-05 -1.684090e-05 -8.530862e-08
4.303723e-05 -1.683755e-05 6.644242e-08
4.257867e-05 -1.668322e-05 1.406671e-07
4.257847e-05 -1.666642e-05 -1.818237e-07
4.308604e-05 -1.685632e-05 -8.922261e-08
4.305926e-05 -1.684526e-05 -8.589969e-08
4.255557e-05 -1.667528e-05 1.325284e-07
4.255540e-05 -1.665791e-05 -1.710017e-07
4.309740e-05 -1.686079e-05 -8.985154e-08
4.307046e-05 -1.684964e-05 -8.649449e-08
4.305940e-05 -1.684623e-05 6.740614e-08
4.253400e-05 -1.666772e-05 1.242095e-07
4.253386e-05 -1.664991e-05 -1.598505e-07
4.310884e-05 -1.686529e-05 -9.049231e-08
4.308173e-05 -1.685406e-05 -8.709617e-08
4.249556e-05 -1.665364e-05 1.072136e-07
4.251387e-05 -1.664241e-05 -1.484589e-07
4.312037e-05 -1.686982e-05 -9.114604e-08
4.309309e-05 -1.685851e-05 -8.770711e-08
4.249547e-05 -1.663536e-05 -1.369117e-07
4.313199e-05 -1.687439e-05 -9.181350e-08
4.310452e-05 -1.686300e-05 -8.832908e-08
4.247873e-05 -1.664711e-05 9.857466e-08
4.247867e-05 -1.662879e-05 -1.252897e-07
4.314369e-05 -1.687899e-05 -9.249522e-08
4.311604e-05 -1.686752e-05 -8.896334e-08
4.315549e-05 -1.688363e-05 -9.319156e-08
4.312765e-05 -1.687207e-05 -8.961078e-08
4.244984e-05 -1.661721e-05 -1.021649e-07
4.316738e-05 -1.688831e-05 -9.390275e-08
4.313935e-05 -1.687665e-05 -9.027204e-08
4.242720e-05 -1.662509e-05 6.400339e-08
4.242721e-05 -1.660785e-05 -7.972373e-08
4.317937e-05 -1.689303e-05 -9.462894e-08
4.315113e-05 -1.688128e-05 -9.094752e-08
4.241808e-05 -1.662074e-05 5.564464e-08
4.241809e-05 -1.660398e-05 -6.890614e-08
4.319145e-05 -1.689778e-05 -9.537021e-08
4.316301e-05 -1.688593e-05 -9.163749e-08
4.316316e-05 -1.688708e-05 7.193752e-08
4.241034e-05 -1.661686e-05 4.749415e-08
4.241036e-05 -1.660064e-05 -5.840884e-08
4.317498e-05 -1.689063e-05 -9.234214e-08
4.240395e-05 -1.661347e-05 3.958317e-08
4.240398e-05 -1.659781e-05 -4.825766e-08
4.318705e-05 -1.689536e-05 -9.306156e-08
4.318720e-05 -1.689655e-05 7.305291e-08
4.239884e-05 -1.661053e-05 3.193506e-08
4.239888e-05 -1.659548e-05 -3.847088e-08
4.322831e-05 -1.691227e-05 -9.768493e-08
4.319922e-05 -1.690013e-05 -9.379582e-08
4.318937e-05 -1.689787e-05 3.011952e-08
4.239497e-05 -1.660806e-05 2.456676e-08
4.239501e-05 -1.659361e-05 -2.906108e-08
4.324080e-05 -1.691718e-05 -9.848690e-08
4.321148e-05 -1.690494e-05 -9.454495e-08
4.239227e-05 -1.660603e-05 1.749018e-08
4.239232e-05 -1.659220e-05 -2.003659e-08
4.325340e-05 -1.692214e-05 -9.930410e-08
4.322385e-05 -1.690979e-05 -9.530898e-08
4.239021e-05 -1.660325e-05 4.241827e-09
4.239075e-05 -1.659122e-05 -1.140273e-08
4.326611e-05 -1.692714e-05 -1.001366e-07
4.323633e-05 -1.691468e-05 -9.608793e-08
4.322400e-05 -1.691105e-05 7.481323e-08
4.239074e-05 -1.660247e-05 -1.921378e-09
4.239026e-05 -1.659067e-05 -3.162629e-09
4.327893e-05 -1.693218e-05 -1.009844e-07
4.324891e-05 -1.691962e-05 -9.688182e-08
4.239079e-05 -1.659050e-05 4.682010e-09
4.329187e-05 -1.693726e-05 -1.018476e-07
4.326159e-05 -1.692459e-05 -9.769068e-08
4.239225e-05 -1.660206e-05 -7.774323e-09
4.239229e-05 -1.659072e-05 1.213049e-08
4.330491e-05 -1.694239e-05 -1.027262e-07
4.327439e-05 -1.692961e-05 -9.851455e-08
4.239467e-05 -1.660201e-05 -1.331610e-08
4.239472e-05 -1.659130e-05 1.918271e-08
4.331808e-05 -1.694757e-05 -1.036204e-07
4.328730e-05 -1.693467e-05 -9.935348e-08
4.239798e-05 -1.660231e-05 -1.854642e-08
4.239802e-05 -1.659221e-05 2.583893e-08
4.333137e-05 -1.695279e-05 -1.045302e-07
4.330033e-05 -1.693978e-05 -1.002075e-07
4.334477e-05 -1.695806e-05 -1.054557e-07
4.331347e-05 -1.694493e-05 -1.010768e-07
4.240705e-05 -1.659499e-05 3.796516e-08
4.335830e-05 -1.696338e-05 -1.063970e-07
4.332673e-05 -1.695013e-05 -1.019614e-07
4.241893e-05 -1.660652e-05 -3.635652e-08
4.241897e-05 -1.659890e-05 4.851274e-08
4.337195e-05 -1.696874e-05 -1.073543e-07
4.334011e-05 -1.695537e-05 -1.028613e-07
4.242585e-05 -1.660824e-05 -4.003272e-08
4.242589e-05 -1.660123e-05 5.319537e-08
4.335361e-05 -1.696066e-05 -1.037768e-07
4.243335e-05 -1.661018e-05 -4.339883e-08
4.243339e-05 -1.660378e-05 5.748414e-08
4.336724e-05 -1.696601e-05 -1.047079e-07
4.244138e-05 -1.661232e-05 -4.645493e-08
4.244141e-05 -1.660655e-05 6.137904e-08
4.341368e-05 -1.698514e-05 -1.103212e-07
4.338099e-05 -1.697140e-05 -1.056547e-07
4.338978e-05 -1.697675e-05 5.822683e-08
4.244988e-05 -1.661465e-05 -4.920100e-08
4.244991e-05 -1.660949e-05 6.487999e-08
4.342785e-05 -1.699071e-05 -1.113412e-07
4.339487e-05 -1.697684e-05 -1.066171e-07
4.338115e-05 -1.697295e-05 8.292563e-08
4.245880e-05 -1.661715e-05 -5.163694e-08
4.245883e-05 -1.661261e-05 6.798677e-08
4.344216e-05 -1.699633e-05 -1.123758e-07
4.340888e-05 -1.698233e-05 -1.075951e-07
4.340905e-05 -1.698393e-05 8.444805e-08
4.246810e-05 -1.661980e-05 -5.376260e-08
4.246814e-05 -1.661587e-05 7.069909e-08
4.345660e-05 -1.700201e-05 -1.134238e-07
4.342303e-05 -1.698787e-05 -1.085885e-07
4.341782e-05 -1.698666e-05 8.259202e-08
4.248764e-05 -1.662545e-05 -5.708255e-08
4.247776e-05 -1.661926e-05 7.301661e-08
4.347119e-05 -1.700773e-05 -1.144834e-07
4.343731e-05 -1.699347e-05 -1.095967e-07
4.248767e-05 -1.662276e-05 7.493900e-08
4.348592e-05 -1.701351e-05 -1.155517e-07
4.345172e-05 -1.699912e-05 -1.106189e-07
4.249777e-05 -1.662842e-05 -5.827679e-08
4.249780e-05 -1.662635e-05 7.646598e-08
4.350080e-05 -1.701935e-05 -1.166248e-07
4.346628e-05 -1.700482e-05 -1.116536e-07
4.250807e-05 -1.663146e-05 -5.916087e-08
4.250810e-05 -1.663001e-05 7.759743e-08
4.351583e-05 -1.702524e-05 -1.176968e-07
4.348098e-05 -1.701058e-05 -1.126987e-07
4.251850e-05 -1.663455e-05 -5.973557e-08
4.251853e-05 -1.663372e-05 7.833351e-08
4.353103e-05 -1.703118e-05 -1.187597e-07
4.349582e-05 -1.701639e-05 -1.137509e-07
4.252901e-05 -1.663767e-05 -6.000232e-08
4.252904e-05 -1.663746e-05 7.867487e-08
4.354640e-05 -1.703717e-05 -1.198023e-07
4.351081e-05 -1.702225e-05 -1.148056e-07
4.356196e-05 -1.704321e-05 -1.208096e-07
4.352596e-05 -1.702818e-05 -1.158562e-07
4.255007e-05 -1.664495e-05 7.817990e-08
4.357772e-05 -1.704930e-05 -1.217626e-07
4.354125e-05 -1.703415e-05 -1.168939e-07
4.257073e-05 -1.665012e-05 -5.806168e-08
4.257077e-05 -1.665233e-05 7.613873e-08
4.355671e-05 -1.704018e-05 -1.179065e-07
4.258083e-05 -1.665314e-05 -5.686033e-08
4.258088e-05 -1.665593e-05 7.455528e-08
4.357232e-05 -1.704626e-05 -1.188787e-07
4.259069e-05 -1.665610e-05 -5.539753e-08
4.259074e-05 -1.665945e-05 7.261203e-08
4.362627e-05 -1.706775e-05 -1.240901e-07
4.358808e-05 -1.705238e-05 -1.197917e-07
4.260949e-05 -1.666181e-05 -5.177267e-08
4.260031e-05 -1.666286e-05 7.032637e-08
4.364284e-05 -1.707394e-05 -1.246379e-07
4.360398e-05 -1.705853e-05 -1.206253e-07
4.358827e-05 -1.705384e-05 9.363718e-08
4.261832e-05 -1.666455e-05 -4.966577e-08
4.260954e-05 -1.666616e-05 6.772181e-08
4.365956e-05 -1.708015e-05 -1.250394e-07
4.362002e-05 -1.706470e-05 -1.213599e-07
4.261838e-05 -1.666932e-05 6.482916e-08
4.367639e-05 -1.708638e-05 -1.252733e-07
4.363618e-05 -1.707088e-05 -1.219767e-07
4.362022e-05 -1.706585e-05 9.464370e-08
4.262672e-05 -1.666722e-05 -4.740561e-08
4.262678e-05 -1.667234e-05 6.168710e-08
4.369328e-05 -1.709261e-05 -1.253224e-07
4.365243e-05 -1.707708e-05 -1.224555e-07
4.365263e-05 -1.707782e-05 9.530974e-08
4.263464e-05 -1.666982e-05 -4.502329e-08
4.263471e-05 -1.667523e-05 5.834069e-08
4.371020e-05 -1.709884e-05 -1.251736e-07
4.366877e-05 -1.708330e-05 -1.227762e-07
4.264207e-05 -1.667238e-05 -4.253901e-08
4.264214e-05 -1.667800e-05 5.483593e-08
4.372711e-05 -1.710506e-05 -1.248170e-07
4.368517e-05 -1.708953e-05 -1.229216e-07
4.366985e-05 -1.708409e-05 6.414440e-08
4.264899e-05 -1.667489e-05 -3.996073e-08
4.264907e-05 -1.668066e-05 5.121584e-08
4.374397e-05 -1.711126e-05 -1.242456e-07
4.370159e-05 -1.709577e-05 -1.228777e-07
4.265539e-05 -1.667733e-05 -3.729894e-08
4.265546e-05 -1.668317e-05 4.752427e-08
4.376075e-05 -1.711742e-05 -1.234540e-07
4.371801e-05 -1.710200e-05 -1.226339e-07
4.266125e-05 -1.667968e-05 -3.457769e-08
4.266133e-05 -1.668553e-05 4.380781e-08
4.377743e-05 -1.712353e-05 -1.224387e-07
4.373439e-05 -1.710821e-05 -1.221822e-07
4.266659e-05 -1.668191e-05 -3.182953e-08
4.266667e-05 -1.668770e-05 4.011045e-08
4.379397e-05 -1.712960e-05 -1.211970e-07
4.375071e-05 -1.711440e-05 -1.215168e-07
4.381034e-05 -1.713559e-05 -1.197272e-07
4.376694e-05 -1.712055e-05 -1.206335e-07
4.267584e-05 -1.669151e-05 3.291323e-08
4.378304e-05 -1.712665e-05 -1.195292e-07
4.268303e-05 -1.668950e-05 -2.116177e-08
4.268312e-05 -1.669462e-05 2.614044e-08
4.379899e-05 -1.713269e-05 -1.182019e-07
4.268602e-05 -1.669103e-05 -1.868427e-08
4.268611e-05 -1.669593e-05 2.295202e-08
4.385811e-05 -1.715306e-05 -1.139380e-07
4.381475e-05 -1.713866e-05 -1.166502e-07
4.268861e-05 -1.669242e-05 -1.631009e-08
4.268870e-05 -1.669709e-05 1.990801e-08
4.387350e-05 -1.715867e-05 -1.115463e-07
4.383030e-05 -1.714454e-05 -1.148730e-07
4.381495e-05 -1.713624e-05 9.051695e-08
4.269265e-05 -1.669478e-05 -1.190038e-08
4.269090e-05 -1.669809e-05 1.701428e-08
4.388856e-05 -1.716415e-05 -1.089231e-07
4.384560e-05 -1.715033e-05 -1.128697e-07
4.269274e-05 -1.669896e-05 1.427475e-08
4.390327e-05 -1.716950e-05 -1.060680e-07
4.386063e-05 -1.715601e-05 -1.106399e-07
4.384580e-05 -1.714722e-05 8.755188e-08
4.269414e-05 -1.669576e-05 -9.873991e-09
4.269423e-05 -1.669969e-05 1.169198e-08
4.391760e-05 -1.717470e-05 -1.029811e-07
4.387535e-05 -1.716157e-05 -1.081831e-07
4.269532e-05 -1.669661e-05 -7.970244e-09
4.269541e-05 -1.670030e-05 9.267545e-09
4.393152e-05 -1.717974e-05 -9.966196e-08
4.388974e-05 -1.716700e-05 -1.054993e-07
4.269620e-05 -1.669735e-05 -6.190657e-09
4.269629e-05 -1.670079e-05 7.002366e-09
4.394499e-05 -1.718460e-05 -9.611058e-08
4.390376e-05 -1.717229e-05 -1.025881e-07
4.269679e-05 -1.669799e-05 -4.536108e-09
4.269688e-05 -1.670117e-05 4.896892e-09
4.395799e-05 -1.718928e-05 -9.232677e-08
4.391738e-05 -1.717742e-05 -9.944939e-08
4.391756e-05 -1.717259e-05 7.702958e-08
4.269713e-05 -1.669851e-05 -3.007059e-09
4.269722e-05 -1.670145e-05 2.951296e-09
4.397049e-05 -1.719377e-05 -8.831036e-08
4.393058e-05 -1.718239e-05 -9.608309e-08
4.269723e-05 -1.669895e-05 -1.603682e-09
4.269731e-05 -1.670164e-05 1.165568e-09
4.398245e-05 -1.719804e-05 -8.406120e-08
4.394331e-05 -1.718718e-05 -9.248901e-08
4.394349e-05 -1.718165e-05 7.157200e-08
4.269710e-05 -1.669930e-05 -3.259942e-10
4.269719e-05 -1.670174e-05 -4.603897e-10
4.399385e-05 -1.720210e-05 -7.957911e-08
4.395556e-05 -1.719177e-05 -8.866700e-08
4.394315e-05 -1.718396e-05 6.854657e-08
4.269679e-05 -1.669957e-05 8.260887e-10
4.269687e-05 -1.670176e-05 -1.926730e-09
4.400466e-05 -1.720592e-05 -7.486391e-08
4.396730e-05 -1.719617e-05 -8.461690e-08
4.397848e-05 -1.720035e-05 -8.033854e-08
4.269563e-05 -1.669991e-05 2.753945e-09
4.269572e-05 -1.670161e-05 -4.381180e-09
4.398908e-05 -1.720430e-05 -7.583175e-08
4.269292e-05 -1.670004e-05 4.706744e-09
4.269401e-05 -1.670124e-05 -6.198854e-09
4.403320e-05 -1.721586e-05 -5.931820e-08
4.399907e-05 -1.720801e-05 -7.109635e-08
4.269301e-05 -1.670099e-05 -6.869121e-09
4.404132e-05 -1.721863e-05 -5.366934e-08
4.400842e-05 -1.721147e-05 -6.613218e-08
4.399923e-05 -1.720075e-05 5.479697e-08
4.269184e-05 -1.670001e-05 5.107609e-09
4.269192e-05 -1.670072e-05 -7.380410e-09
4.404869e-05 -1.722111e-05 -4.778716e-08
4.401710e-05 -1.721467e-05 -6.093911e-08
4.269070e-05 -1.669996e-05 5.383517e-09
4.269079e-05 -1.670042e-05 -7.732730e-09
4.405529e-05 -1.722328e-05 -4.167207e-08
4.402507e-05 -1.721759e-05 -5.551707e-08
4.401725e-05 -1.720672e-05 4.683161e-08
4.268953e-05 -1.669990e-05 5.534498e-09
4.268961e-05 -1.670011e-05 -7.926089e-09
4.406107e-05 -1.722513e-05 -3.532488e-08
4.403231e-05 -1.722023e-05 -4.986612e-08
4.268834e-05 -1.669983e-05 5.560598e-09
4.268842e-05 -1.669979e-05 -7.960487e-09
4.406602e-05 -1.722666e-05 -2.874698e-08
4.403879e-05 -1.722257e-05 -4.398650e-08
4.268715e-05 -1.669976e-05 5.461909e-09
4.268724e-05 -1.669948e-05 -7.835945e-09
4.407010e-05 -1.722785e-05 -2.194062e-08
4.404447e-05 -1.722459e-05 -3.787875e-08
4.268600e-05 -1.669971e-05 5.238596e-09
4.268608e-05 -1.669917e-05 -7.552534e-09
4.407328e-05 -1.722869e-05 -1.490928e-08
4.404933e-05 -1.722629e-05 -3.154388e-08
4.268488e-05 -1.669967e-05 4.890970e-09
4.268497e-05 -1.669888e-05 -7.110409e-09
4.407552e-05 -1.722916e-05 -7.658142e-09
4.405333e-05 -1.722766e-05 -2.498359e-08
4.268384e-05 -1.669965e-05 4.419535e-09
4.268392e-05 -1.669862e-05 -6.509867e-09
4.407679e-05 -1.722927e-05 -1.947678e-10
4.405644e-05 -1.722868e-05 -1.820055e-08
4.268288e-05 -1.669967e-05 3.825117e-09
4.268296e-05 -1.669839e-05 -5.751425e-09
4.407705e-05 -1.722899e-05 7.470020e-09
4.405864e-05 -1.722935e-05 -1.119888e-08
4.268203e-05 -1.669973e-05 3.108964e-09
4.268211e-05 -1.669821e-05 -4.835933e-09
4.407627e-05 -1.722832e-05 1.532103e-08
4.405988e-05 -1.722964e-05 -3.984612e-09
4.406001e-05 -1.721863e-05 2.236228e-09
4.268130e-05 -1.669983e-05 2.272933e-09
4.268139e-05 -1.669807e-05 -3.764707e-09
4.406014e-05 -1.722956e-05 3.433528e-09
4.405939e-05 -1.722908e-05 1.104325e-08
4.405953e-05 -1.721749e-05 -9.447015e-09
4.268033e-05 -1.670021e-05 2.528882e-10
4.268041e-05 -1.669797e-05 -1.163825e-09
4.406717e-05 -1.722388e-05 3.974368e-08
4.405760e-05 -1.722820e-05 1.882760e-08
4.403708e-05 -1.720421e-05 -4.272352e-09
4.268011e-05 -1.670084e-05 -2.199515e-09
4.268019e-05 -1.669817e-05 2.022729e-09
4.406172e-05 -1.722158e-05 4.805099e-08
4.405473e-05 -1.722691e-05 2.676373e-08
4.268034e-05 -1.670127e-05 -3.570010e-09
4.268042e-05 -1.669839e-05 3.820019e-09
4.405498e-05 -1.721889e-05 5.636439e-08
4.405075e-05 -1.722521e-05 3.482176e-08
4.268083e-05 -1.670177e-05 -5.023486e-09
4.268091e-05 -1.669870e-05 5.740542e-09
4.404692e-05 -1.721582e-05 6.465238e-08
4.404565e-05 -1.722310e-05 4.296433e-08
4.405089e-05 -1.721301e-05 -2.774186e-08
4.268158e-05 -1.670234e-05 -6.548040e-09
4.268166e-05 -1.669911e-05 7.771256e-09
4.403757e-05 -1.721236e-05 7.288853e-08
4.403942e-05 -1.722059e-05 5.114843e-08
4.268263e-05 -1.670298e-05 -8.131488e-09
4.268271e-05 -1.669962e-05 9.896377e-09
4.402697e-05 -1.720851e-05 8.102920e-08
4.403205e-05 -1.721771e-05 5.933100e-08
4.268397e-05 -1.670369e-05 -9.764104e-09
4.268405e-05 -1.670022e-05 1.209873e-08
4.401519e-05 -1.720425e-05 8.902663e-08
4.402354e-05 -1.721445e-05 6.747158e-08
4.268562e-05 -1.670446e-05 -1.144123e-08
4.268570e-05 -1.670092e-05 1.436190e-08
4.400228e-05 -1.719960e-05 9.684079e-08
4.401391e-05 -1.721081e-05 7.552822e-08
4.268759e-05 -1.670530e-05 -1.316032e-08
4.268766e-05 -1.670170e-05 1.667012e-08
4.398830e-05 -1.719457e-05 1.044407e-07
4.400317e-05 -1.720677e-05 8.345737e-08
4.268987e-05 -1.670623e-05 -1.491487e-08
4.268995e-05 -1.670259e-05 1.900656e-08
4.397332e-05 -1.718916e-05 1.118035e-07
4.399135e-05 -1.720233e-05 9.121951e-08
4.269248e-05 -1.670723e-05 -1.669381e-08
4.269256e-05 -1.670359e-05 2.135427e-08
4.395737e-05 -1.718339e-05 1.189124e-07
4.397849e-05 -1.719749e-05 9.878240e-08
4.269541e-05 -1.670834e-05 -1.848486e-08
4.269548e-05 -1.670471e-05 2.369840e-08
4.394051e-05 -1.717727e-05 1.257556e-07
4.396461e-05 -1.719227e-05 1.061212e-07
4.269865e-05 -1.670954e-05 -2.027656e-08
4.269872e-05 -1.670595e-05 2.602695e-08
4.394976e-05 -1.718668e-05 1.132173e-07
4.270604e-05 -1.671225e-05 -2.382505e-08
4.270227e-05 -1.670730e-05 2.833068e-08
4.393399e-05 -1.718073e-05 1.200574e-07
4.271018e-05 -1.671377e-05 -2.556803e-08
4.270611e-05 -1.670877e-05 3.060268e-08
4.388488e-05 -1.715696e-05 1.446226e-07
4.391733e-05 -1.717443e-05 1.266321e-07
4.386478e-05 -1.714959e-05 1.503448e-07
4.389982e-05 -1.716780e-05 1.329349e-07
4.391757e-05 -1.716479e-05 -9.811336e-08
4.271468e-05 -1.671204e-05 3.503284e-08
4.384398e-05 -1.714194e-05 1.557809e-07
4.388150e-05 -1.716086e-05 1.389615e-07
4.386253e-05 -1.714259e-05 -7.625667e-08
4.272431e-05 -1.671896e-05 -3.062065e-08
4.272438e-05 -1.671574e-05 3.929249e-08
4.382250e-05 -1.713403e-05 1.609302e-07
4.386240e-05 -1.715362e-05 1.447093e-07
4.388175e-05 -1.715207e-05 -1.077677e-07
4.272956e-05 -1.672090e-05 -3.223813e-08
4.272963e-05 -1.671775e-05 4.135443e-08
4.380039e-05 -1.712587e-05 1.657926e-07
4.384258e-05 -1.714610e-05 1.501766e-07
4.273508e-05 -1.672294e-05 -3.382001e-08
4.273515e-05 -1.671986e-05 4.337008e-08
4.377768e-05 -1.711747e-05 1.703684e-07
4.382206e-05 -1.713830e-05 1.553628e-07
4.274086e-05 -1.672508e-05 -3.536562e-08
4.274092e-05 -1.672208e-05 4.533904e-08
4.375441e-05 -1.710886e-05 1.746580e-07
4.380089e-05 -1.713025e-05 1.602677e-07
4.274688e-05 -1.672732e-05 -3.687457e-08
4.274695e-05 -1.672439e-05 4.726110e-08
4.373062e-05 -1.710005e-05 1.786619e-07
4.377909e-05 -1.712195e-05 1.648912e-07
4.275316e-05 -1.672965e-05 -3.834664e-08
4.275322e-05 -1.672679e-05 4.913618e-08
4.370635e-05 -1.709104e-05 1.823808e-07
4.375672e-05 -1.711343e-05 1.692339e-07
4.275967e-05 -1.673208e-05 -3.978176e-08
4.275973e-05 -1.672929e-05 5.096430e-08
4.368163e-05 -1.708186e-05 1.858151e-07
4.373381e-05 -1.710470e-05 1.732962e-07
4.277338e-05 -1.673720e-05 -4.254111e-08
4.276647e-05 -1.673189e-05 5.274547e-08
4.365650e-05 -1.707252e-05 1.889656e-07
4.371039e-05 -1.709577e-05 1.770786e-07
4.277345e-05 -1.673457e-05 5.447978e-08
4.363099e-05 -1.706304e-05 1.918329e-07
4.368651e-05 -1.708666e-05 1.805818e-07
4.278799e-05 -1.674268e-05 -4.515286e-08
4.278064e-05 -1.673733e-05 5.616727e-08
4.366220e-05 -1.707739e-05 1.838065e-07
4.278805e-05 -1.674019e-05 5.780802e-08
4.363749e-05 -1.706796e-05 1.867532e-07
4.279561e-05 -1.674554e-05 -4.640352e-08
4.279567e-05 -1.674312e-05 5.940206e-08
4.355262e-05 -1.703386e-05 1.987414e-07
4.361243e-05 -1.705839e-05 1.894226e-07
4.280343e-05 -1.674848e-05 -4.761742e-08
4.280349e-05 -1.674614e-05 6.094944e-08
4.352600e-05 -1.702394e-05 2.004817e-07
4.358706e-05 -1.704870e-05 1.918152e-07
4.361279e-05 -1.705474e-05 -1.473770e-07
4.349918e-05 -1.701395e-05 2.019418e-07
4.356140e-05 -1.703891e-05 1.939317e-07
4.281967e-05 -1.675460e-05 -4.993506e-08
4.347221e-05 -1.700390e-05 2.031221e-07
4.353550e-05 -1.702901e-05 1.957726e-07
4.356177e-05 -1.703610e-05 -1.509201e-07
4.283665e-05 -1.676100e-05 -5.210587e-08
4.283671e-05 -1.675894e-05 6.667250e-08
4.344513e-05 -1.699380e-05 2.040233e-07
4.350939e-05 -1.701904e-05 1.973385e-07
4.284541e-05 -1.676431e-05 -5.313620e-08
4.284546e-05 -1.676232e-05 6.798660e-08
4.341796e-05 -1.698367e-05 2.046462e-07
4.348311e-05 -1.700900e-05 1.986300e-07
4.285434e-05 -1.676768e-05 -5.412983e-08
4.285439e-05 -1.676577e-05 6.925401e-08
4.339075e-05 -1.697353e-05 2.049914e-07
4.345669e-05 -1.699891e-05 1.996476e-07
4.345707e-05 -1.699778e-05 -1.554151e-07
4.286343e-05 -1.677112e-05 -5.508677e-08
4.286348e-05 -1.676928e-05 7.047470e-08
4.336352e-05 -1.696338e-05 2.050600e-07
4.343017e-05 -1.698878e-05 2.003920e-07
4.287267e-05 -1.677462e-05 -5.600707e-08
4.287272e-05 -1.677285e-05 7.164867e-08
4.333632e-05 -1.695324e-05 2.048533e-07
4.340360e-05 -1.697863e-05 2.008639e-07
4.340397e-05 -1.697834e-05 -1.563750e-07
4.289161e-05 -1.678179e-05 -5.773818e-08
4.288212e-05 -1.677648e-05 7.277595e-08
4.330918e-05 -1.694313e-05 2.043729e-07
4.337699e-05 -1.696847e-05 2.010641e-07
4.339030e-05 -1.697348e-05 -1.526978e-07
4.289166e-05 -1.678017e-05 7.385663e-08
4.328214e-05 -1.693305e-05 2.036212e-07
4.335039e-05 -1.695831e-05 2.009937e-07
4.291111e-05 -1.678919e-05 -5.932501e-08
4.290135e-05 -1.678391e-05 7.489087e-08
4.325523e-05 -1.692303e-05 2.026015e-07
4.332383e-05 -1.694817e-05 2.006542e-07
4.291116e-05 -1.678770e-05 7.587895e-08
4.322849e-05 -1.691306e-05 2.013180e-07
4.329736e-05 -1.693806e-05 2.000475e-07
4.292105e-05 -1.679296e-05 -6.006554e-08
4.292110e-05 -1.679155e-05 7.682131e-08
4.327099e-05 -1.692800e-05 1.991761e-07
4.293112e-05 -1.679678e-05 -6.077195e-08
4.293116e-05 -1.679544e-05 7.771864e-08
4.324478e-05 -1.691799e-05 1.980437e-07
4.294129e-05 -1.680065e-05 -6.144550e-08
4.294134e-05 -1.679938e-05 7.857191e-08
4.314967e-05 -1.688367e-05 1.959576e-07
4.321875e-05 -1.690805e-05 1.966553e-07
4.295158e-05 -1.680457e-05 -6.208792e-08
4.295163e-05 -1.680336e-05 7.938256e-08
4.312401e-05 -1.687408e-05 1.937057e-07
4.319294e-05 -1.689820e-05 1.950177e-07
4.321911e-05 -1.691061e-05 -1.531467e-07
4.296197e-05 -1.680853e-05 -6.270144e-08
4.296202e-05 -1.680738e-05 8.015253e-08
4.309872e-05 -1.686461e-05 1.912503e-07
4.316739e-05 -1.688845e-05 1.931401e-07
4.307386e-05 -1.685526e-05 1.886160e-07
4.314213e-05 -1.687880e-05 1.910347e-07
4.316774e-05 -1.689174e-05 -1.504699e-07
4.298308e-05 -1.681554e-05 8.158191e-08
4.304947e-05 -1.684604e-05 1.858309e-07
4.311719e-05 -1.686927e-05 1.887175e-07
4.300444e-05 -1.682482e-05 -6.492969e-08
4.300449e-05 -1.682386e-05 8.289128e-08
4.302559e-05 -1.683694e-05 1.829182e-07
4.309261e-05 -1.685986e-05 1.862084e-07
4.301526e-05 -1.682901e-05 -6.544642e-08
4.301531e-05 -1.682807e-05 8.351338e-08
4.300224e-05 -1.682798e-05 1.798920e-07
4.306840e-05 -1.685058e-05 1.835314e-07
4.302616e-05 -1.683324e-05 -6.595052e-08
4.302621e-05 -1.683233e-05 8.412024e-08
4.297940e-05 -1.681915e-05 1.767721e-07
4.304460e-05 -1.684142e-05 1.807115e-07
4.304818e-05 -1.684184e-05 -6.692749e-08
4.303718e-05 -1.683662e-05 8.471677e-08
4.295708e-05 -1.681048e-05 1.735861e-07
4.302121e-05 -1.683238e-05 1.777724e-07
4.304823e-05 -1.684094e-05 8.530818e-08
4.293524e-05 -1.680197e-05 1.703594e-07
4.299825e-05 -1.682347e-05 1.747374e-07
4.307050e-05 -1.685060e-05 -6.788500e-08
4.305935e-05 -1.684529e-05 8.589929e-08
4.291387e-05 -1.679361e-05 1.671122e-07
4.297574e-05 -1.681470e-05 1.716310e-07
4.297603e-05 -1.681973e-05 -1.344992e-07
4.307055e-05 -1.684968e-05 8.649413e-08
4.289296e-05 -1.678542e-05 1.638599e-07
4.295366e-05 -1.680609e-05 1.684775e-07
4.308178e-05 -1.685503e-05 -6.836509e-08
4.308182e-05 -1.685410e-05 8.709584e-08
4.293203e-05 -1.679764e-05 1.652972e-07
4.293231e-05 -1.680275e-05 -1.296838e-07
4.309314e-05 -1.685950e-05 -6.884974e-08
4.309318e-05 -1.685855e-05 8.770681e-08
4.291084e-05 -1.678936e-05 1.621067e-07
4.292732e-05 -1.679849e-05 -1.250469e-07
4.310457e-05 -1.686400e-05 -6.934098e-08
4.310462e-05 -1.686304e-05 8.832880e-08
4.283283e-05 -1.676181e-05 1.541708e-07
4.289009e-05 -1.678124e-05 1.589181e-07
4.311609e-05 -1.686854e-05 -6.984038e-08
4.311614e-05 -1.686755e-05 8.896308e-08
4.281362e-05 -1.675426e-05 1.509835e-07
4.286976e-05 -1.677328e-05 1.557406e-07
4.289035e-05 -1.678633e-05 -1.247617e-07
4.312770e-05 -1.687311e-05 -7.034907e-08
4.312774e-05 -1.687211e-05 8.961055e-08
4.279483e-05 -1.674687e-05 1.478230e-07
4.284985e-05 -1.676549e-05 1.525809e-07
4.313940e-05 -1.687772e-05 -7.086788e-08
4.313944e-05 -1.687669e-05 9.027182e-08
4.277644e-05 -1.673963e-05 1.446909e-07
4.283037e-05 -1.675786e-05 1.494435e-07
4.285010e-05 -1.677052e-05 -1.198281e-07
4.315118e-05 -1.688236e-05 -7.139739e-08
4.315122e-05 -1.688131e-05 9.094731e-08
4.275845e-05 -1.673255e-05 1.415885e-07
4.281129e-05 -1.675039e-05 1.463315e-07
4.281153e-05 -1.675533e-05 -1.149398e-07
4.274086e-05 -1.672563e-05 1.385161e-07
4.279263e-05 -1.674307e-05 1.432471e-07
4.279286e-05 -1.674797e-05 -1.125226e-07
4.317507e-05 -1.689067e-05 9.234195e-08
4.272365e-05 -1.671886e-05 1.354742e-07
4.277437e-05 -1.673592e-05 1.401914e-07
4.277459e-05 -1.674077e-05 -1.101262e-07
4.321154e-05 -1.690615e-05 -7.421520e-08
4.319931e-05 -1.690017e-05 9.379563e-08
4.270684e-05 -1.671223e-05 1.324627e-07
4.275650e-05 -1.672892e-05 1.371652e-07
4.275672e-05 -1.673372e-05 -1.077520e-07
4.321158e-05 -1.690498e-05 9.454477e-08
4.269040e-05 -1.670576e-05 1.294816e-07
4.273904e-05 -1.672207e-05 1.341690e-07
4.273925e-05 -1.672682e-05 -1.054006e-07
4.323638e-05 -1.691593e-05 -7.542392e-08
4.322395e-05 -1.690983e-05 9.530880e-08
4.267435e-05 -1.669944e-05 1.265306e-07
4.272196e-05 -1.671537e-05 1.312027e-07
4.272217e-05 -1.672007e-05 -1.030726e-07
4.323642e-05 -1.691472e-05 9.608775e-08
4.265867e-05 -1.669326e-05 1.236098e-07
4.270527e-05 -1.670883e-05 1.282664e-07
4.270547e-05 -1.671348e-05 -1.007680e-07
4.324897e-05 -1.692089e-05 -7.604594e-08
4.324900e-05 -1.691966e-05 9.688165e-08
4.264336e-05 -1.668723e-05 1.207187e-07
4.268896e-05 -1.670243e-05 1.253599e-07
4.268916e-05 -1.670704e-05 -9.848686e-08
4.326165e-05 -1.692589e-05 -7.667978e-08
4.326169e-05 -1.692463e-05 9.769051e-08
4.267302e-05 -1.669618e-05 1.224830e-07
4.327445e-05 -1.693093e-05 -7.732548e-08
4.327449e-05 -1.692965e-05 9.851438e-08
4.265746e-05 -1.669008e-05 1.196356e-07
4.265766e-05 -1.669459e-05 -9.399451e-08
4.328737e-05 -1.693601e-05 -7.798309e-08
4.328740e-05 -1.693471e-05 9.935331e-08
4.259962e-05 -1.666999e-05 1.122225e-07
4.264228e-05 -1.668412e-05 1.168174e-07
4.264246e-05 -1.668859e-05 -9.178299e-08
4.330039e-05 -1.694114e-05 -7.865268e-08
4.330042e-05 -1.693982e-05 1.002074e-07
4.258575e-05 -1.666452e-05 1.094487e-07
4.262745e-05 -1.667831e-05 1.140281e-07
4.262764e-05 -1.668272e-05 -8.959434e-08
4.331353e-05 -1.694632e-05 -7.933433e-08
4.331356e-05 -1.694497e-05 1.010766e-07
4.257224e-05 -1.665920e-05 1.067039e-07
4.261299e-05 -1.667263e-05 1.112677e-07
4.259906e-05 -1.667142e-05 -8.528502e-08
4.332679e-05 -1.695154e-05 -8.002811e-08
4.332682e-05 -1.695017e-05 1.019612e-07
4.255908e-05 -1.665400e-05 1.039879e-07
4.259889e-05 -1.666710e-05 1.085359e-07
4.334017e-05 -1.695681e-05 -8.073412e-08
4.334020e-05 -1.695541e-05 1.028612e-07
4.254625e-05 -1.664894e-05 1.013005e-07
4.258514e-05 -1.666170e-05 1.058326e-07
4.257191e-05 -1.666068e-05 -8.106534e-08
4.335368e-05 -1.696213e-05 -8.145243e-08
4.335370e-05 -1.696070e-05 1.037767e-07
4.253377e-05 -1.664402e-05 9.864173e-08
4.257173e-05 -1.665644e-05 1.031576e-07
4.336731e-05 -1.696750e-05 -8.218309e-08
4.336733e-05 -1.696605e-05 1.047077e-07
4.252163e-05 -1.663922e-05 9.601134e-08
4.255868e-05 -1.665132e-05 1.005108e-07
4.255885e-05 -1.665551e-05 -7.898880e-08
4.250982e-05 -1.663456e-05 9.340928e-08
4.254597e-05 -1.664633e-05 9.789207e-08
4.254613e-05 -1.665047e-05 -7.693432e-08
4.339494e-05 -1.697838e-05 -8.368133e-08
4.339496e-05 -1.697688e-05 1.066169e-07
4.249833e-05 -1.663002e-05 9.083544e-08
4.253359e-05 -1.664147e-05 9.530130e-08
4.253375e-05 -1.664557e-05 -7.490179e-08
4.342310e-05 -1.698946e-05 -8.522727e-08
4.342312e-05 -1.698791e-05 1.085882e-07
4.248717e-05 -1.662561e-05 8.828968e-08
4.252155e-05 -1.663674e-05 9.273840e-08
4.252171e-05 -1.664080e-05 -7.289112e-08
4.343738e-05 -1.699508e-05 -8.601661e-08
4.343740e-05 -1.699351e-05 1.095964e-07
4.247633e-05 -1.662132e-05 8.577186e-08
4.250984e-05 -1.663214e-05 9.020325e-08
4.251000e-05 -1.663615e-05 -7.090219e-08
4.345180e-05 -1.700075e-05 -8.681525e-08
4.345182e-05 -1.699916e-05 1.106185e-07
4.246581e-05 -1.661716e-05 8.328178e-08
4.249846e-05 -1.662767e-05 8.769574e-08
4.249861e-05 -1.663164e-05 -6.893490e-08
4.346636e-05 -1.700647e-05 -8.762115e-08
4.346638e-05 -1.700486e-05 1.116532e-07
4.248740e-05 -1.662332e-05 8.521572e-08
4.348106e-05 -1.701225e-05 -8.843134e-08
4.348107e-05 -1.701062e-05 1.126982e-07
4.247666e-05 -1.661910e-05 8.276305e-08
4.247680e-05 -1.662298e-05 -6.506454e-08
4.349590e-05 -1.701807e-05 -8.924161e-08
4.349592e-05 -1.701643e-05 1.137503e-07
4.243612e-05 -1.660541e-05 7.597500e-08
4.246623e-05 -1.661500e-05 8.033750e-08
4.246638e-05 -1.661884e-05 -6.316103e-08
4.351090e-05 -1.702394e-05 -9.004620e-08
4.351091e-05 -1.702230e-05 1.148049e-07
4.242683e-05 -1.660174e-05 7.359231e-08
4.245612e-05 -1.661103e-05 7.793880e-08
4.245626e-05 -1.661482e-05 -6.127818e-08
4.352604e-05 -1.702985e-05 -9.083741e-08
4.352605e-05 -1.702822e-05 1.158555e-07
4.241783e-05 -1.659817e-05 7.123480e-08
4.244631e-05 -1.660717e-05 7.556655e-08
4.243694e-05 -1.660715e-05 -5.757242e-08
4.354134e-05 -1.703580e-05 -9.160531e-08
4.354135e-05 -1.703419e-05 1.168930e-07
4.240913e-05 -1.659473e-05 6.890131e-08
4.243681e-05 -1.660344e-05 7.322023e-08
4.355680e-05 -1.704178e-05 -9.233770e-08
4.355680e-05 -1.704022e-05 1.179055e-07
4.240072e-05 -1.659140e-05 6.659028e-08
4.242760e-05 -1.659982e-05 7.089914e-08
4.241883e-05 -1.659995e-05 -5.394120e-08
4.357241e-05 -1.704778e-05 -9.302051e-08
4.357241e-05 -1.704630e-05 1.188775e-07
4.239259e-05 -1.658818e-05 6.429965e-08
4.241870e-05 -1.659631e-05 6.860230e-08
4.360408e-05 -1.705981e-05 -9.418312e-08
4.358818e-05 -1.705243e-05 1.197904e-07
4.238474e-05 -1.658508e-05 6.202678e-08
4.241008e-05 -1.659293e-05 6.632844e-08
4.241022e-05 -1.659653e-05 -5.215056e-08
4.360408e-05 -1.705858e-05 1.206237e-07
4.237717e-05 -1.658209e-05 5.976852e-08
4.240176e-05 -1.658965e-05 6.407587e-08
4.240189e-05 -1.659322e-05 -5.037439e-08
4.363627e-05 -1.707181e-05 -9.502592e-08
4.362012e-05 -1.706474e-05 1.213581e-07
4.236986e-05 -1.657921e-05 5.752168e-08
4.239372e-05 -1.658649e-05 6.184247e-08
4.239385e-05 -1.659003e-05 -4.861067e-08
4.363628e-05 -1.707092e-05 1.219748e-07
4.236282e-05 -1.657645e-05 5.528431e-08
4.238597e-05 -1.658345e-05 5.962560e-08
4.238609e-05 -1.658696e-05 -4.685730e-08
4.235604e-05 -1.657380e-05 5.305459e-08
4.237849e-05 -1.658051e-05 5.742236e-08
4.237862e-05 -1.658401e-05 -4.511243e-08
4.366887e-05 -1.708374e-05 -9.549406e-08
4.366888e-05 -1.708334e-05 1.227740e-07
4.234953e-05 -1.657126e-05 5.082953e-08
4.237130e-05 -1.657769e-05 5.522987e-08
4.237142e-05 -1.658117e-05 -4.337501e-08
4.370169e-05 -1.709563e-05 -9.548084e-08
4.370169e-05 -1.709581e-05 1.228752e-07
4.236438e-05 -1.657499e-05 5.304544e-08
4.236450e-05 -1.657845e-05 -4.164458e-08
4.371811e-05 -1.710155e-05 -9.526191e-08
4.371811e-05 -1.710204e-05 1.226313e-07
4.235774e-05 -1.657239e-05 5.086623e-08
4.235786e-05 -1.657585e-05 -3.992027e-08
4.373449e-05 -1.710744e-05 -9.488873e-08
4.373450e-05 -1.710825e-05 1.221796e-07
4.233164e-05 -1.656429e-05 4.415274e-08
4.235137e-05 -1.656991e-05 4.868934e-08
4.235149e-05 -1.657337e-05 -3.820033e-08
4.375081e-05 -1.711330e-05 -9.435441e-08
4.375082e-05 -1.711444e-05 1.215141e-07
4.232622e-05 -1.656219e-05 4.191943e-08
4.234528e-05 -1.656753e-05 4.651207e-08
4.376703e-05 -1.711911e-05 -9.365378e-08
4.376704e-05 -1.712059e-05 1.206307e-07
4.232109e-05 -1.656020e-05 3.967991e-08
4.233947e-05 -1.656527e-05 4.433225e-08
4.233405e-05 -1.656659e-05 -3.304644e-08
4.378314e-05 -1.712487e-05 -9.278308e-08
4.378315e-05 -1.712669e-05 1.195263e-07
4.231623e-05 -1.655832e-05 3.743330e-08
4.233394e-05 -1.656311e-05 4.214813e-08
4.379908e-05 -1.713057e-05 -9.173960e-08
4.379910e-05 -1.713273e-05 1.181990e-07
4.231166e-05 -1.655655e-05 3.517897e-08
4.232868e-05 -1.656107e-05 3.995840e-08
4.232382e-05 -1.656262e-05 -2.959879e-08
4.383039e-05 -1.714174e-05 -8.912737e-08
4.381486e-05 -1.713870e-05 1.166473e-07
4.230736e-05 -1.655489e-05 3.291646e-08
4.232371e-05 -1.655913e-05 3.776208e-08
4.383041e-05 -1.714459e-05 1.148701e-07
4.230336e-05 -1.655334e-05 3.064545e-08
4.231901e-05 -1.655730e-05 3.555846e-08
4.231913e-05 -1.656081e-05 -2.786800e-08
4.386071e-05 -1.715252e-05 -8.580806e-08
4.384571e-05 -1.715038e-05 1.128668e-07
4.229963e-05 -1.655190e-05 2.836571e-08
4.231460e-05 -1.655559e-05 3.334701e-08
4.231472e-05 -1.655911e-05 -2.613164e-08
4.386074e-05 -1.715606e-05 1.106369e-07
4.229620e-05 -1.655058e-05 2.607708e-08
4.231047e-05 -1.655398e-05 3.112737e-08
4.231059e-05 -1.655752e-05 -2.438922e-08
4.387543e-05 -1.715773e-05 -8.388188e-08
4.387546e-05 -1.716162e-05 1.081801e-07
4.229305e-05 -1.654936e-05 2.377944e-08
4.230663e-05 -1.655249e-05 2.889928e-08
4.230674e-05 -1.655604e-05 -2.264040e-08
4.388981e-05 -1.716282e-05 -8.177761e-08
4.388985e-05 -1.716705e-05 1.054963e-07
4.229019e-05 -1.654826e-05 2.147272e-08
4.230307e-05 -1.655111e-05 2.666254e-08
4.230318e-05 -1.655467e-05 -2.088495e-08
4.390383e-05 -1.716776e-05 -7.949509e-08
4.390387e-05 -1.717234e-05 1.025851e-07
4.228762e-05 -1.654728e-05 1.915683e-08
4.229980e-05 -1.654984e-05 2.441704e-08
4.229682e-05 -1.654868e-05 2.216267e-08
4.229693e-05 -1.655227e-05 -1.735346e-08
4.393069e-05 -1.718244e-05 9.608008e-08
4.229412e-05 -1.654764e-05 1.989936e-08
4.229423e-05 -1.655124e-05 -1.557721e-08
4.395562e-05 -1.718586e-05 -6.857968e-08
4.395568e-05 -1.719182e-05 8.866398e-08
4.228165e-05 -1.654500e-05 1.215356e-08
4.229172e-05 -1.654671e-05 1.762705e-08
4.229183e-05 -1.655032e-05 -1.379385e-08
4.396734e-05 -1.718991e-05 -6.540388e-08
4.396742e-05 -1.719622e-05 8.461387e-08
4.228024e-05 -1.654447e-05 9.800387e-09
4.228960e-05 -1.654589e-05 1.534567e-08
4.228971e-05 -1.654952e-05 -1.200332e-08
4.397852e-05 -1.719374e-05 -6.204903e-08
4.397860e-05 -1.720040e-05 8.033551e-08
4.227913e-05 -1.654405e-05 7.437719e-09
4.228778e-05 -1.654518e-05 1.305517e-08
4.228636e-05 -1.654825e-05 -8.400497e-09
4.398912e-05 -1.719734e-05 -5.851496e-08
4.398920e-05 -1.720435e-05 7.582871e-08
4.227832e-05 -1.654375e-05 5.065462e-09
4.228625e-05 -1.654460e-05 1.075549e-08
4.400845e-05 -1.720382e-05 -5.090863e-08
4.399919e-05 -1.720806e-05 7.109331e-08
4.227780e-05 -1.654357e-05 2.683511e-09
4.228501e-05 -1.654412e-05 8.446545e-09
4.228418e-05 -1.654745e-05 -4.768182e-09
4.400854e-05 -1.721152e-05 6.612913e-08
4.227758e-05 -1.654350e-05 2.917510e-10
4.228407e-05 -1.654376e-05 6.128253e-09
4.402509e-05 -1.720925e-05 -4.258417e-08
4.401722e-05 -1.721472e-05 6.093606e-08
4.227766e-05 -1.654355e-05 -2.109945e-09
4.228343e-05 -1.654352e-05 3.800515e-09
4.228354e-05 -1.654722e-05 -2.940752e-09
4.402520e-05 -1.721765e-05 5.551403e-08
4.227804e-05 -1.654371e-05 -4.521709e-09
4.228308e-05 -1.654339e-05 1.463220e-09
4.403233e-05 -1.721154e-05 -3.815286e-08
4.403244e-05 -1.722028e-05 4.986310e-08
4.227872e-05 -1.654400e-05 -6.943675e-09
4.228304e-05 -1.654338e-05 -8.837567e-10
4.228314e-05 -1.654712e-05 7.371697e-10
4.403880e-05 -1.721353e-05 -3.354271e-08
4.403892e-05 -1.722262e-05 4.398350e-08
4.227970e-05 -1.654440e-05 -9.375956e-09
4.228329e-05 -1.654349e-05 -3.240551e-09
4.228339e-05 -1.654724e-05 2.587892e-09
4.404448e-05 -1.721521e-05 -2.875464e-08
4.404460e-05 -1.722465e-05 3.787579e-08
4.228099e-05 -1.654492e-05 -1.181863e-08
4.228384e-05 -1.654372e-05 -5.607300e-09
4.228395e-05 -1.654748e-05 4.446598e-09
4.404934e-05 -1.721656e-05 -2.379020e-08
4.404946e-05 -1.722635e-05 3.154097e-08
4.228257e-05 -1.654556e-05 -1.427171e-08
4.228470e-05 -1.654406e-05 -7.984141e-09
4.228480e-05 -1.654784e-05 6.313377e-09
4.405333e-05 -1.721759e-05 -1.865184e-08
4.405346e-05 -1.722772e-05 2.498075e-08
4.228585e-05 -1.654452e-05 -1.037118e-08
4.228596e-05 -1.654832e-05 8.188260e-09
4.405644e-05 -1.721828e-05 -1.334330e-08
4.405657e-05 -1.722874e-05 1.819782e-08
4.228732e-05 -1.654510e-05 -1.276849e-08
4.228742e-05 -1.654892e-05 1.007120e-08
4.405864e-05 -1.721861e-05 -7.870062e-09
4.405877e-05 -1.722940e-05 1.119627e-08
4.228918e-05 -1.654820e-05 -2.169127e-08
4.228908e-05 -1.654580e-05 -1.517604e-08
4.228919e-05 -1.654963e-05 1.196202e-08
4.229199e-05 -1.654932e-05 -2.418255e-08
4.229116e-05 -1.654662e-05 -1.759367e-08
4.229127e-05 -1.655047e-05 1.386031e-08
4.406028e-05 -1.722961e-05 -3.435805e-09
4.229512e-05 -1.655056e-05 -2.668076e-08
4.229354e-05 -1.654756e-05 -2.002100e-08
4.229635e-05 -1.655250e-05 1.767608e-08
4.405473e-05 -1.721482e-05 2.157220e-08
4.405773e-05 -1.722826e-05 -1.882943e-08
4.229857e-05 -1.655191e-05 -2.918355e-08
4.229624e-05 -1.654862e-05 -2.245733e-08
4.405486e-05 -1.722697e-05 -2.676529e-08
4.230233e-05 -1.655339e-05 -3.168745e-08
4.229924e-05 -1.654980e-05 -2.490149e-08
4.230268e-05 -1.655500e-05 2.150653e-08
4.404567e-05 -1.721075e-05 3.393629e-08
4.405089e-05 -1.722527e-05 -3.482302e-08
4.230641e-05 -1.655499e-05 -3.418750e-08
4.230256e-05 -1.655110e-05 -2.735164e-08
4.404579e-05 -1.722316e-05 -4.296526e-08
4.231082e-05 -1.655671e-05 -3.667672e-08
4.230620e-05 -1.655252e-05 -2.980502e-08
4.230631e-05 -1.655643e-05 2.342000e-08
4.403944e-05 -1.720822e-05 4.013225e-08
4.403956e-05 -1.722065e-05 -5.114901e-08
4.231557e-05 -1.655855e-05 -3.914550e-08
4.231015e-05 -1.655407e-05 -3.225766e-08
4.231026e-05 -1.655797e-05 2.532596e-08
4.403207e-05 -1.720537e-05 4.631073e-08
4.403218e-05 -1.721777e-05 -5.933121e-08
4.232067e-05 -1.656050e-05 -4.158083e-08
4.231442e-05 -1.655574e-05 -3.470391e-08
4.231453e-05 -1.655963e-05 2.721756e-08
4.402357e-05 -1.720221e-05 5.246458e-08
4.402368e-05 -1.721451e-05 -6.747144e-08
4.232613e-05 -1.656257e-05 -4.396565e-08
4.231901e-05 -1.655752e-05 -3.713597e-08
4.231913e-05 -1.656139e-05 2.908580e-08
4.401395e-05 -1.719873e-05 5.858126e-08
4.401405e-05 -1.721087e-05 -7.552775e-08
4.233196e-05 -1.656474e-05 -4.627856e-08
4.232392e-05 -1.655943e-05 -3.954335e-08
4.232404e-05 -1.656325e-05 3.091936e-08
4.400322e-05 -1.719491e-05 6.463557e-08
4.400331e-05 -1.720683e-05 -8.345659e-08
4.232916e-05 -1.656145e-05 -4.191226e-08
4.232928e-05 -1.656520e-05 3.270462e-08
4.399141e-05 -1.719076e-05 7.059655e-08
4.399149e-05 -1.720239e-05 -9.121845e-08
4.233472e-05 -1.656359e-05 -4.422536e-08
4.233485e-05 -1.656723e-05 3.442639e-08
4.397855e-05 -1.718625e-05 7.643442e-08
4.397862e-05 -1.719755e-05 -9.878108e-08
4.235176e-05 -1.657181e-05 -5.257306e-08
4.234060e-05 -1.656583e-05 -4.646213e-08
4.234073e-05 -1.656934e-05 3.606984e-08
4.396469e-05 -1.718138e-05 8.212365e-08
4.396474e-05 -1.719233e-05 -1.061196e-07
4.235908e-05 -1.657432e-05 -5.440413e-08
4.234679e-05 -1.656815e-05 -4.860115e-08
4.234692e-05 -1.657149e-05 3.762449e-08
4.394985e-05 -1.717618e-05 8.764366e-08
4.394990e-05 -1.718673e-05 -1.132156e-07
4.236670e-05 -1.657692e-05 -5.606652e-08
4.235327e-05 -1.657055e-05 -5.062228e-08
4.235340e-05 -1.657370e-05 3.908595e-08
4.393409e-05 -1.717063e-05 9.297863e-08
4.393412e-05 -1.718078e-05 -1.200555e-07
4.237458e-05 -1.657958e-05 -5.753828e-08
4.236002e-05 -1.657303e-05 -5.250550e-08
4.236015e-05 -1.657594e-05 4.045021e-08
4.389993e-05 -1.715854e-05 1.030497e-07
4.391746e-05 -1.717448e-05 -1.266301e-07
4.238267e-05 -1.658232e-05 -5.880172e-08
4.236703e-05 -1.657558e-05 -5.422937e-08
4.236717e-05 -1.657823e-05 4.170731e-08
4.389995e-05 -1.716786e-05 -1.329327e-07
4.239094e-05 -1.658510e-05 -5.984324e-08
4.237428e-05 -1.657821e-05 -5.577303e-08
4.238187e-05 -1.658294e-05 4.384057e-08
4.239934e-05 -1.658793e-05 -6.065263e-08
4.238173e-05 -1.658091e-05 -5.711860e-08
4.386254e-05 -1.714521e-05 1.122780e-07
4.386253e-05 -1.715368e-05 -1.447070e-07
4.240785e-05 -1.659079e-05 -6.122239e-08
4.238935e-05 -1.658368e-05 -5.825175e-08
4.239726e-05 -1.658781e-05 4.537111e-08
4.382222e-05 -1.713075e-05 1.206367e-07
4.382219e-05 -1.713835e-05 -1.553604e-07
4.241641e-05 -1.659367e-05 -6.154706e-08
4.239712e-05 -1.658649e-05 -5.916142e-08
4.380106e-05 -1.712313e-05 1.244865e-07
4.380101e-05 -1.713030e-05 -1.602652e-07
4.242500e-05 -1.659656e-05 -6.162265e-08
4.240499e-05 -1.658934e-05 -5.983931e-08
4.240514e-05 -1.659030e-05 4.588246e-08
4.377927e-05 -1.711527e-05 1.281162e-07
4.377922e-05 -1.712200e-05 -1.648888e-07
4.243359e-05 -1.659945e-05 -6.144630e-08
4.241295e-05 -1.659223e-05 -6.027926e-08
4.241309e-05 -1.659280e-05 4.621404e-08
4.375691e-05 -1.710718e-05 1.315258e-07
4.375685e-05 -1.711348e-05 -1.692314e-07
4.242095e-05 -1.659512e-05 -6.047682e-08
4.242109e-05 -1.659531e-05 4.636028e-08
4.373401e-05 -1.709887e-05 1.347154e-07
4.373393e-05 -1.710475e-05 -1.732937e-07
4.242896e-05 -1.659802e-05 -6.042871e-08
4.242911e-05 -1.659783e-05 4.631699e-08
4.371060e-05 -1.709038e-05 1.376856e-07
4.371052e-05 -1.709583e-05 -1.770761e-07
4.245901e-05 -1.660797e-05 -5.938713e-08
4.243695e-05 -1.660092e-05 -6.013258e-08
4.243710e-05 -1.660033e-05 4.608106e-08
4.368673e-05 -1.708169e-05 1.404368e-07
4.368663e-05 -1.708672e-05 -1.805794e-07
4.246726e-05 -1.661072e-05 -5.818643e-08
4.244489e-05 -1.660379e-05 -5.958670e-08
4.244504e-05 -1.660281e-05 4.565014e-08
4.366242e-05 -1.707284e-05 1.429694e-07
4.366232e-05 -1.707744e-05 -1.838040e-07
4.247535e-05 -1.661341e-05 -5.672688e-08
4.245274e-05 -1.660663e-05 -5.878974e-08
4.245289e-05 -1.660525e-05 4.502244e-08
4.363772e-05 -1.706384e-05 1.452840e-07
4.363761e-05 -1.706801e-05 -1.867507e-07
4.248324e-05 -1.661602e-05 -5.500751e-08
4.246048e-05 -1.660942e-05 -5.774060e-08
4.246063e-05 -1.660765e-05 4.419652e-08
4.358730e-05 -1.704543e-05 1.492609e-07
4.361255e-05 -1.705844e-05 -1.894201e-07
4.249091e-05 -1.661854e-05 -5.302731e-08
4.246807e-05 -1.661216e-05 -5.643832e-08
4.246822e-05 -1.660999e-05 4.317112e-08
4.358718e-05 -1.704875e-05 -1.918127e-07
4.249831e-05 -1.662096e-05 -5.078523e-08
4.247548e-05 -1.661482e-05 -5.488193e-08
4.247563e-05 -1.661225e-05 4.194510e-08
4.353575e-05 -1.702658e-05 1.523711e-07
4.356152e-05 -1.703896e-05 -1.939292e-07
4.250544e-05 -1.662326e-05 -4.828017e-08
4.248267e-05 -1.661740e-05 -5.307046e-08
4.248977e-05 -1.661652e-05 3.888685e-08
4.353561e-05 -1.702906e-05 -1.957701e-07
4.251224e-05 -1.662544e-05 -4.551110e-08
4.248962e-05 -1.661989e-05 -5.100286e-08
4.350965e-05 -1.701703e-05 1.536023e-07
4.350950e-05 -1.701909e-05 -1.973360e-07
4.251869e-05 -1.662748e-05 -4.247719e-08
4.249630e-05 -1.662226e-05 -4.867801e-08
4.250281e-05 -1.662034e-05 3.501332e-08
4.348337e-05 -1.700741e-05 1.546182e-07
4.348322e-05 -1.700905e-05 -1.986275e-07
4.252477e-05 -1.662937e-05 -3.917803e-08
4.250267e-05 -1.662452e-05 -4.609479e-08
4.253044e-05 -1.663110e-05 -3.561403e-08
4.250869e-05 -1.662664e-05 -4.325213e-08
4.250884e-05 -1.662205e-05 3.276879e-08
4.343029e-05 -1.698883e-05 -2.003895e-07
4.253567e-05 -1.663266e-05 -3.178695e-08
4.251435e-05 -1.662862e-05 -4.014927e-08
4.251449e-05 -1.662362e-05 3.031883e-08
4.337726e-05 -1.696855e-05 1.565395e-07
4.337710e-05 -1.696852e-05 -2.010617e-07
4.251960e-05 -1.663044e-05 -3.678598e-08
4.251974e-05 -1.662503e-05 2.766439e-08
4.335066e-05 -1.695881e-05 1.564885e-07
4.335050e-05 -1.695836e-05 -2.009913e-07
4.252441e-05 -1.663209e-05 -3.316305e-08
4.252455e-05 -1.662626e-05 2.480803e-08
4.332410e-05 -1.694908e-05 1.562278e-07
4.332394e-05 -1.694822e-05 -2.006519e-07
4.254838e-05 -1.663620e-05 -1.878329e-08
4.252875e-05 -1.663357e-05 -2.928287e-08
4.252889e-05 -1.662733e-05 2.175476e-08
4.329762e-05 -1.693938e-05 1.557597e-07
4.329746e-05 -1.693811e-05 -2.000452e-07
4.255151e-05 -1.663697e-05 -1.398224e-08
4.253259e-05 -1.663484e-05 -2.515039e-08
4.253273e-05 -1.662820e-05 1.851321e-08
4.327126e-05 -1.692972e-05 1.550875e-07
4.327110e-05 -1.692804e-05 -1.991738e-07
4.255400e-05 -1.663752e-05 -8.986527e-09
4.253589e-05 -1.663592e-05 -2.077430e-08
4.253603e-05 -1.662889e-05 1.509723e-08
4.324504e-05 -1.692012e-05 1.542156e-07
4.324489e-05 -1.691804e-05 -1.980416e-07
4.255580e-05 -1.663784e-05 -3.836185e-09
4.253861e-05 -1.663678e-05 -1.616875e-08
4.253875e-05 -1.662939e-05 1.152792e-08
4.319320e-05 -1.690110e-05 1.518991e-07
4.321886e-05 -1.690810e-05 -1.966533e-07
4.255684e-05 -1.663793e-05 1.411920e-09
4.254072e-05 -1.663741e-05 -1.135554e-08
4.254087e-05 -1.662970e-05 7.836293e-09
4.319305e-05 -1.689825e-05 -1.950158e-07
4.255702e-05 -1.663779e-05 6.678568e-09
4.254218e-05 -1.663781e-05 -6.367048e-09
4.254232e-05 -1.662983e-05 4.066585e-09
4.314237e-05 -1.688239e-05 1.488846e-07
4.316750e-05 -1.688849e-05 -1.931383e-07
4.255623e-05 -1.663739e-05 1.185523e-08
4.254294e-05 -1.663796e-05 -1.249946e-09
4.254311e-05 -1.662965e-05 -3.439013e-09
4.314223e-05 -1.687884e-05 -1.910331e-07
4.255431e-05 -1.663676e-05 1.679529e-08
4.254296e-05 -1.663786e-05 3.930108e-09
4.311743e-05 -1.687317e-05 1.471501e-07
4.311729e-05 -1.686931e-05 -1.887160e-07
4.255109e-05 -1.663588e-05 2.130300e-08
4.254219e-05 -1.663748e-05 9.082639e-09
4.254071e-05 -1.662911e-05 -1.020124e-08
4.309284e-05 -1.686404e-05 1.452870e-07
4.309271e-05 -1.685990e-05 -1.862072e-07
4.254632e-05 -1.663480e-05 2.512011e-08
4.254056e-05 -1.663684e-05 1.408534e-08
4.306862e-05 -1.685500e-05 1.433131e-07
4.306850e-05 -1.685062e-05 -1.835303e-07
4.253972e-05 -1.663355e-05 2.791080e-08
4.253803e-05 -1.663593e-05 1.877580e-08
4.253818e-05 -1.662886e-05 -1.292084e-08
4.304481e-05 -1.684603e-05 1.412414e-07
4.304470e-05 -1.684146e-05 -1.807107e-07
4.253101e-05 -1.663224e-05 2.925379e-08
4.253455e-05 -1.663476e-05 2.294217e-08
4.253472e-05 -1.662876e-05 -1.492151e-08
4.302142e-05 -1.683716e-05 1.390780e-07
4.302131e-05 -1.683242e-05 -1.777718e-07
4.253010e-05 -1.663338e-05 2.631266e-08
4.253029e-05 -1.662895e-05 -1.595337e-08
4.253112e-05 -1.666198e-05 -3.536563e-11
4.299845e-05 -1.682837e-05 1.368270e-07
4.299836e-05 -1.682351e-05 -1.747370e-07
4.250627e-05 -1.663031e-05 2.581938e-08
4.252473e-05 -1.663188e-05 2.853784e-08
4.252495e-05 -1.662964e-05 -1.575134e-08
4.251856e-05 -1.663037e-05 2.913292e-08
4.251887e-05 -1.663121e-05 -1.400436e-08
4.295376e-05 -1.680613e-05 -1.684775e-07
4.251199e-05 -1.662934e-05 2.819364e-08
4.249055e-05 -1.663169e-05 1.974922e-08
4.291101e-05 -1.679443e-05 1.272289e-07
4.291094e-05 -1.678940e-05 -1.621070e-07
4.250545e-05 -1.662971e-05 2.517884e-08
4.247576e-05 -1.663239e-05 1.318755e-08
4.251483e-05 -1.664835e-05 2.650843e-10
4.286991e-05 -1.677832e-05 1.222914e-07
4.289019e-05 -1.678128e-05 -1.589185e-07
4.252355e-05 -1.666036e-05 -3.211186e-09
4.249978e-05 -1.663210e-05 1.848207e-08
4.286986e-05 -1.677333e-05 -1.557412e-07
4.283051e-05 -1.676281e-05 1.173752e-07
4.284995e-05 -1.676553e-05 -1.525816e-07
4.283047e-05 -1.675790e-05 -1.494443e-07
4.250957e-05 -1.665016e-05 -3.632429e-10
4.251202e-05 -1.663345e-05 1.058079e-08
4.252497e-05 -1.665249e-05 -6.400061e-10
4.251240e-05 -1.663350e-05 -1.083143e-08
4.252452e-05 -1.665695e-05 -1.106262e-09
4.252946e-05 -1.665868e-05 -5.533826e-10
4.252949e-05 -1.665870e-05 4.894132e-10
4.252480e-05 -1.665700e-05 1.087054e-09
4.245307e-05 -1.663043e-05 -4.393345e-09
4.250570e-05 -1.663696e-05 -6.479297e-09
4.248840e-05 -1.663198e-05 -1.849791e-08
4.250613e-05 -1.665406e-05 4.359195e-09
4.250258e-05 -1.663330e-05 -1.722003e-08
4.252908e-05 -1.665870e-05 9.766637e-10
4.250604e-05 -1.662976e-05 -2.478425e-08
4.252555e-05 -1.665700e-05 2.276130e-09
4.251237e-05 -1.662954e-05 -2.806620e-08
4.252361e-05 -1.665247e-05 3.494249e-09
4.251884e-05 -1.663052e-05 -2.905804e-08
4.251858e-05 -1.663110e-05 1.391200e-08
4.252494e-05 -1.663199e-05 -2.848727e-08
4.252474e-05 -1.662956e-05 1.572475e-08
4.253028e-05 -1.663347e-05 -2.627365e-08
4.253011e-05 -1.662887e-05 1.595506e-08
4.253471e-05 -1.663484e-05 -2.291618e-08
4.253456e-05 -1.662868e-05 1.493071e-08
4.253818e-05 -1.663600e-05 -1.875861e-08
4.253803e-05 -1.662879e-05 1.293131e-08
4.254219e-05 -1.662934e-05 6.987833e-09
4.254071e-05 -1.663691e-05 -1.407376e-08
4.254233e-05 -1.663755e-05 -9.074822e-09
4.254295e-05 -1.662975e-05 -2.776607e-10
4.254311e-05 -1.663792e-05 -3.924994e-09
4.254309e-05 -1.663802e-05 1.253011e-09
4.254232e-05 -1.663787e-05 6.368508e-09
4.254218e-05 -1.662978e-05 -4.065857e-09
4.254086e-05 -1.663747e-05 1.135573e-08
4.254072e-05 -1.662965e-05 -7.837160e-09
4.253875e-05 -1.663684e-05 1.616792e-08
4.253861e-05 -1.662934e-05 -1.153006e-08
4.253602e-05 -1.663598e-05 2.077268e-08
4.253589e-05 -1.662884e-05 -1.510036e-08
4.253272e-05 -1.663490e-05 2.514815e-08
4.253259e-05 -1.662815e-05 -1.851708e-08
4.252889e-05 -1.663362e-05 2.928017e-08
4.252876e-05 -1.662728e-05 -2.175917e-08
4.252454e-05 -1.663215e-05 3.316001e-08
4.252442e-05 -1.662622e-05 -2.481283e-08
4.251973e-05 -1.663050e-05 3.678270e-08
4.251961e-05 -1.662498e-05 -2.766946e-08
4.251448e-05 -1.662868e-05 4.014582e-08
4.251436e-05 -1.662357e-05 -3.032407e-08
4.250883e-05 -1.662670e-05 4.324857e-08
4.250871e-05 -1.662200e-05 -3.277414e-08
4.249632e-05 -1.661844e-05 -3.705791e-08
4.250280e-05 -1.662457e-05 4.609116e-08
4.249643e-05 -1.662232e-05 4.867435e-08
4.248269e-05 -1.661439e-05 -4.052282e-08
4.248975e-05 -1.661994e-05 5.099919e-08
4.248280e-05 -1.661745e-05 5.306679e-08
4.247560e-05 -1.661487e-05 5.487827e-08
4.247550e-05 -1.661221e-05 -4.195053e-08
4.246819e-05 -1.661221e-05 5.643467e-08
4.246809e-05 -1.660994e-05 -4.317651e-08
4.246060e-05 -1.660947e-05 5.773699e-08
4.246050e-05 -1.660761e-05 -4.420188e-08
4.245287e-05 -1.660668e-05 5.878616e-08
4.245277e-05 -1.660521e-05 -4.502778e-08
4.244501e-05 -1.660384e-05 5.958316e-08
4.244491e-05 -1.660277e-05 -4.565543e-08
4.243707e-05 -1.660097e-05 6.012908e-08
4.243698e-05 -1.660029e-05 -4.608629e-08
4.242908e-05 -1.659808e-05 6.042526e-08
4.242899e-05 -1.659778e-05 -4.632215e-08
4.242107e-05 -1.659517e-05 6.047344e-08
4.242097e-05 -1.659527e-05 -4.636535e-08
4.241307e-05 -1.659228e-05 6.027597e-08
4.241298e-05 -1.659276e-05 -4.621900e-08
4.240511e-05 -1.658939e-05 5.983611e-08
4.240502e-05 -1.659025e-05 -4.588729e-08
4.238938e-05 -1.658532e-05 -4.469183e-08
4.239723e-05 -1.658654e-05 5.915832e-08
4.238947e-05 -1.658373e-05 5.824877e-08
4.237430e-05 -1.658052e-05 -4.284662e-08
4.238184e-05 -1.658096e-05 5.711576e-08
4.237439e-05 -1.657826e-05 5.577034e-08
4.236714e-05 -1.657563e-05 5.422685e-08
4.236705e-05 -1.657819e-05 -4.171110e-08
4.236013e-05 -1.657308e-05 5.250316e-08
4.236004e-05 -1.657590e-05 -4.045372e-08
4.235338e-05 -1.657060e-05 5.062013e-08
4.235328e-05 -1.657366e-05 -3.908917e-08
4.234690e-05 -1.656820e-05 4.859921e-08
4.234681e-05 -1.657145e-05 -3.762740e-08
4.234071e-05 -1.656587e-05 4.646040e-08
4.234062e-05 -1.656930e-05 -3.607244e-08
4.233483e-05 -1.656364e-05 4.422382e-08
4.233474e-05 -1.656720e-05 -3.442869e-08
4.232927e-05 -1.656150e-05 4.191090e-08
4.232917e-05 -1.656516e-05 -3.270665e-08
4.232403e-05 -1.655948e-05 3.954215e-08
4.232393e-05 -1.656321e-05 -3.092112e-08
4.231912e-05 -1.655757e-05 3.713492e-08
4.231902e-05 -1.656135e-05 -2.908733e-08
4.231453e-05 -1.655578e-05 3.470298e-08
4.231442e-05 -1.655959e-05 -2.721888e-08
4.231025e-05 -1.655412e-05 3.225685e-08
4.231015e-05 -1.655794e-05 -2.532711e-08
4.230630e-05 -1.655257e-05 2.980432e-08
4.230620e-05 -1.655639e-05 -2.342099e-08
4.229925e-05 -1.655365e-05 -1.959143e-08
4.230267e-05 -1.655115e-05 2.735102e-08
4.229935e-05 -1.654985e-05 2.490095e-08
4.229355e-05 -1.655139e-05 -1.576601e-08
4.229635e-05 -1.654867e-05 2.245685e-08
4.229365e-05 -1.654761e-05 2.002056e-08
4.229127e-05 -1.654667e-05 1.759327e-08
4.229116e-05 -1.655043e-05 -1.386090e-08
4.228919e-05 -1.654585e-05 1.517566e-08
4.228909e-05 -1.654959e-05 -1.196257e-08
4.228742e-05 -1.654515e-05 1.276813e-08
4.228732e-05 -1.654888e-05 -1.007174e-08
4.228596e-05 -1.654457e-05 1.037083e-08
4.228585e-05 -1.654828e-05 -8.188776e-09
4.228480e-05 -1.654410e-05 7.983795e-09
4.228470e-05 -1.654780e-05 -6.313883e-09
4.228395e-05 -1.654376e-05 5.606956e-09
4.228384e-05 -1.654744e-05 -4.447099e-09
4.228339e-05 -1.654354e-05 3.240206e-09
4.228329e-05 -1.654720e-05 -2.588389e-09
4.228319e-05 -1.654344e-05 -1.463569e-09
4.228308e-05 -1.654707e-05 1.105175e-09
4.228314e-05 -1.654343e-05 8.834105e-10
4.228304e-05 -1.654708e-05 -7.376668e-10
4.228745e-05 -1.654705e-05 -1.981671e-09
4.228354e-05 -1.654357e-05 -3.800868e-09
4.228343e-05 -1.654718e-05 2.940255e-09
4.228501e-05 -1.654776e-05 6.587566e-09
4.228418e-05 -1.654381e-05 -6.128609e-09
4.228512e-05 -1.654417e-05 -8.446906e-09
4.228778e-05 -1.654879e-05 1.020506e-08
4.228636e-05 -1.654464e-05 -1.075586e-08
4.228789e-05 -1.654523e-05 -1.305555e-08
4.228971e-05 -1.654593e-05 -1.534605e-08
4.228960e-05 -1.654948e-05 1.200282e-08
4.229182e-05 -1.654675e-05 -1.762743e-08
4.229172e-05 -1.655028e-05 1.379335e-08
4.229423e-05 -1.654768e-05 -1.989974e-08
4.229412e-05 -1.655120e-05 1.557670e-08
4.229991e-05 -1.654988e-05 -2.441744e-08
4.229980e-05 -1.655337e-05 1.912216e-08
4.229692e-05 -1.654873e-05 -2.216306e-08
4.229682e-05 -1.655223e-05 1.735295e-08
4.230547e-05 -1.655393e-05 -1.947563e-08
4.230318e-05 -1.655115e-05 -2.666295e-08
4.230308e-05 -1.655463e-05 2.088443e-08
4.230674e-05 -1.655253e-05 -2.889969e-08
4.230664e-05 -1.655600e-05 2.263988e-08
4.231058e-05 -1.655403e-05 -3.112779e-08
4.231048e-05 -1.655748e-05 2.438869e-08
4.231471e-05 -1.655563e-05 -3.334745e-08
4.231461e-05 -1.655907e-05 2.613110e-08
4.231912e-05 -1.655735e-05 -3.555891e-08
4.231902e-05 -1.656077e-05 2.786746e-08
4.232869e-05 -1.656451e-05 3.132407e-08
4.232381e-05 -1.655917e-05 -3.776254e-08
4.232879e-05 -1.656111e-05 -3.995888e-08
4.233948e-05 -1.656870e-05 3.476468e-08
4.233404e-05 -1.656316e-05 -4.214862e-08
4.234539e-05 -1.656758e-05 -4.651261e-08
4.234530e-05 -1.657096e-05 3.648202e-08
4.233958e-05 -1.656531e-05 -4.433276e-08
4.235223e-05 -1.657207e-05 -3.633770e-08
4.235148e-05 -1.656995e-05 -4.868990e-08
4.235139e-05 -1.657333e-05 3.819964e-08
4.235784e-05 -1.657244e-05 -5.086683e-08
4.235775e-05 -1.657581e-05 3.991954e-08
4.236448e-05 -1.657503e-05 -5.304605e-08
4.236440e-05 -1.657842e-05 4.164381e-08
4.237140e-05 -1.657774e-05 -5.523052e-08
4.237132e-05 -1.658113e-05 4.337420e-08
4.237860e-05 -1.658056e-05 -5.742304e-08
4.237851e-05 -1.658397e-05 4.511158e-08
4.238607e-05 -1.658349e-05 -5.962632e-08
4.238599e-05 -1.658692e-05 4.685641e-08
4.239383e-05 -1.658654e-05 -6.184321e-08
4.239375e-05 -1.658999e-05 4.860974e-08
4.240186e-05 -1.658970e-05 -6.407664e-08
4.240179e-05 -1.659318e-05 5.037342e-08
4.241019e-05 -1.659297e-05 -6.632923e-08
4.241011e-05 -1.659649e-05 5.214957e-08
4.242764e-05 -1.660345e-05 5.574696e-08
4.241880e-05 -1.659636e-05 -6.860311e-08
4.242771e-05 -1.659986e-05 -7.089997e-08
4.244635e-05 -1.661089e-05 5.941444e-08
4.243691e-05 -1.660348e-05 -7.322108e-08
4.244641e-05 -1.660722e-05 -7.556742e-08
4.245622e-05 -1.661107e-05 -7.793968e-08
4.245615e-05 -1.661478e-05 6.127708e-08
4.246633e-05 -1.661505e-05 -8.033840e-08
4.246627e-05 -1.661880e-05 6.315991e-08
4.248750e-05 -1.662337e-05 -8.521664e-08
4.248744e-05 -1.662721e-05 6.698795e-08
4.247676e-05 -1.661914e-05 -8.276396e-08
4.247670e-05 -1.662294e-05 6.506342e-08
4.249739e-05 -1.662932e-05 -6.609889e-08
4.249856e-05 -1.662771e-05 -8.769666e-08
4.249851e-05 -1.663160e-05 6.893376e-08
4.250994e-05 -1.663218e-05 -9.020418e-08
4.250989e-05 -1.663611e-05 7.090106e-08
4.252165e-05 -1.663678e-05 -9.273934e-08
4.252161e-05 -1.664076e-05 7.288998e-08
4.253370e-05 -1.664151e-05 -9.530224e-08
4.253365e-05 -1.664553e-05 7.490065e-08
4.254607e-05 -1.664637e-05 -9.789301e-08
4.254603e-05 -1.665043e-05 7.693317e-08
4.255878e-05 -1.665136e-05 -1.005117e-07
4.255875e-05 -1.665547e-05 7.898766e-08
4.258521e-05 -1.666595e-05 8.316290e-08
4.257184e-05 -1.665649e-05 -1.031586e-07
4.258524e-05 -1.666175e-05 -1.058336e-07
4.261307e-05 -1.667697e-05 8.742726e-08
4.259899e-05 -1.666714e-05 -1.085369e-07
4.261309e-05 -1.667268e-05 -1.112687e-07
4.262755e-05 -1.667835e-05 -1.140291e-07
4.262754e-05 -1.668269e-05 8.959320e-08
4.264238e-05 -1.668417e-05 -1.168183e-07
4.264236e-05 -1.668855e-05 9.178184e-08
4.267312e-05 -1.669623e-05 -1.224840e-07
4.267312e-05 -1.670070e-05 9.622793e-08
4.265757e-05 -1.669012e-05 -1.196366e-07
4.265756e-05 -1.669455e-05 9.399336e-08
4.268617e-05 -1.670375e-05 -9.471716e-08
4.268906e-05 -1.670247e-05 -1.253609e-07
4.268906e-05 -1.670700e-05 9.848572e-08
4.270537e-05 -1.670887e-05 -1.282673e-07
4.270537e-05 -1.671344e-05 1.007669e-07
4.272206e-05 -1.671542e-05 -1.312036e-07
4.272207e-05 -1.672004e-05 1.030715e-07
4.273914e-05 -1.672211e-05 -1.341699e-07
4.273915e-05 -1.672678e-05 1.053995e-07
4.279276e-05 -1.674794e-05 1.125216e-07
4.275660e-05 -1.672896e-05 -1.371662e-07
4.275662e-05 -1.673368e-05 1.077509e-07
4.281139e-05 -1.675043e-05 -1.463324e-07
4.277447e-05 -1.673596e-05 -1.401923e-07
4.277449e-05 -1.674073e-05 1.101252e-07
4.279273e-05 -1.674312e-05 -1.432479e-07
4.281143e-05 -1.675530e-05 1.149389e-07
4.293213e-05 -1.679769e-05 -1.652974e-07
4.293221e-05 -1.680272e-05 1.296839e-07
4.295385e-05 -1.681114e-05 1.321128e-07
4.297584e-05 -1.681474e-05 -1.716309e-07
4.297593e-05 -1.681970e-05 1.344997e-07
4.295395e-05 -1.681117e-05 -1.321125e-07
4.340371e-05 -1.697868e-05 -2.008614e-07
4.340386e-05 -1.697830e-05 1.563790e-07
4.343044e-05 -1.698803e-05 1.560059e-07
4.345680e-05 -1.699896e-05 -1.996451e-07
4.345695e-05 -1.699774e-05 1.554192e-07
4.343055e-05 -1.698807e-05 -1.560018e-07
4.384271e-05 -1.714615e-05 -1.501743e-07
4.384347e-05 -1.714197e-05 -1.117934e-07
4.388162e-05 -1.716092e-05 -1.389593e-07
4.386267e-05 -1.714526e-05 -1.122742e-07
4.405953e-05 -1.722913e-05 -1.104532e-08
4.405939e-05 -1.721744e-05 9.443923e-09
4.406014e-05 -1.721820e-05 3.536270e-09
4.406001e-05 -1.722970e-05 3.982156e-09
4.405988e-05 -1.721859e-05 -2.239927e-09
4.406028e-05 -1.721825e-05 -3.539694e-09
4.394343e-05 -1.718723e-05 9.248599e-08
4.394337e-05 -1.718161e-05 -7.157657e-08
4.393064e-05 -1.717717e-05 -7.439468e-08
4.391750e-05 -1.717747e-05 9.944639e-08
4.391745e-05 -1.717255e-05 -7.703415e-08
4.393075e-05 -1.717721e-05 7.439012e-08
4.368527e-05 -1.708957e-05 1.229192e-07
4.367751e-05 -1.708678e-05 9.327588e-08
4.365254e-05 -1.707712e-05 1.224534e-07
4.365253e-05 -1.707778e-05 -9.531299e-08
4.366897e-05 -1.708378e-05 9.549058e-08
4.340898e-05 -1.698237e-05 1.075949e-07
4.340895e-05 -1.698389e-05 -8.444856e-08
4.338108e-05 -1.697144e-05 1.056545e-07
4.339504e-05 -1.697841e-05 8.368085e-08
4.318714e-05 -1.689540e-05 9.306137e-08
4.318710e-05 -1.689652e-05 -7.305337e-08
4.317504e-05 -1.689176e-05 -7.248992e-08
4.316310e-05 -1.688597e-05 9.163729e-08
4.316306e-05 -1.688704e-05 -7.193798e-08
4.317513e-05 -1.689180e-05 7.248946e-08
4.299374e-05 -1.681968e-05 8.224916e-08
4.299370e-05 -1.682068e-05 -6.439948e-08
4.298303e-05 -1.681659e-05 -6.385369e-08
4.297250e-05 -1.681144e-05 8.088449e-08
4.297246e-05 -1.681254e-05 -6.328891e-08
4.298312e-05 -1.681662e-05 6.385250e-08
4.281151e-05 -1.674923e-05 6.245017e-08
4.282813e-05 -1.675563e-05 6.531171e-08
4.282807e-05 -1.675777e-05 -5.103881e-08
4.281973e-05 -1.675239e-05 6.390426e-08
4.281145e-05 -1.675150e-05 -4.879460e-08
4.271939e-05 -1.671383e-05 3.718492e-08
4.271932e-05 -1.671713e-05 -2.896863e-08
4.271461e-05 -1.671540e-05 -2.728364e-08
4.271025e-05 -1.671035e-05 3.283793e-08
4.271026e-05 -1.671380e-05 2.556677e-08
4.271469e-05 -1.671542e-05 2.728230e-08
4.268019e-05 -1.669803e-05 3.588804e-10
4.268011e-05 -1.670049e-05 -9.223897e-10
4.268081e-05 -1.669799e-05 -2.539712e-09
4.268073e-05 -1.669999e-05 1.319672e-09
4.268041e-05 -1.670024e-05 -2.511314e-10
4.269492e-05 -1.670145e-05 -5.369563e-09
4.269484e-05 -1.670000e-05 3.529975e-09
4.269637e-05 -1.670172e-05 -3.233611e-09
4.269629e-05 -1.669977e-05 1.852692e-09
4.269572e-05 -1.669994e-05 -2.751716e-09
4.267970e-05 -1.669315e-05 2.946482e-08
4.267962e-05 -1.668782e-05 -2.373186e-08
4.267575e-05 -1.668599e-05 -2.638002e-08
4.267150e-05 -1.668970e-05 3.646919e-08
4.267142e-05 -1.668402e-05 -2.908727e-08
4.267584e-05 -1.668603e-05 2.638059e-08
4.256048e-05 -1.664866e-05 7.734986e-08
4.256045e-05 -1.664705e-05 -5.898634e-08
4.255003e-05 -1.664394e-05 -5.962299e-08
4.253957e-05 -1.664121e-05 7.862287e-08
4.253953e-05 -1.664080e-05 -5.996353e-08
4.255011e-05 -1.664396e-05 5.961559e-08
4.241267e-05 -1.659681e-05 4.343609e-08
4.241263e-05 -1.660505e-05 -3.237007e-08
4.240700e-05 -1.660385e-05 -2.807312e-08
4.240215e-05 -1.659345e-05 3.209959e-08
4.240210e-05 -1.660293e-05 -2.346534e-08
4.240706e-05 -1.660387e-05 2.806503e-08
4.243777e-05 -1.661225e-05 -9.082595e-08
4.243779e-05 -1.662992e-05 7.252992e-08
4.244987e-05 -1.663522e-05 8.117393e-08
4.246346e-05 -1.662273e-05 -1.136785e-07
4.246351e-05 -1.664096e-05 8.987645e-08
4.244991e-05 -1.663523e-05 -8.117625e-08
4.277658e-05 -1.673955e-05 -2.432361e-07
4.277694e-05 -1.675016e-05 1.879738e-07
4.280949e-05 -1.676121e-05 1.929183e-07
4.284243e-05 -1.676400e-05 -2.552298e-07
4.284283e-05 -1.677256e-05 1.973534e-07
4.280954e-05 -1.676123e-05 -1.929071e-07
4.334500e-05 -1.695171e-05 -2.635274e-07
4.338031e-05 -1.695750e-05 2.001435e-07
4.338040e-05 -1.695753e-05 -2.001321e-07
4.341427e-05 -1.697761e-05 -2.536743e-07
4.376149e-05 -1.710612e-05 -1.218023e-07
4.376148e-05 -1.708438e-05 9.328542e-08
4.377712e-05 -1.708939e-05 8.227133e-08
4.379076e-05 -1.711674e-05 -9.241426e-08
4.379070e-05 -1.709383e-05 7.105842e-08
4.377724e-05 -1.708944e-05 -8.226717e-08
4.378031e-05 -1.711687e-05 8.921956e-08
4.376710e-05 -1.709664e-05 -7.563018e-08
4.375261e-05 -1.710711e-05 1.097659e-07
4.375260e-05 -1.709246e-05 -8.343941e-08
4.376721e-05 -1.709668e-05 7.561930e-08
4.345473e-05 -1.699823e-05 1.832592e-07
4.345490e-05 -1.699700e-05 -1.411463e-07
4.343020e-05 -1.698884e-05 -1.416028e-07
4.340530e-05 -1.698002e-05 1.838003e-07
4.340547e-05 -1.698068e-05 -1.415755e-07
4.343027e-05 -1.698887e-05 1.415912e-07
4.311820e-05 -1.687497e-05 1.288849e-07
4.311828e-05 -1.688706e-05 -9.913721e-08
4.310159e-05 -1.688161e-05 -9.313550e-08
4.308599e-05 -1.686325e-05 1.125751e-07
4.308604e-05 -1.687646e-05 -8.690641e-08
4.310163e-05 -1.688163e-05 9.312867e-08
4.299498e-05 -1.682737e-05 5.810072e-09
4.299494e-05 -1.684022e-05 -5.368825e-09
4.299493e-05 -1.683977e-05 1.077889e-09
4.299601e-05 -1.682744e-05 -1.045419e-08
4.299598e-05 -1.683972e-05 7.387328e-09
4.299497e-05 -1.683978e-05 -1.075636e-09
4.309462e-05 -1.686367e-05 -9.825963e-08
4.309464e-05 -1.687228e-05 7.631318e-08
4.310796e-05 -1.687703e-05 8.061120e-08
4.312196e-05 -1.687400e-05 -1.090370e-07
4.312199e-05 -1.688205e-05 8.476717e-08
4.310801e-05 -1.687705e-05 -8.060851e-08
4.335807e-05 -1.696397e-05 -1.614776e-07
4.335819e-05 -1.696844e-05 1.258827e-07
4.337969e-05 -1.697640e-05 1.280527e-07
4.340143e-05 -1.698057e-05 -1.668318e-07
4.340156e-05 -1.698449e-05 1.300816e-07
4.337974e-05 -1.697641e-05 -1.280501e-07
4.370799e-05 -1.709829e-05 -1.842296e-07
4.370815e-05 -1.709870e-05 1.437183e-07
4.373265e-05 -1.710785e-05 1.437923e-07
4.375700e-05 -1.711714e-05 -1.842491e-07
4.375716e-05 -1.711701e-05 1.437269e-07
4.373271e-05 -1.710787e-05 -1.437899e-07
4.404375e-05 -1.722744e-05 -1.693046e-07
4.404387e-05 -1.722402e-05 1.319716e-07
4.406641e-05 -1.723241e-05 1.300685e-07
4.408851e-05 -1.724465e-05 -1.642740e-07
4.408862e-05 -1.724067e-05 1.280219e-07
4.406647e-05 -1.723243e-05 -1.300662e-07
4.433661e-05 -1.733978e-05 -1.136432e-07
4.433662e-05 -1.733219e-05 8.835417e-08
4.435166e-05 -1.733769e-05 8.434394e-08
4.436601e-05 -1.735101e-05 -1.031788e-07
4.436600e-05 -1.734294e-05 8.022091e-08
4.435174e-05 -1.733772e-05 -8.434239e-08
4.447687e-05 -1.739412e-05 -3.310402e-08
4.447680e-05 -1.738532e-05 2.614400e-08
4.448079e-05 -1.738700e-05 2.157634e-08
4.448408e-05 -1.739704e-05 -2.146418e-08
4.448401e-05 -1.738838e-05 1.704237e-08
4.448087e-05 -1.738703e-05 -2.157773e-08
4.446431e-05 -1.738990e-05 4.372872e-08
4.446426e-05 -1.738227e-05 -3.403479e-08
4.445799e-05 -1.737995e-05 -3.799669e-08
4.445110e-05 -1.738482e-05 5.378220e-08
4.445105e-05 -1.737737e-05 -4.191273e-08
4.445806e-05 -1.737998e-05 3.799504e-08
4.431826e-05 -1.733336e-05 1.091458e-07
4.431827e-05 -1.732700e-05 -8.530298e-08
4.430333e-05 -1.732129e-05 -8.860476e-08
4.428782e-05 -1.732154e-05 1.175194e-07
4.428784e-05 -1.731538e-05 -9.184981e-08
4.430340e-05 -1.732132e-05 8.860283e-08
4.404083e-05 -1.722668e-05 1.603240e-07
4.404095e-05 -1.722382e-05 -1.244625e-07
4.401921e-05 -1.721603e-05 -1.258368e-07
4.399713e-05 -1.721012e-05 1.636135e-07
4.399726e-05 -1.720817e-05 -1.269892e-07
4.401926e-05 -1.721605e-05 1.258314e-07
4.373244e-05 -1.711002e-05 1.572508e-07
4.373257e-05 -1.711378e-05 -1.220165e-07
4.371167e-05 -1.710637e-05 -1.200070e-07
4.369103e-05 -1.709441e-05 1.518054e-07
4.369115e-05 -1.709911e-05 -1.177530e-07
4.371171e-05 -1.710638e-05 1.200008e-07
4.348814e-05 -1.701865e-05 9.308364e-08
4.348818e-05 -1.702900e-05 -7.169174e-08
4.347609e-05 -1.702504e-05 -6.628126e-08
4.346489e-05 -1.701014e-05 7.897864e-08
4.346491e-05 -1.702143e-05 -6.063845e-08
4.347611e-05 -1.702505e-05 6.627542e-08
4.341750e-05 -1.699329e-05 -2.419649e-08
4.341749e-05 -1.700675e-05 1.787833e-08
4.342152e-05 -1.700759e-05 2.433121e-08
4.342674e-05 -1.699619e-05 -4.115931e-08
4.342674e-05 -1.700875e-05 3.061600e-08
4.342153e-05 -1.700760e-05 -2.432739e-08
4.355789e-05 -1.704175e-05 -1.051872e-07
4.355794e-05 -1.704517e-05 8.025551e-08
4.357245e-05 -1.704953e-05 8.178284e-08
4.358714e-05 -1.705220e-05 -1.085409e-07
4.358719e-05 -1.705398e-05 8.288844e-08
4.357249e-05 -1.704954e-05 -8.177410e-08
4.374384e-05 -1.710814e-05 -8.841484e-08
4.374385e-05 -1.710084e-05 6.707708e-08
4.375574e-05 -1.710418e-05 6.308288e-08
4.376695e-05 -1.711622e-05 -7.769584e-08
4.376694e-05 -1.710725e-05 5.866090e-08
4.375580e-05 -1.710420e-05 -6.307428e-08
4.382000e-05 -1.713158e-05 3.049158e-08
4.381994e-05 -1.711389e-05 -2.508692e-08
4.381535e-05 -1.711152e-05 -3.384317e-08
4.380915e-05 -1.712685e-05 5.402715e-08
4.380909e-05 -1.710876e-05 -4.262921e-08
4.381542e-05 -1.711155e-05 3.384430e-08
4.361372e-05 -1.705477e-05 1.757375e-07
4.361388e-05 -1.704399e-05 -1.352816e-07
4.358966e-05 -1.703593e-05 -1.406468e-07
4.356440e-05 -1.703649e-05 1.888219e-07
4.356459e-05 -1.702755e-05 -1.455489e-07
4.358971e-05 -1.703596e-05 1.406363e-07
4.325567e-05 -1.692150e-05 2.181960e-07
4.325597e-05 -1.692258e-05 -1.686870e-07
4.322695e-05 -1.691266e-05 -1.680144e-07
4.319780e-05 -1.689994e-05 2.158849e-07
4.319809e-05 -1.690282e-05 -1.668840e-07
4.322698e-05 -1.691267e-05 1.680033e-07
4.289195e-05 -1.678693e-05 1.537673e-07
4.289211e-05 -1.680025e-05 -1.183317e-07
4.287220e-05 -1.679376e-05 -1.115721e-07
4.285337e-05 -1.677288e-05 1.357974e-07
4.285350e-05 -1.678768e-05 -1.044842e-07
4.287220e-05 -1.679376e-05 1.115638e-07
4.273945e-05 -1.672850e-05 1.179377e-08
4.273945e-05 -1.674317e-05 -1.108853e-08
4.273900e-05 -1.674196e-05 -3.947322e-09
4.273973e-05 -1.672781e-05 -6.193978e-09
4.273973e-05 -1.674117e-05 2.897913e-09
4.273900e-05 -1.674196e-05 3.953080e-09
4.280796e-05 -1.674974e-05 -7.308876e-08
4.280798e-05 -1.675527e-05 5.536625e-08
4.281812e-05 -1.675808e-05 5.797125e-08
4.282863e-05 -1.675696e-05 -7.926384e-08
4.282866e-05 -1.676105e-05 6.021296e-08
4.281814e-05 -1.675809e-05 -5.796346e-08
4.295407e-05 -1.680128e-05 -8.010324e-08
4.295409e-05 -1.679746e-05 6.083461e-08
4.296479e-05 -1.680050e-05 5.870489e-08
4.297512e-05 -1.680868e-05 -7.421198e-08
4.297513e-05 -1.680340e-05 5.621627e-08
4.296483e-05 -1.680051e-05 -5.869758e-08
4.304749e-05 -1.683324e-05 -5.219294e-09
4.304745e-05 -1.682203e-05 4.044811e-09
4.304688e-05 -1.683317e-05 9.228982e-09
4.304684e-05 -1.682202e-05 -6.766603e-09
4.304769e-05 -1.682217e-05 1.342275e-09
4.297926e-05 -1.680884e-05 7.748362e-08
4.297926e-05 -1.680118e-05 -5.973290e-08
4.296863e-05 -1.679761e-05 -6.353438e-08
4.295738e-05 -1.680070e-05 8.692421e-08
4.295740e-05 -1.679380e-05 -6.714567e-08
4.296867e-05 -1.679762e-05 6.352946e-08
4.280268e-05 -1.674253e-05 1.215511e-07
4.279178e-05 -1.673699e-05 9.277932e-08
4.277034e-05 -1.673031e-05 1.247246e-07
4.278671e-05 -1.673406e-05 9.566992e-08
4.257084e-05 -1.665486e-05 1.240663e-07
4.257093e-05 -1.665709e-05 -9.646389e-08
4.255488e-05 -1.665131e-05 -9.536489e-08
4.253896e-05 -1.664277e-05 1.209293e-07
4.253905e-05 -1.664557e-05 -9.414126e-08
4.255489e-05 -1.665131e-05 9.536109e-08
4.236062e-05 -1.657386e-05 9.045312e-08
4.238445e-05 -1.658313e-05 9.566034e-08
4.238450e-05 -1.658722e-05 -7.499419e-08
4.237242e-05 -1.658256e-05 7.296447e-08
4.237236e-05 -1.657843e-05 9.306691e-08
4.223938e-05 -1.652673e-05 5.491186e-08
4.225414e-05 -1.653246e-05 6.056634e-08
4.224659e-05 -1.653398e-05 -4.524517e-08
4.224658e-05 -1.652953e-05 5.774785e-08
4.223939e-05 -1.653121e-05 -4.301860e-08
4.224660e-05 -1.653398e-05 4.524412e-08
4.218461e-05 -1.650553e-05 2.252204e-08
4.218461e-05 -1.651032e-05 -1.758985e-08
4.218191e-05 -1.650931e-05 -1.519888e-08
4.217960e-05 -1.650360e-05 1.640539e-08
4.217960e-05 -1.650845e-05 -1.279975e-08
4.218191e-05 -1.650931e-05 1.519807e-08
4.218560e-05 -1.650530e-05 -2.136842e-08
4.218049e-05 -1.650359e-05 -1.636759e-08
4.218049e-05 -1.650775e-05 1.227271e-08
4.218288e-05 -1.650439e-05 -1.893560e-08
4.218560e-05 -1.650903e-05 -1.607634e-08
4.223114e-05 -1.652126e-05 -3.708401e-08
4.223114e-05 -1.652196e-05 2.829830e-08
4.223609e-05 -1.652343e-05 2.857454e-08
4.224107e-05 -1.652480e-05 -3.760346e-08
4.224107e-05 -1.652492e-05 2.870708e-08
4.223610e-05 -1.652344e-05 -2.857182e-08
4.229138e-05 -1.654258e-05 -2.733574e-08
4.229137e-05 -1.653952e-05 2.063014e-08
4.229493e-05 -1.654045e-05 1.902353e-08
4.229824e-05 -1.654492e-05 -2.306724e-08
4.229823e-05 -1.654127e-05 1.727122e-08
4.229495e-05 -1.654045e-05 -1.902083e-08
4.230980e-05 -1.654779e-05 1.269299e-08
4.230978e-05 -1.654157e-05 -1.022816e-08
4.230794e-05 -1.654080e-05 -1.305481e-08
4.230554e-05 -1.654605e-05 2.049255e-08
4.230552e-05 -1.653995e-05 -1.578180e-08
4.230796e-05 -1.654080e-05 1.305243e-08
4.225018e-05 -1.652940e-05 4.108812e-08
4.225019e-05 -1.653120e-05 -2.924261e-08
4.224431e-05 -1.653060e-05 -2.804805e-08
4.223865e-05 -1.652618e-05 3.742214e-08
4.223866e-05 -1.653011e-05 -2.633519e-08
4.224431e-05 -1.653060e-05 2.803529e-08
4.221709e-05 -1.652511e-05 -3.260334e-08
4.221713e-05 -1.654146e-05 2.908108e-08
4.222107e-05 -1.654503e-05 3.781220e-08
4.222629e-05 -1.653013e-05 -5.513161e-08
4.222634e-05 -1.654923e-05 4.729762e-08
4.222103e-05 -1.654502e-05 -3.783298e-08
4.239084e-05 -1.660153e-05 -2.623699e-07
4.239132e-05 -1.664777e-05 2.218665e-07
4.244678e-05 -1.662195e-05 -3.163418e-07
4.244749e-05 -1.667159e-05 2.633146e-07
4.241783e-05 -1.665992e-05 -2.430660e-07
4.247954e-05 -1.668050e-05 -2.796118e-07
4.223298e-05 -1.655408e-05 -5.762462e-08
4.223333e-05 -1.652975e-05 2.408100e-08
4.230255e-05 -1.653908e-05 1.835458e-08
4.230124e-05 -1.654199e-05 -1.537140e-08
4.224606e-05 -1.652641e-05 -2.869300e-08
4.218864e-05 -1.650982e-05 1.783267e-08
4.217769e-05 -1.650773e-05 1.039515e-08
4.223256e-05 -1.652859e-05 4.077704e-08
4.234925e-05 -1.657360e-05 -6.885413e-08
4.252348e-05 -1.663989e-05 9.280242e-08
4.275402e-05 -1.672245e-05 9.778693e-08
4.294562e-05 -1.678978e-05 7.056146e-08
4.304508e-05 -1.682163e-05 1.218223e-08
4.298506e-05 -1.680616e-05 -5.336691e-08
4.283956e-05 -1.676416e-05 -6.208353e-08
4.274157e-05 -1.674079e-05 -9.418876e-09
4.283607e-05 -1.678199e-05 9.710521e-08
4.316951e-05 -1.689307e-05 1.652855e-07
4.353882e-05 -1.701890e-05 1.499738e-07
4.380123e-05 -1.710565e-05 5.140240e-08
4.377742e-05 -1.711004e-05 -5.380333e-08
4.360211e-05 -1.705850e-05 -8.356298e-08
4.343311e-05 -1.701022e-05 -3.667597e-08
4.345473e-05 -1.701819e-05 5.476505e-08
4.367106e-05 -1.709202e-05 1.152484e-07
4.397518e-05 -1.720028e-05 1.279058e-07
4.427187e-05 -1.730928e-05 9.503069e-08
4.444351e-05 -1.737455e-05 4.578125e-08
4.448651e-05 -1.738949e-05 -1.254746e-08
4.437968e-05 -1.734795e-05 -7.599580e-08
4.411056e-05 -1.724882e-05 -1.258291e-07
4.378173e-05 -1.712619e-05 -1.435196e-07
4.342381e-05 -1.699274e-05 -1.319673e-07
4.313675e-05 -1.688736e-05 -8.877853e-08
4.299809e-05 -1.684009e-05 -1.355312e-08
4.307171e-05 -1.687159e-05 8.048587e-08
4.338087e-05 -1.697256e-05 1.410540e-07
4.373693e-05 -1.708783e-05 9.074868e-08
4.380229e-05 -1.709776e-05 -5.972486e-08
4.344831e-05 -1.698074e-05 -1.912748e-07
4.287695e-05 -1.678421e-05 -2.012600e-07
4.247877e-05 -1.664712e-05 -9.857465e-08
4.239803e-05 -1.660233e-05 1.853835e-08
4.252908e-05 -1.663770e-05 5.999460e-08
4.266668e-05 -1.668195e-05 3.182918e-08
4.269687e-05 -1.669960e-05 -8.238567e-10
4.268139e-05 -1.669986e-05 -2.270973e-09
4.280351e-05 -1.674851e-05 4.761585e-08
4.296206e-05 -1.680856e-05 6.270013e-08
4.315128e-05 -1.688240e-05 7.139691e-08
4.336740e-05 -1.696753e-05 8.218263e-08
4.363637e-05 -1.707184e-05 9.502291e-08
4.390394e-05 -1.716780e-05 7.949052e-08
4.405877e-05 -1.721866e-05 7.866134e-09
4.390007e-05 -1.715859e-05 -1.030461e-07
4.348348e-05 -1.700746e-05 -1.546141e-07
4.299855e-05 -1.682841e-05 -1.368262e-07
4.283061e-05 -1.676285e-05 -1.173760e-07
4.278903e-05 -1.674423e-05 -1.083206e-07
4.277090e-05 -1.673710e-05 -1.059965e-07
4.275318e-05 -1.673013e-05 -1.036948e-07
4.273585e-05 -1.672331e-05 -1.014159e-07
4.271891e-05 -1.671664e-05 -9.915997e-08
4.270235e-05 -1.671012e-05 -9.692710e-08
4.267322e-05 -1.670074e-05 -9.622908e-08
4.267037e-05 -1.669753e-05 -9.253000e-08
4.261317e-05 -1.667700e-05 -8.742841e-08
4.265495e-05 -1.669145e-05 -9.036546e-08
4.259896e-05 -1.667139e-05 8.528387e-08
4.263989e-05 -1.668552e-05 -8.822334e-08
4.262519e-05 -1.667973e-05 -8.610348e-08
4.258531e-05 -1.666598e-05 -8.316404e-08
4.257180e-05 -1.666064e-05 8.106419e-08
4.261086e-05 -1.667408e-05 -8.400570e-08
4.259688e-05 -1.666857e-05 -8.192986e-08
4.258325e-05 -1.666320e-05 -7.987582e-08
4.256997e-05 -1.665797e-05 -7.784346e-08
4.255704e-05 -1.665286e-05 -7.583268e-08
4.254445e-05 -1.664790e-05 -7.384336e-08
4.253219e-05 -1.664306e-05 -7.187543e-08
4.252026e-05 -1.663835e-05 -6.992877e-08
4.250867e-05 -1.663377e-05 -6.800330e-08
4.248755e-05 -1.662725e-05 -6.698908e-08
4.248644e-05 -1.662500e-05 -6.421537e-08
4.244645e-05 -1.661092e-05 -5.941553e-08
4.247581e-05 -1.662079e-05 -6.235256e-08
4.243684e-05 -1.660711e-05 5.757135e-08
4.246549e-05 -1.661672e-05 -6.051017e-08
4.245548e-05 -1.661276e-05 -5.868784e-08
4.242774e-05 -1.660349e-05 -5.574801e-08
4.241873e-05 -1.659991e-05 5.394017e-08
4.244578e-05 -1.660892e-05 -5.688506e-08
4.243638e-05 -1.660520e-05 -5.510116e-08
4.242728e-05 -1.660161e-05 -5.333526e-08
4.241847e-05 -1.659812e-05 -5.158624e-08
4.240996e-05 -1.659476e-05 -4.985267e-08
4.240174e-05 -1.659151e-05 -4.813291e-08
4.239382e-05 -1.658838e-05 -4.642508e-08
4.238617e-05 -1.658537e-05 -4.472733e-08
4.237882e-05 -1.658247e-05 -4.303800e-08
4.237175e-05 -1.657970e-05 -4.135579e-08
4.236496e-05 -1.657704e-05 -3.967943e-08
4.233959e-05 -1.656873e-05 -3.476531e-08
4.235845e-05 -1.657450e-05 -3.800734e-08
4.233395e-05 -1.656655e-05 3.304584e-08
4.234540e-05 -1.657099e-05 -3.648268e-08
4.234629e-05 -1.656976e-05 -3.466862e-08
4.232880e-05 -1.656455e-05 -3.132465e-08
4.232372e-05 -1.656259e-05 2.959823e-08
4.234062e-05 -1.656755e-05 -3.299843e-08
4.233524e-05 -1.656546e-05 -3.132569e-08
4.233014e-05 -1.656348e-05 -2.964925e-08
4.232532e-05 -1.656161e-05 -2.796821e-08
4.232078e-05 -1.655985e-05 -2.628188e-08
4.231653e-05 -1.655820e-05 -2.458977e-08
4.231256e-05 -1.655667e-05 -2.289152e-08
4.230887e-05 -1.655524e-05 -2.118687e-08
4.229991e-05 -1.655341e-05 -1.912267e-08
4.230236e-05 -1.655273e-05 -1.775767e-08
4.229954e-05 -1.655164e-05 -1.603290e-08
4.228789e-05 -1.654883e-05 -1.020556e-08
4.229700e-05 -1.655067e-05 -1.430124e-08
4.228625e-05 -1.654822e-05 8.399997e-09
4.229476e-05 -1.654981e-05 -1.256264e-08
4.229281e-05 -1.654906e-05 -1.081704e-08
4.228512e-05 -1.654779e-05 -6.588067e-09
4.228407e-05 -1.654741e-05 4.767684e-09
4.229114e-05 -1.654843e-05 -9.064380e-09
4.228978e-05 -1.654791e-05 -7.304592e-09
4.228871e-05 -1.654751e-05 -5.537604e-09
4.228793e-05 -1.654722e-05 -3.763329e-09
4.228319e-05 -1.654711e-05 -1.105673e-09
4.228727e-05 -1.654700e-05 -1.925125e-10
4.228739e-05 -1.654707e-05 1.604260e-09
4.228781e-05 -1.654725e-05 3.408770e-09
4.228854e-05 -1.654755e-05 5.221132e-09
4.228956e-05 -1.654797e-05 7.041431e-09
4.229089e-05 -1.654850e-05 8.869700e-09
4.229365e-05 -1.655142e-05 1.576538e-08
4.229253e-05 -1.654916e-05 1.070588e-08
4.229624e-05 -1.655246e-05 -1.767678e-08
4.229447e-05 -1.654994e-05 1.254977e-08
4.229673e-05 -1.655083e-05 1.440093e-08
4.229936e-05 -1.655369e-05 1.959066e-08
4.230257e-05 -1.655497e-05 -2.150740e-08
4.229929e-05 -1.655185e-05 1.625860e-08
4.230216e-05 -1.655298e-05 1.812154e-08
4.230534e-05 -1.655424e-05 1.998787e-08
4.230884e-05 -1.655561e-05 2.185483e-08
4.231265e-05 -1.655710e-05 2.371851e-08
4.231676e-05 -1.655871e-05 2.557359e-08
4.232119e-05 -1.656042e-05 2.741299e-08
4.232592e-05 -1.656224e-05 2.922761e-08
4.233095e-05 -1.656416e-05 3.100633e-08
4.233628e-05 -1.656617e-05 3.273625e-08
4.234189e-05 -1.656825e-05 3.440362e-08
4.234776e-05 -1.657039e-05 3.599559e-08
4.235389e-05 -1.657257e-05 3.750167e-08
4.237441e-05 -1.658056e-05 4.284257e-08
4.236025e-05 -1.657480e-05 3.891290e-08
4.238175e-05 -1.658290e-05 -4.384486e-08
4.236684e-05 -1.657706e-05 4.021900e-08
4.237363e-05 -1.657937e-05 4.140723e-08
4.238949e-05 -1.658536e-05 4.468733e-08
4.239714e-05 -1.658777e-05 -4.537579e-08
4.238061e-05 -1.658172e-05 4.246374e-08
4.238775e-05 -1.658412e-05 4.337536e-08
4.239504e-05 -1.658656e-05 4.413059e-08
4.240244e-05 -1.658904e-05 4.471994e-08
4.240992e-05 -1.659154e-05 4.513590e-08
4.241747e-05 -1.659405e-05 4.537269e-08
4.242503e-05 -1.659658e-05 4.542595e-08
4.243259e-05 -1.659910e-05 4.529246e-08
4.244011e-05 -1.660160e-05 4.496979e-08
4.244757e-05 -1.660407e-05 4.445612e-08
4.245492e-05 -1.660650e-05 4.375001e-08
4.248282e-05 -1.661443e-05 4.051738e-08
4.246214e-05 -1.660888e-05 4.285025e-08
4.248964e-05 -1.661647e-05 -3.889230e-08
4.246919e-05 -1.661119e-05 4.175576e-08
4.247604e-05 -1.661343e-05 4.046547e-08
4.249645e-05 -1.661849e-05 3.705247e-08
4.250268e-05 -1.662029e-05 -3.501874e-08
4.248267e-05 -1.661557e-05 3.897832e-08
4.248902e-05 -1.661761e-05 3.729320e-08
4.249509e-05 -1.661953e-05 3.540904e-08
4.250082e-05 -1.662133e-05 3.332491e-08
4.250619e-05 -1.662298e-05 3.104018e-08
4.251116e-05 -1.662447e-05 2.855487e-08
4.251570e-05 -1.662581e-05 2.587007e-08
4.251979e-05 -1.662696e-05 2.298861e-08
4.252338e-05 -1.662793e-05 1.991600e-08
4.252645e-05 -1.662871e-05 1.666168e-08
4.252896e-05 -1.662929e-05 1.324069e-08
4.254309e-05 -1.662981e-05 2.803116e-10
4.253090e-05 -1.662967e-05 9.675902e-09
4.254296e-05 -1.662959e-05 3.443878e-09
4.253224e-05 -1.662985e-05 6.000757e-09
4.253295e-05 -1.662986e-05 2.262772e-09
4.254233e-05 -1.662940e-05 -6.980621e-09
4.254056e-05 -1.662905e-05 1.021057e-08
4.253304e-05 -1.662970e-05 -1.472383e-09
4.253250e-05 -1.662940e-05 -5.116260e-09
4.253134e-05 -1.662901e-05 -8.552886e-09
4.252961e-05 -1.662860e-05 -1.163477e-08
4.252735e-05 -1.662826e-05 -1.418129e-08
4.252468e-05 -1.662812e-05 -1.598196e-08
4.252174e-05 -1.662838e-05 -1.681226e-08
4.251877e-05 -1.662931e-05 -1.649070e-08
4.251693e-05 -1.663131e-05 -1.450589e-08
4.251283e-05 -1.663854e-05 -7.414221e-09
4.251462e-05 -1.663426e-05 -1.169017e-08
4.251524e-05 -1.664214e-05 2.451402e-10
4.251703e-05 -1.665106e-05 7.065226e-12
4.251473e-05 -1.664835e-05 2.937364e-09
4.251606e-05 -1.664886e-05 -2.524461e-10
4.252900e-05 -1.665868e-05 -1.074829e-09
4.252515e-05 -1.665260e-05 5.827957e-10
4.251509e-05 -1.663532e-05 -3.070101e-09
4.252740e-05 -1.665427e-05 -3.525025e-11
4.250548e-05 -1.663684e-05 6.290853e-09
4.252542e-05 -1.665696e-05 -2.392639e-09
4.252383e-05 -1.665237e-05 -3.263567e-09
4.249587e-05 -1.664109e-05 -9.397897e-11
4.251595e-05 -1.664817e-05 -2.183407e-09
4.285000e-05 -1.677049e-05 1.198274e-07
4.280755e-05 -1.675151e-05 -1.106663e-07
4.278905e-05 -1.674775e-05 7.784541e-08
4.287001e-05 -1.677835e-05 -1.222920e-07
4.282648e-05 -1.675895e-05 -1.130321e-07
4.280757e-05 -1.675507e-05 7.952596e-08
4.289025e-05 -1.678630e-05 1.247613e-07
4.284582e-05 -1.676655e-05 -1.154161e-07
4.282651e-05 -1.676254e-05 8.121902e-08
4.294208e-05 -1.680852e-05 -5.340437e-08
4.291111e-05 -1.679447e-05 -1.272291e-07
4.286557e-05 -1.677430e-05 -1.178149e-07
4.284585e-05 -1.677017e-05 8.292221e-08
4.288574e-05 -1.678221e-05 -1.202241e-07
4.251187e-05 -1.663810e-05 7.038677e-09
4.294874e-05 -1.680686e-05 -1.274415e-07
4.296361e-05 -1.681467e-05 -8.878727e-08
4.290632e-05 -1.679028e-05 -1.226375e-07
4.251898e-05 -1.664293e-05 2.738718e-09
4.251488e-05 -1.663429e-05 1.145931e-08
4.251987e-05 -1.663770e-05 5.327256e-09
4.251700e-05 -1.663123e-05 1.439040e-08
4.302152e-05 -1.683719e-05 -1.390767e-07
4.297058e-05 -1.681536e-05 -1.298083e-07
4.251868e-05 -1.663068e-05 6.194754e-09
4.251867e-05 -1.662922e-05 1.641895e-08
4.304491e-05 -1.684607e-05 -1.412399e-07
4.299282e-05 -1.682399e-05 -1.321322e-07
4.252162e-05 -1.662830e-05 1.680448e-08
4.306873e-05 -1.685503e-05 -1.433112e-07
4.301546e-05 -1.683274e-05 -1.343972e-07
4.252456e-05 -1.662805e-05 1.598363e-08
4.309294e-05 -1.686408e-05 -1.452848e-07
4.303848e-05 -1.684158e-05 -1.365889e-07
4.252723e-05 -1.662820e-05 1.418722e-08
4.311753e-05 -1.687321e-05 -1.471475e-07
4.306187e-05 -1.685050e-05 -1.386954e-07
4.252949e-05 -1.662406e-05 7.092311e-09
4.252949e-05 -1.662855e-05 1.164206e-08
4.314247e-05 -1.688243e-05 -1.488818e-07
4.308562e-05 -1.685950e-05 -1.407062e-07
4.253123e-05 -1.662383e-05 5.505017e-09
4.253123e-05 -1.662896e-05 8.559481e-09
4.316764e-05 -1.689170e-05 1.504729e-07
4.310970e-05 -1.686859e-05 -1.426087e-07
4.308571e-05 -1.686252e-05 1.004701e-07
4.253238e-05 -1.662383e-05 3.508265e-09
4.253238e-05 -1.662935e-05 5.121170e-09
4.319330e-05 -1.690113e-05 -1.518958e-07
4.313411e-05 -1.687776e-05 -1.443875e-07
4.310980e-05 -1.687143e-05 1.017570e-07
4.253293e-05 -1.662965e-05 1.475307e-09
4.321901e-05 -1.691057e-05 1.531502e-07
4.315883e-05 -1.688703e-05 -1.460265e-07
4.313421e-05 -1.688041e-05 1.029670e-07
4.253284e-05 -1.662981e-05 -2.261762e-09
4.324515e-05 -1.692015e-05 -1.542120e-07
4.318382e-05 -1.689638e-05 -1.475105e-07
4.315893e-05 -1.688945e-05 1.040892e-07
4.253213e-05 -1.662981e-05 -6.001416e-09
4.327136e-05 -1.692976e-05 -1.550837e-07
4.320907e-05 -1.690582e-05 -1.488266e-07
4.253079e-05 -1.662962e-05 -9.677934e-09
4.329773e-05 -1.693942e-05 -1.557558e-07
4.323455e-05 -1.691533e-05 -1.499644e-07
4.252886e-05 -1.662393e-05 -8.730601e-09
4.252886e-05 -1.662924e-05 -1.324380e-08
4.332421e-05 -1.694912e-05 -1.562238e-07
4.326021e-05 -1.692492e-05 -1.509154e-07
4.252634e-05 -1.662866e-05 -1.666560e-08
4.335077e-05 -1.695885e-05 -1.564845e-07
4.328604e-05 -1.693456e-05 -1.516733e-07
4.252328e-05 -1.662788e-05 -1.992052e-08
4.331200e-05 -1.694425e-05 -1.522336e-07
4.251969e-05 -1.662692e-05 -2.299355e-08
4.333805e-05 -1.695397e-05 -1.525926e-07
4.337737e-05 -1.696859e-05 -1.565354e-07
4.251560e-05 -1.662576e-05 -2.587530e-08
4.341642e-05 -1.698323e-05 -1.524408e-07
4.336416e-05 -1.696372e-05 -1.527479e-07
4.340325e-05 -1.697795e-05 -6.378522e-08
4.251106e-05 -1.662443e-05 -2.856029e-08
4.250609e-05 -1.662294e-05 -3.104571e-08
4.350976e-05 -1.701707e-05 -1.535982e-07
4.344250e-05 -1.699297e-05 -1.519760e-07
4.250073e-05 -1.661801e-05 -2.309446e-08
4.250072e-05 -1.662129e-05 -3.333050e-08
4.353587e-05 -1.702663e-05 -1.523670e-07
4.346850e-05 -1.700267e-05 -1.513028e-07
4.344261e-05 -1.699222e-05 1.081993e-07
4.249500e-05 -1.661652e-05 -2.459807e-08
4.249499e-05 -1.661949e-05 -3.541466e-08
4.356165e-05 -1.703606e-05 1.509241e-07
4.349438e-05 -1.701233e-05 -1.504205e-07
4.346861e-05 -1.700162e-05 1.077137e-07
4.248894e-05 -1.661490e-05 -2.595751e-08
4.248893e-05 -1.661757e-05 -3.729882e-08
4.358742e-05 -1.704547e-05 -1.492568e-07
4.352011e-05 -1.702193e-05 -1.493287e-07
4.349448e-05 -1.701097e-05 1.070781e-07
4.248257e-05 -1.661553e-05 -3.898393e-08
4.361267e-05 -1.705470e-05 1.473810e-07
4.354564e-05 -1.703145e-05 -1.480268e-07
4.247595e-05 -1.661339e-05 -4.047107e-08
4.363784e-05 -1.706388e-05 -1.452800e-07
4.357095e-05 -1.704089e-05 -1.465146e-07
4.354574e-05 -1.702947e-05 1.053558e-07
4.246910e-05 -1.661115e-05 -4.176133e-08
4.366254e-05 -1.707289e-05 -1.429654e-07
4.359600e-05 -1.705022e-05 -1.447915e-07
4.246204e-05 -1.660884e-05 -4.285579e-08
4.368685e-05 -1.708174e-05 -1.404328e-07
4.362074e-05 -1.705944e-05 -1.428572e-07
4.245484e-05 -1.660527e-05 -3.061395e-08
4.245483e-05 -1.660646e-05 -4.375551e-08
4.371072e-05 -1.709042e-05 -1.376816e-07
4.364515e-05 -1.706853e-05 -1.407111e-07
4.244748e-05 -1.660403e-05 -4.446159e-08
4.373413e-05 -1.709892e-05 -1.347114e-07
4.366918e-05 -1.707747e-05 -1.383528e-07
4.244002e-05 -1.660156e-05 -4.497521e-08
4.375704e-05 -1.710722e-05 -1.315218e-07
4.369280e-05 -1.708625e-05 -1.357818e-07
4.243250e-05 -1.659906e-05 -4.529782e-08
4.377940e-05 -1.711531e-05 -1.281122e-07
4.371598e-05 -1.709485e-05 -1.329976e-07
4.242494e-05 -1.659654e-05 -4.543124e-08
4.380118e-05 -1.712318e-05 -1.244826e-07
4.373866e-05 -1.710327e-05 -1.299997e-07
4.241738e-05 -1.659402e-05 -4.537788e-08
4.382235e-05 -1.713080e-05 -1.206328e-07
4.376082e-05 -1.711148e-05 -1.267877e-07
4.240984e-05 -1.659150e-05 -4.514097e-08
4.378242e-05 -1.711947e-05 -1.233612e-07
4.240237e-05 -1.658979e-05 -3.135685e-08
4.240235e-05 -1.658900e-05 -4.472487e-08
4.384286e-05 -1.713816e-05 -1.165630e-07
4.380342e-05 -1.712722e-05 -1.197199e-07
4.384273e-05 -1.713812e-05 1.165669e-07
4.378246e-05 -1.711435e-05 8.763454e-08
4.382378e-05 -1.713473e-05 -1.158638e-07
4.382752e-05 -1.712901e-05 -4.735943e-08
4.239497e-05 -1.658757e-05 -3.095470e-08
4.239496e-05 -1.658653e-05 -4.413535e-08
4.238769e-05 -1.658538e-05 -3.044111e-08
4.238767e-05 -1.658409e-05 -4.337992e-08
4.391744e-05 -1.716474e-05 9.811679e-08
4.386244e-05 -1.714894e-05 -1.075094e-07
4.388162e-05 -1.715202e-05 1.077714e-07
4.238053e-05 -1.658169e-05 -4.246806e-08
4.393422e-05 -1.717067e-05 -9.297540e-08
4.388066e-05 -1.715561e-05 -1.030135e-07
4.386244e-05 -1.714256e-05 7.626176e-08
4.237355e-05 -1.657933e-05 -4.141129e-08
4.394998e-05 -1.717622e-05 -8.764069e-08
4.389809e-05 -1.716198e-05 -9.830857e-08
4.236676e-05 -1.657702e-05 -4.022278e-08
4.396482e-05 -1.718143e-05 -8.212098e-08
4.391469e-05 -1.716803e-05 -9.339884e-08
4.236019e-05 -1.657685e-05 -2.745316e-08
4.236017e-05 -1.657476e-05 -3.891637e-08
4.397869e-05 -1.718629e-05 -7.643211e-08
4.393043e-05 -1.717375e-05 -8.829067e-08
4.235381e-05 -1.657254e-05 -3.750482e-08
4.399154e-05 -1.719080e-05 -7.059464e-08
4.394527e-05 -1.717914e-05 -8.299307e-08
4.234768e-05 -1.657035e-05 -3.599841e-08
4.400336e-05 -1.719496e-05 -6.463413e-08
4.395919e-05 -1.718417e-05 -7.751836e-08
4.234181e-05 -1.656821e-05 -3.440612e-08
4.401409e-05 -1.719878e-05 -5.858031e-08
4.397214e-05 -1.718885e-05 -7.188285e-08
4.233620e-05 -1.656613e-05 -3.273845e-08
4.402371e-05 -1.720226e-05 -5.246417e-08
4.398410e-05 -1.719318e-05 -6.610715e-08
4.233088e-05 -1.656412e-05 -3.100825e-08
4.403221e-05 -1.720542e-05 -4.631088e-08
4.399506e-05 -1.719715e-05 -6.021605e-08
4.232584e-05 -1.656221e-05 -2.922927e-08
4.403957e-05 -1.720827e-05 -4.013296e-08
4.400498e-05 -1.720078e-05 -5.423709e-08
4.232111e-05 -1.656039e-05 -2.741442e-08
4.404580e-05 -1.721080e-05 -3.393754e-08
4.401388e-05 -1.720409e-05 -4.819746e-08
4.400491e-05 -1.719198e-05 3.854225e-08
4.231668e-05 -1.655867e-05 -2.557483e-08
4.405076e-05 -1.721296e-05 2.774009e-08
4.402173e-05 -1.720710e-05 -4.212024e-08
4.401379e-05 -1.719521e-05 3.435123e-08
4.231257e-05 -1.655707e-05 -2.371958e-08
4.405486e-05 -1.721486e-05 -2.157446e-08
4.402855e-05 -1.720980e-05 -3.602421e-08
4.402165e-05 -1.719817e-05 3.014201e-08
4.230876e-05 -1.655841e-05 -1.570956e-08
4.230876e-05 -1.655558e-05 -2.185575e-08
4.403432e-05 -1.721218e-05 -2.992928e-08
4.230527e-05 -1.655704e-05 -1.437811e-08
4.230526e-05 -1.655421e-05 -1.998868e-08
4.405773e-05 -1.721636e-05 -1.546662e-08
4.403903e-05 -1.721423e-05 -2.386043e-08
4.403422e-05 -1.720327e-05 2.168186e-08
4.405760e-05 -1.721631e-05 1.546392e-08
4.230208e-05 -1.655578e-05 -1.304373e-08
4.230208e-05 -1.655295e-05 -1.812226e-08
4.404693e-05 -1.721819e-05 -6.082832e-09
4.404270e-05 -1.721592e-05 -1.784563e-08
4.403840e-05 -1.721041e-05 -2.466013e-09
4.404533e-05 -1.721724e-05 -1.191190e-08
4.229921e-05 -1.655181e-05 -1.625925e-08
4.229665e-05 -1.655080e-05 -1.440154e-08
4.405657e-05 -1.721832e-05 1.333919e-08
4.404753e-05 -1.721877e-05 -3.777888e-10
4.229440e-05 -1.654990e-05 -1.255034e-08
4.405346e-05 -1.721764e-05 1.864759e-08
4.404714e-05 -1.721897e-05 5.188088e-09
4.229245e-05 -1.654912e-05 -1.070643e-08
4.404946e-05 -1.721661e-05 2.378584e-08
4.404580e-05 -1.721882e-05 1.060342e-08
4.229081e-05 -1.654847e-05 -8.870229e-09
4.404461e-05 -1.721525e-05 2.875021e-08
4.404354e-05 -1.721830e-05 1.585989e-08
4.228948e-05 -1.654793e-05 -7.041948e-09
4.403893e-05 -1.721357e-05 3.353823e-08
4.404037e-05 -1.721744e-05 2.095162e-08
4.228846e-05 -1.654751e-05 -5.221644e-09
4.403246e-05 -1.721158e-05 3.814834e-08
4.403633e-05 -1.721624e-05 2.587456e-08
4.228774e-05 -1.654721e-05 -3.409280e-09
4.402522e-05 -1.720929e-05 4.257963e-08
4.403146e-05 -1.721471e-05 3.062604e-08
4.403625e-05 -1.720917e-05 -1.788253e-08
4.228731e-05 -1.654703e-05 -1.604769e-09
4.401712e-05 -1.720667e-05 -4.683616e-08
4.402577e-05 -1.721286e-05 3.520434e-08
4.403137e-05 -1.720790e-05 -2.128733e-08
4.228719e-05 -1.654697e-05 1.920056e-10
4.400857e-05 -1.720387e-05 5.090407e-08
4.401930e-05 -1.721071e-05 3.960845e-08
4.402569e-05 -1.720631e-05 -2.456935e-08
4.228737e-05 -1.654702e-05 1.981160e-09
4.399910e-05 -1.720071e-05 -5.480154e-08
4.401208e-05 -1.720827e-05 4.383782e-08
4.228785e-05 -1.654988e-05 2.671327e-09
4.228785e-05 -1.654719e-05 3.762819e-09
4.398924e-05 -1.719739e-05 5.851040e-08
4.400414e-05 -1.720555e-05 4.789221e-08
4.401201e-05 -1.720222e-05 -3.076041e-08
4.228863e-05 -1.655016e-05 3.945836e-09
4.228863e-05 -1.654748e-05 5.537092e-09
4.397864e-05 -1.719378e-05 6.204446e-08
4.399552e-05 -1.720255e-05 5.177157e-08
4.228970e-05 -1.655055e-05 5.215033e-09
4.228970e-05 -1.654788e-05 7.304080e-09
4.396746e-05 -1.718995e-05 6.539931e-08
4.398624e-05 -1.719930e-05 5.547596e-08
4.229107e-05 -1.654840e-05 9.063867e-09
4.397633e-05 -1.719580e-05 5.900550e-08
4.229273e-05 -1.654903e-05 1.081653e-08
4.396582e-05 -1.719207e-05 6.236035e-08
4.395574e-05 -1.718590e-05 6.857511e-08
4.229468e-05 -1.654978e-05 1.256213e-08
4.393104e-05 -1.717961e-05 7.137826e-08
4.392071e-05 -1.717361e-05 4.994113e-08
4.395475e-05 -1.718812e-05 6.554065e-08
4.393281e-05 -1.717527e-05 2.896554e-08
4.229692e-05 -1.655064e-05 1.430073e-08
4.229946e-05 -1.655161e-05 1.603238e-08
4.388993e-05 -1.716286e-05 8.177304e-08
4.391846e-05 -1.717506e-05 7.403584e-08
4.230228e-05 -1.655270e-05 1.775715e-08
4.387554e-05 -1.715777e-05 8.387731e-08
4.390543e-05 -1.717035e-05 7.651940e-08
4.230539e-05 -1.655390e-05 1.947511e-08
4.386082e-05 -1.715256e-05 8.580350e-08
4.389200e-05 -1.716547e-05 7.882907e-08
4.390540e-05 -1.716686e-05 -5.420118e-08
4.230879e-05 -1.655521e-05 2.118635e-08
4.384569e-05 -1.714718e-05 -8.755643e-08
4.387818e-05 -1.716045e-05 8.096496e-08
4.389196e-05 -1.716223e-05 -5.585776e-08
4.231248e-05 -1.655663e-05 2.289100e-08
4.383050e-05 -1.714178e-05 8.912283e-08
4.386401e-05 -1.715528e-05 8.292722e-08
4.387815e-05 -1.715746e-05 -5.738973e-08
4.231645e-05 -1.655817e-05 2.458924e-08
4.381484e-05 -1.713620e-05 -9.052147e-08
4.384952e-05 -1.715000e-05 8.471603e-08
4.232070e-05 -1.655982e-05 2.628133e-08
4.379919e-05 -1.713061e-05 9.173512e-08
4.383474e-05 -1.714460e-05 8.633166e-08
4.384950e-05 -1.714752e-05 -6.008049e-08
4.232525e-05 -1.656412e-05 2.005711e-08
4.232524e-05 -1.656158e-05 2.796765e-08
4.378324e-05 -1.712491e-05 9.277864e-08
4.381970e-05 -1.713909e-05 8.777453e-08
4.233007e-05 -1.656599e-05 2.126588e-08
4.233006e-05 -1.656345e-05 2.964868e-08
4.376714e-05 -1.711915e-05 9.364941e-08
4.380443e-05 -1.713350e-05 8.904526e-08
4.233517e-05 -1.656796e-05 2.247206e-08
4.233516e-05 -1.656543e-05 3.132510e-08
4.375092e-05 -1.711334e-05 9.435012e-08
4.378896e-05 -1.712783e-05 9.014481e-08
4.234055e-05 -1.656752e-05 3.299781e-08
4.373459e-05 -1.710748e-05 9.488456e-08
4.377332e-05 -1.712209e-05 9.107457e-08
4.234621e-05 -1.656972e-05 3.466797e-08
4.371821e-05 -1.710159e-05 9.525786e-08
4.375754e-05 -1.711629e-05 9.183656e-08
4.235215e-05 -1.657204e-05 3.633701e-08
4.374165e-05 -1.711045e-05 9.243366e-08
4.235838e-05 -1.657446e-05 3.800663e-08
4.370179e-05 -1.709567e-05 9.547695e-08
4.372567e-05 -1.710457e-05 9.286985e-08
4.236488e-05 -1.657701e-05 3.967867e-08
4.368537e-05 -1.708973e-05 9.555077e-08
4.370964e-05 -1.709866e-05 9.315055e-08
4.368527e-05 -1.708969e-05 -9.555447e-08
4.369358e-05 -1.709273e-05 9.328287e-08
4.237167e-05 -1.657966e-05 4.135499e-08
4.237874e-05 -1.658244e-05 4.303716e-08
4.362012e-05 -1.706582e-05 -9.464645e-08
4.366146e-05 -1.708083e-05 9.314059e-08
4.367751e-05 -1.708693e-05 -6.634062e-08
4.238610e-05 -1.658533e-05 4.472644e-08
4.360418e-05 -1.705985e-05 9.418065e-08
4.364545e-05 -1.707486e-05 9.288963e-08
4.366146e-05 -1.708115e-05 -6.628854e-08
4.239374e-05 -1.658835e-05 4.642416e-08
4.358817e-05 -1.705380e-05 -9.363939e-08
4.362949e-05 -1.706888e-05 9.253612e-08
4.240167e-05 -1.659148e-05 4.813195e-08
4.357250e-05 -1.704782e-05 9.301856e-08
4.361360e-05 -1.706289e-05 9.209191e-08
4.362949e-05 -1.706951e-05 -6.597446e-08
4.240989e-05 -1.659473e-05 4.985167e-08
4.355689e-05 -1.704181e-05 9.233599e-08
4.359780e-05 -1.705687e-05 9.156646e-08
4.241842e-05 -1.660073e-05 3.711104e-08
4.241840e-05 -1.659809e-05 5.158520e-08
4.354144e-05 -1.703583e-05 9.160383e-08
4.358208e-05 -1.705084e-05 9.096842e-08
4.242722e-05 -1.660423e-05 3.837096e-08
4.242720e-05 -1.660157e-05 5.333420e-08
4.352614e-05 -1.702988e-05 9.083613e-08
4.356648e-05 -1.704482e-05 9.030829e-08
4.243632e-05 -1.660786e-05 3.964184e-08
4.243630e-05 -1.660517e-05 5.510008e-08
4.351100e-05 -1.702397e-05 9.004510e-08
4.355100e-05 -1.703882e-05 8.959864e-08
4.244570e-05 -1.660889e-05 5.688395e-08
4.349600e-05 -1.701810e-05 8.924066e-08
4.353564e-05 -1.703284e-05 8.885238e-08
4.245540e-05 -1.661273e-05 5.868672e-08
4.348116e-05 -1.701228e-05 8.843051e-08
4.352043e-05 -1.702690e-05 8.808127e-08
4.246541e-05 -1.661668e-05 6.050904e-08
4.346645e-05 -1.700651e-05 8.762043e-08
4.350535e-05 -1.702100e-05 8.729521e-08
4.247573e-05 -1.662076e-05 6.235142e-08
4.345190e-05 -1.700079e-05 8.681460e-08
4.349041e-05 -1.701515e-05 8.650206e-08
4.248637e-05 -1.662496e-05 6.421423e-08
4.343748e-05 -1.699512e-05 8.601602e-08
4.347561e-05 -1.700935e-05 8.570787e-08
4.249732e-05 -1.662929e-05 6.609773e-08
4.342320e-05 -1.698950e-05 8.522672e-08
4.346096e-05 -1.700360e-05 8.491706e-08
4.347560e-05 -1.701054e-05 -6.151741e-08
4.250859e-05 -1.663374e-05 6.800215e-08
4.344644e-05 -1.699791e-05 8.413280e-08
4.346094e-05 -1.700478e-05 -6.095771e-08
4.252019e-05 -1.663832e-05 6.992762e-08
4.340371e-05 -1.698112e-05 8.183788e-08
4.339791e-05 -1.697947e-05 5.626685e-08
4.344643e-05 -1.699907e-05 -6.040004e-08
4.343206e-05 -1.699226e-05 8.335730e-08
4.253211e-05 -1.664303e-05 7.187427e-08
4.254437e-05 -1.664786e-05 7.384220e-08
4.335377e-05 -1.696216e-05 8.145198e-08
4.338973e-05 -1.697563e-05 8.109542e-08
4.338106e-05 -1.697291e-05 -8.292609e-08
4.255696e-05 -1.665283e-05 7.583152e-08
4.334027e-05 -1.695685e-05 8.073367e-08
4.337588e-05 -1.697019e-05 8.036494e-08
4.256995e-05 -1.666100e-05 5.597252e-08
4.256990e-05 -1.665793e-05 7.784230e-08
4.332689e-05 -1.695158e-05 8.002766e-08
4.336216e-05 -1.696480e-05 7.964655e-08
4.258323e-05 -1.666627e-05 5.743122e-08
4.258318e-05 -1.666317e-05 7.987466e-08
4.331363e-05 -1.694635e-05 7.933388e-08
4.334857e-05 -1.695946e-05 7.894027e-08
4.259686e-05 -1.667168e-05 5.890549e-08
4.259680e-05 -1.666854e-05 8.192870e-08
4.330049e-05 -1.694118e-05 7.865224e-08
4.333510e-05 -1.695417e-05 7.824606e-08
4.261078e-05 -1.667405e-05 8.400454e-08
4.328746e-05 -1.693605e-05 7.798265e-08
4.332176e-05 -1.694892e-05 7.756382e-08
4.262512e-05 -1.667970e-05 8.610232e-08
4.327455e-05 -1.693096e-05 7.732503e-08
4.330853e-05 -1.694372e-05 7.689348e-08
4.263981e-05 -1.668549e-05 8.822218e-08
4.326175e-05 -1.692592e-05 7.667933e-08
4.329542e-05 -1.693857e-05 7.623493e-08
4.265487e-05 -1.669142e-05 9.036430e-08
4.324906e-05 -1.692092e-05 7.604549e-08
4.328242e-05 -1.693346e-05 7.558809e-08
4.267030e-05 -1.669750e-05 9.252884e-08
4.323648e-05 -1.691597e-05 7.542347e-08
4.326954e-05 -1.692840e-05 7.495290e-08
4.268610e-05 -1.670372e-05 9.471600e-08
4.322391e-05 -1.691102e-05 -7.481368e-08
4.325677e-05 -1.692338e-05 7.432929e-08
4.326952e-05 -1.692933e-05 -5.382280e-08
4.270228e-05 -1.671009e-05 9.692594e-08
4.321163e-05 -1.690618e-05 7.421474e-08
4.324411e-05 -1.691841e-05 7.371722e-08
4.325675e-05 -1.692430e-05 -5.337588e-08
4.271883e-05 -1.671661e-05 9.915882e-08
4.323156e-05 -1.691347e-05 7.311665e-08
4.324409e-05 -1.691930e-05 -5.293729e-08
4.273577e-05 -1.672327e-05 1.014147e-07
4.319937e-05 -1.690135e-05 7.362799e-08
4.321911e-05 -1.690858e-05 7.252757e-08
4.323154e-05 -1.691435e-05 -5.250699e-08
4.319927e-05 -1.690131e-05 -7.362844e-08
4.275311e-05 -1.673009e-05 1.036937e-07
4.318238e-05 -1.689414e-05 7.082891e-08
4.320677e-05 -1.690373e-05 7.194993e-08
4.317723e-05 -1.689257e-05 4.872931e-08
4.319453e-05 -1.689891e-05 7.138373e-08
4.277083e-05 -1.673707e-05 1.059954e-07
4.280765e-05 -1.675509e-05 -7.952714e-08
4.278895e-05 -1.674419e-05 1.083195e-07
4.313949e-05 -1.687775e-05 7.086740e-08
4.317033e-05 -1.688940e-05 7.028542e-08
4.282658e-05 -1.676257e-05 -8.122012e-08
4.280748e-05 -1.675148e-05 1.106653e-07
4.312779e-05 -1.687314e-05 7.034857e-08
4.315838e-05 -1.688470e-05 6.975312e-08
4.284592e-05 -1.677019e-05 -8.292320e-08
4.282641e-05 -1.675892e-05 1.130312e-07
4.311619e-05 -1.686857e-05 6.983986e-08
4.314652e-05 -1.688004e-05 6.923186e-08
4.286568e-05 -1.677797e-05 -8.463299e-08
4.284574e-05 -1.676651e-05 1.154152e-07
4.310467e-05 -1.686403e-05 6.934043e-08
4.313476e-05 -1.687541e-05 6.872134e-08
4.286550e-05 -1.677427e-05 1.178142e-07
4.309323e-05 -1.685953e-05 6.884915e-08
4.312308e-05 -1.687082e-05 6.822116e-08
4.288585e-05 -1.678589e-05 -8.634484e-08
4.288566e-05 -1.678218e-05 1.202236e-07
4.308187e-05 -1.685506e-05 6.836447e-08
4.311149e-05 -1.686627e-05 6.773068e-08
4.290644e-05 -1.679396e-05 -8.805261e-08
4.290625e-05 -1.679024e-05 1.226372e-07
4.307060e-05 -1.685063e-05 6.788433e-08
4.309999e-05 -1.686175e-05 6.724904e-08
4.292725e-05 -1.679846e-05 1.250468e-07
4.305931e-05 -1.684620e-05 -6.740686e-08
4.308857e-05 -1.685726e-05 6.677503e-08
4.309995e-05 -1.686245e-05 -4.829579e-08
4.294867e-05 -1.680683e-05 1.274416e-07
4.304828e-05 -1.684187e-05 6.692671e-08
4.307723e-05 -1.685281e-05 6.630706e-08
4.308854e-05 -1.685795e-05 -4.795193e-08
4.297071e-05 -1.681896e-05 -9.306514e-08
4.297050e-05 -1.681533e-05 1.298087e-07
4.303714e-05 -1.683752e-05 -6.644326e-08
4.306598e-05 -1.684839e-05 6.584303e-08
4.307720e-05 -1.685349e-05 -4.761069e-08
4.299296e-05 -1.682753e-05 -9.466355e-08
4.299275e-05 -1.682396e-05 1.321329e-07
4.302625e-05 -1.683328e-05 6.594960e-08
4.305481e-05 -1.684401e-05 6.538036e-08
4.306594e-05 -1.684907e-05 -4.727017e-08
4.301561e-05 -1.683618e-05 -9.620804e-08
4.301539e-05 -1.683271e-05 1.343983e-07
4.301535e-05 -1.682904e-05 6.544543e-08
4.304372e-05 -1.683967e-05 6.491601e-08
4.303864e-05 -1.684490e-05 -9.769181e-08
4.303841e-05 -1.684155e-05 1.365904e-07
4.303271e-05 -1.683537e-05 6.444665e-08
4.306203e-05 -1.685369e-05 -9.911201e-08
4.306180e-05 -1.685047e-05 1.386972e-07
4.302179e-05 -1.683111e-05 6.396910e-08
4.300453e-05 -1.682485e-05 6.492863e-08
4.310987e-05 -1.687146e-05 -1.017536e-07
4.308555e-05 -1.685947e-05 1.407084e-07
4.298955e-05 -1.681862e-05 6.246256e-08
4.298509e-05 -1.681736e-05 4.289891e-08
4.301095e-05 -1.682690e-05 6.348072e-08
4.299568e-05 -1.682191e-05 2.646663e-08
4.313429e-05 -1.688043e-05 -1.029632e-07
4.310963e-05 -1.686856e-05 1.426112e-07
4.315901e-05 -1.688948e-05 -1.040851e-07
4.313404e-05 -1.687773e-05 1.443903e-07
4.295167e-05 -1.680460e-05 6.208655e-08
4.297899e-05 -1.681455e-05 6.192743e-08
4.318401e-05 -1.689859e-05 -1.051075e-07
4.315875e-05 -1.688699e-05 1.460296e-07
4.294138e-05 -1.680068e-05 6.144409e-08
4.296852e-05 -1.681052e-05 6.137064e-08
4.318375e-05 -1.689635e-05 1.475138e-07
4.293120e-05 -1.679681e-05 6.077051e-08
4.295815e-05 -1.680654e-05 6.078904e-08
4.320926e-05 -1.690777e-05 -1.060196e-07
4.320900e-05 -1.690578e-05 1.488302e-07
4.292114e-05 -1.679299e-05 6.006407e-08
4.294789e-05 -1.680260e-05 6.017985e-08
4.295812e-05 -1.680741e-05 -4.350250e-08
4.323473e-05 -1.691701e-05 -1.068119e-07
4.323447e-05 -1.691530e-05 1.499681e-07
4.291120e-05 -1.678922e-05 5.932351e-08
4.293774e-05 -1.679870e-05 5.954080e-08
4.294786e-05 -1.680352e-05 -4.305893e-08
4.326040e-05 -1.692631e-05 -1.074766e-07
4.326014e-05 -1.692488e-05 1.509192e-07
4.290129e-05 -1.678546e-05 -5.854943e-08
4.292769e-05 -1.679486e-05 5.887012e-08
4.293770e-05 -1.679967e-05 -4.259580e-08
4.328624e-05 -1.693566e-05 -1.080077e-07
4.328596e-05 -1.693453e-05 1.516773e-07
4.289170e-05 -1.678182e-05 5.773664e-08
4.291777e-05 -1.679106e-05 5.816649e-08
4.331219e-05 -1.694506e-05 -1.084005e-07
4.331192e-05 -1.694422e-05 1.522376e-07
4.288207e-05 -1.677818e-05 -5.689082e-08
4.290798e-05 -1.678731e-05 5.742892e-08
4.333825e-05 -1.695448e-05 -1.086513e-07
4.333797e-05 -1.695394e-05 1.525967e-07
4.287276e-05 -1.677465e-05 5.600552e-08
4.289831e-05 -1.678361e-05 5.665674e-08
4.290794e-05 -1.678842e-05 -4.107411e-08
4.336436e-05 -1.696393e-05 -1.087577e-07
4.336408e-05 -1.696369e-05 1.527521e-07
4.286351e-05 -1.677115e-05 5.508522e-08
4.288878e-05 -1.677996e-05 5.584950e-08
4.339022e-05 -1.697344e-05 1.527019e-07
4.285442e-05 -1.676771e-05 5.412827e-08
4.287939e-05 -1.677637e-05 5.500688e-08
4.341634e-05 -1.698320e-05 1.524450e-07
4.284550e-05 -1.676434e-05 5.313464e-08
4.287015e-05 -1.677284e-05 5.412870e-08
4.346869e-05 -1.700165e-05 -1.077083e-07
4.344242e-05 -1.699293e-05 1.519802e-07
4.286106e-05 -1.676937e-05 5.321487e-08
4.349457e-05 -1.701100e-05 -1.070728e-07
4.346842e-05 -1.700263e-05 1.513070e-07
4.283674e-05 -1.676103e-05 5.210430e-08
4.285214e-05 -1.676597e-05 5.226532e-08
4.352029e-05 -1.702029e-05 -1.062869e-07
4.349430e-05 -1.701229e-05 1.504247e-07
4.282638e-05 -1.675614e-05 4.920238e-08
4.284338e-05 -1.676262e-05 5.128006e-08
4.352002e-05 -1.702189e-05 1.493329e-07
4.357113e-05 -1.703863e-05 -1.042630e-07
4.354556e-05 -1.703141e-05 1.480310e-07
4.279569e-05 -1.674557e-05 4.640195e-08
4.281815e-05 -1.675301e-05 4.810997e-08
4.282634e-05 -1.675774e-05 -3.517139e-08
4.357086e-05 -1.704085e-05 1.465188e-07
4.278807e-05 -1.674271e-05 4.515129e-08
4.281011e-05 -1.674995e-05 4.698185e-08
4.281811e-05 -1.675465e-05 -3.438756e-08
4.359617e-05 -1.704765e-05 -1.030242e-07
4.359591e-05 -1.705019e-05 1.447957e-07
4.278058e-05 -1.673990e-05 -4.386541e-08
4.280227e-05 -1.674697e-05 4.581802e-08
4.281007e-05 -1.675165e-05 -3.357803e-08
4.362091e-05 -1.705656e-05 -1.016338e-07
4.362065e-05 -1.705940e-05 1.428613e-07
4.277347e-05 -1.673723e-05 4.253953e-08
4.279463e-05 -1.674406e-05 4.461846e-08
4.364531e-05 -1.706533e-05 -1.000915e-07
4.364506e-05 -1.706849e-05 1.407152e-07
4.276641e-05 -1.673460e-05 -4.117991e-08
4.278720e-05 -1.674124e-05 4.338312e-08
4.366934e-05 -1.707396e-05 -9.839695e-08
4.366909e-05 -1.707743e-05 1.383569e-07
4.275975e-05 -1.673211e-05 3.978019e-08
4.277998e-05 -1.673850e-05 4.211197e-08
4.278715e-05 -1.674310e-05 -3.099501e-08
4.369296e-05 -1.708243e-05 -9.654981e-08
4.369271e-05 -1.708621e-05 1.357859e-07
4.275324e-05 -1.672968e-05 3.834508e-08
4.277298e-05 -1.673585e-05 4.080494e-08
4.371612e-05 -1.709072e-05 -9.454975e-08
4.371589e-05 -1.709481e-05 1.330017e-07
4.274697e-05 -1.672734e-05 3.687301e-08
4.276620e-05 -1.673328e-05 3.946198e-08
4.277293e-05 -1.673781e-05 -2.914401e-08
4.373880e-05 -1.709882e-05 -9.239646e-08
4.373857e-05 -1.710323e-05 1.300038e-07
4.274094e-05 -1.672511e-05 3.536407e-08
4.275966e-05 -1.673080e-05 3.808303e-08
4.376096e-05 -1.710671e-05 -9.008970e-08
4.376073e-05 -1.711144e-05 1.267918e-07
4.273516e-05 -1.672297e-05 3.381848e-08
4.275335e-05 -1.672842e-05 3.666807e-08
4.380354e-05 -1.712182e-05 -8.501527e-08
4.378233e-05 -1.711943e-05 1.233653e-07
4.272964e-05 -1.672093e-05 3.223663e-08
4.274728e-05 -1.672613e-05 3.521712e-08
4.380345e-05 -1.712179e-05 8.502052e-08
4.380333e-05 -1.712718e-05 1.197240e-07
4.274147e-05 -1.672394e-05 3.373027e-08
4.382380e-05 -1.712898e-05 8.225317e-08
4.382369e-05 -1.713469e-05 1.158679e-07
4.273590e-05 -1.672185e-05 3.220775e-08
4.272439e-05 -1.671899e-05 3.061919e-08
4.384337e-05 -1.714193e-05 1.117974e-07
4.272080e-05 -1.671619e-05 2.743209e-08
4.272119e-05 -1.671777e-05 1.830717e-08
4.273060e-05 -1.671986e-05 3.064999e-08
4.272576e-05 -1.672096e-05 1.182635e-08
4.388074e-05 -1.714896e-05 -7.303608e-08
4.386234e-05 -1.714890e-05 1.075133e-07
4.388056e-05 -1.715557e-05 1.030173e-07
4.270219e-05 -1.671084e-05 -2.205923e-08
4.271631e-05 -1.671451e-05 2.577479e-08
4.389817e-05 -1.715502e-05 -6.966946e-08
4.389799e-05 -1.716194e-05 9.831225e-08
4.269872e-05 -1.670957e-05 2.027568e-08
4.271211e-05 -1.671294e-05 2.408828e-08
4.271626e-05 -1.671700e-05 -1.836494e-08
4.391476e-05 -1.716077e-05 -6.616154e-08
4.391459e-05 -1.716799e-05 9.340233e-08
4.269548e-05 -1.670836e-05 1.848415e-08
4.270819e-05 -1.671148e-05 2.237605e-08
4.271206e-05 -1.671548e-05 -1.716257e-08
4.393050e-05 -1.716620e-05 -6.251899e-08
4.393033e-05 -1.717371e-05 8.829393e-08
4.269256e-05 -1.670726e-05 1.669330e-08
4.270456e-05 -1.671013e-05 2.064278e-08
4.270814e-05 -1.671405e-05 -1.594567e-08
4.394533e-05 -1.717131e-05 -5.875088e-08
4.394517e-05 -1.717909e-05 8.299604e-08
4.268995e-05 -1.670625e-05 1.491456e-08
4.270123e-05 -1.670888e-05 1.889465e-08
4.270451e-05 -1.671273e-05 -1.471879e-08
4.395924e-05 -1.717609e-05 -5.486911e-08
4.395909e-05 -1.718413e-05 7.752100e-08
4.268767e-05 -1.670533e-05 1.316024e-08
4.269819e-05 -1.670773e-05 1.713947e-08
4.397218e-05 -1.718054e-05 -5.088866e-08
4.397204e-05 -1.718881e-05 7.188508e-08
4.268570e-05 -1.670449e-05 1.144139e-08
4.269545e-05 -1.670669e-05 1.538669e-08
4.398414e-05 -1.718468e-05 -4.682741e-08
4.398400e-05 -1.719313e-05 6.610894e-08
4.268405e-05 -1.670372e-05 9.764505e-09
4.269300e-05 -1.670573e-05 1.364697e-08
4.399509e-05 -1.718850e-05 -4.270512e-08
4.399496e-05 -1.719711e-05 6.021734e-08
4.268271e-05 -1.670301e-05 8.132127e-09
4.269084e-05 -1.670486e-05 1.193124e-08
4.401390e-05 -1.719525e-05 -3.435093e-08
4.400488e-05 -1.720074e-05 5.423783e-08
4.268166e-05 -1.670237e-05 6.548911e-09
4.268896e-05 -1.670405e-05 1.024918e-08
4.402175e-05 -1.719821e-05 -3.014247e-08
4.401378e-05 -1.720405e-05 4.819762e-08
4.268091e-05 -1.670179e-05 5.024573e-09
4.268736e-05 -1.670331e-05 8.608476e-09
4.402856e-05 -1.720090e-05 -2.591871e-08
4.402163e-05 -1.720705e-05 4.211980e-08
4.268042e-05 -1.670130e-05 3.571298e-09
4.268602e-05 -1.670264e-05 7.016395e-09
4.402845e-05 -1.720975e-05 3.602318e-08
4.268494e-05 -1.670203e-05 5.481884e-09
4.403904e-05 -1.720541e-05 -1.744871e-08
4.403421e-05 -1.721214e-05 2.992769e-08
4.268019e-05 -1.670087e-05 2.200984e-09
4.268411e-05 -1.670149e-05 4.015585e-09
4.403893e-05 -1.721419e-05 2.385832e-08
4.268300e-05 -1.670032e-05 1.297509e-10
4.268352e-05 -1.670103e-05 2.628411e-09
4.268478e-05 -1.670180e-05 -1.050559e-10
4.268315e-05 -1.670064e-05 1.330326e-09
4.404270e-05 -1.720721e-05 -1.323073e-08
4.404260e-05 -1.721588e-05 1.784304e-08
4.404523e-05 -1.721720e-05 1.190886e-08
4.268211e-05 -1.669976e-05 -3.106933e-09
4.268304e-05 -1.670007e-05 -9.665476e-10
4.404683e-05 -1.721815e-05 6.079424e-09
4.268296e-05 -1.669970e-05 -3.823029e-09
4.268326e-05 -1.669989e-05 -1.953354e-09
4.404753e-05 -1.721056e-05 -8.752477e-10
4.404743e-05 -1.721872e-05 3.740774e-10
4.268392e-05 -1.669968e-05 -4.417407e-09
4.268363e-05 -1.669976e-05 -2.826777e-09
4.404714e-05 -1.721098e-05 3.087474e-09
4.404705e-05 -1.721893e-05 -5.192058e-09
4.268497e-05 -1.669970e-05 -4.888809e-09
4.268414e-05 -1.669969e-05 -3.584002e-09
4.404581e-05 -1.721105e-05 6.951353e-09
4.404571e-05 -1.721877e-05 -1.060759e-08
4.268608e-05 -1.669974e-05 -5.236416e-09
4.268477e-05 -1.669965e-05 -4.223054e-09
4.404354e-05 -1.721077e-05 1.070801e-08
4.404344e-05 -1.721826e-05 -1.586423e-08
4.268724e-05 -1.669979e-05 -5.459712e-09
4.268549e-05 -1.669966e-05 -4.742582e-09
4.404037e-05 -1.721016e-05 1.435129e-08
4.404028e-05 -1.721740e-05 -2.095608e-08
4.268842e-05 -1.669986e-05 -5.558392e-09
4.268629e-05 -1.669969e-05 -5.141709e-09
4.403146e-05 -1.720793e-05 2.128157e-08
4.403624e-05 -1.721619e-05 -2.587911e-08
4.268961e-05 -1.669993e-05 -5.532284e-09
4.268715e-05 -1.669975e-05 -5.419881e-09
4.402578e-05 -1.720634e-05 2.456355e-08
4.403136e-05 -1.721467e-05 -3.063064e-08
4.269079e-05 -1.669999e-05 -5.381298e-09
4.268804e-05 -1.669982e-05 -5.576772e-09
4.401931e-05 -1.720444e-05 2.772148e-08
4.402567e-05 -1.721282e-05 -3.520898e-08
4.269193e-05 -1.670004e-05 -5.105389e-09
4.268895e-05 -1.669990e-05 -5.612205e-09
4.401921e-05 -1.721067e-05 -3.961312e-08
4.269301e-05 -1.670007e-05 -4.704518e-09
4.268985e-05 -1.669997e-05 -5.526092e-09
4.400416e-05 -1.719979e-05 3.366248e-08
4.401199e-05 -1.720823e-05 -4.384251e-08
4.269393e-05 -1.670004e-05 4.180884e-09
4.269402e-05 -1.670007e-05 -4.178658e-09
4.269073e-05 -1.670003e-05 -5.318397e-09
4.400405e-05 -1.720551e-05 -4.789690e-08
4.269157e-05 -1.670008e-05 -4.989100e-09
4.399554e-05 -1.719705e-05 3.644495e-08
4.399543e-05 -1.720251e-05 -5.177626e-08
4.269359e-05 -1.670003e-05 -3.271334e-09
4.269234e-05 -1.670010e-05 -4.538185e-09
4.269151e-05 -1.669947e-05 3.085466e-09
4.398626e-05 -1.719405e-05 3.910197e-08
4.398615e-05 -1.719926e-05 -5.548065e-08
4.397636e-05 -1.719081e-05 4.163359e-08
4.397624e-05 -1.719577e-05 -5.901019e-08
4.269719e-05 -1.669933e-05 3.282250e-10
4.269404e-05 -1.669993e-05 -2.455252e-09
4.269353e-05 -1.669888e-05 1.851975e-09
4.396585e-05 -1.718734e-05 4.403988e-08
4.396573e-05 -1.719204e-05 -6.236504e-08
4.269731e-05 -1.669898e-05 1.605908e-09
4.269434e-05 -1.669977e-05 -1.517256e-09
4.395479e-05 -1.718364e-05 4.632096e-08
4.395466e-05 -1.718809e-05 -6.554535e-08
4.269722e-05 -1.669855e-05 3.009275e-09
4.269447e-05 -1.669954e-05 -4.572111e-10
4.394306e-05 -1.718393e-05 -6.855128e-08
4.269688e-05 -1.669802e-05 4.538309e-09
4.269441e-05 -1.669923e-05 7.250272e-10
4.393095e-05 -1.717957e-05 -7.138296e-08
4.269629e-05 -1.669739e-05 6.192830e-09
4.269415e-05 -1.669885e-05 2.029600e-09
4.391850e-05 -1.717135e-05 5.241405e-08
4.391837e-05 -1.717503e-05 -7.404053e-08
4.269541e-05 -1.669665e-05 7.972375e-09
4.269365e-05 -1.669837e-05 3.456585e-09
4.389205e-05 -1.716226e-05 5.585190e-08
4.390535e-05 -1.717031e-05 -7.652410e-08
4.269423e-05 -1.669579e-05 9.876060e-09
4.269290e-05 -1.669780e-05 5.005964e-09
4.387823e-05 -1.715749e-05 5.738387e-08
4.389191e-05 -1.716544e-05 -7.883377e-08
4.269274e-05 -1.669481e-05 1.190236e-08
4.269188e-05 -1.669712e-05 6.677535e-09
4.386407e-05 -1.715258e-05 5.879137e-08
4.387810e-05 -1.716041e-05 -8.096967e-08
4.269081e-05 -1.669366e-05 -1.404698e-08
4.269057e-05 -1.669633e-05 8.470788e-09
4.386393e-05 -1.715525e-05 -8.293192e-08
4.268870e-05 -1.669245e-05 1.631179e-08
4.268895e-05 -1.669541e-05 1.038475e-08
4.383480e-05 -1.714240e-05 6.123391e-08
4.384944e-05 -1.714996e-05 -8.472072e-08
4.268611e-05 -1.669106e-05 1.868577e-08
4.268700e-05 -1.669437e-05 1.241778e-08
4.383466e-05 -1.714456e-05 -8.633635e-08
4.268469e-05 -1.669320e-05 1.456724e-08
4.381977e-05 -1.713715e-05 6.226972e-08
4.381962e-05 -1.713906e-05 -8.777920e-08
4.268202e-05 -1.669188e-05 1.682915e-08
4.268312e-05 -1.668953e-05 2.116302e-08
4.268463e-05 -1.668986e-05 -1.094878e-08
4.380450e-05 -1.713181e-05 6.318275e-08
4.380435e-05 -1.713347e-05 -8.904991e-08
4.267159e-05 -1.668706e-05 2.421876e-08
4.266511e-05 -1.668222e-05 1.777876e-08
4.267895e-05 -1.669042e-05 1.919769e-08
4.266938e-05 -1.668180e-05 1.007544e-08
4.378903e-05 -1.712639e-05 6.397406e-08
4.378889e-05 -1.712780e-05 -9.014942e-08
4.377339e-05 -1.712090e-05 6.464515e-08
4.377325e-05 -1.712206e-05 -9.107912e-08
4.266134e-05 -1.667971e-05 3.457679e-08
4.266726e-05 -1.668515e-05 2.684505e-08
4.375761e-05 -1.711535e-05 6.519817e-08
4.375747e-05 -1.711626e-05 -9.184104e-08
4.265548e-05 -1.667736e-05 3.729745e-08
4.266248e-05 -1.668309e-05 2.952424e-08
4.374172e-05 -1.710975e-05 6.563608e-08
4.374157e-05 -1.711042e-05 -9.243804e-08
4.264908e-05 -1.667492e-05 3.995862e-08
4.265725e-05 -1.668090e-05 3.223258e-08
4.372575e-05 -1.710410e-05 6.596287e-08
4.372560e-05 -1.710454e-05 -9.287412e-08
4.264216e-05 -1.667241e-05 4.253625e-08
4.265157e-05 -1.667858e-05 3.494233e-08
4.370971e-05 -1.709841e-05 6.618378e-08
4.370956e-05 -1.709863e-05 -9.315467e-08
4.263473e-05 -1.666986e-05 4.501987e-08
4.264544e-05 -1.667617e-05 3.762373e-08
4.369358e-05 -1.709267e-05 -6.631051e-08
4.369350e-05 -1.709270e-05 -9.328681e-08
4.262681e-05 -1.666725e-05 4.740156e-08
4.263888e-05 -1.667368e-05 4.024850e-08
4.366153e-05 -1.708118e-05 6.628408e-08
4.367744e-05 -1.708675e-05 -9.327961e-08
4.261841e-05 -1.666458e-05 4.966111e-08
4.263189e-05 -1.667114e-05 4.279346e-08
4.364552e-05 -1.707537e-05 6.615959e-08
4.366139e-05 -1.708080e-05 -9.314409e-08
4.262451e-05 -1.666856e-05 4.523922e-08
4.364538e-05 -1.707483e-05 -9.289288e-08
4.260026e-05 -1.665899e-05 -5.369327e-08
4.261675e-05 -1.666593e-05 4.756409e-08
4.361367e-05 -1.706366e-05 6.572268e-08
4.362942e-05 -1.706885e-05 -9.253910e-08
4.259078e-05 -1.665614e-05 5.539135e-08
4.260861e-05 -1.666324e-05 4.974106e-08
4.261670e-05 -1.666248e-05 -3.339289e-08
4.361353e-05 -1.706285e-05 -9.209461e-08
4.258092e-05 -1.665317e-05 5.685375e-08
4.260013e-05 -1.666047e-05 5.174051e-08
4.260857e-05 -1.666004e-05 -3.482748e-08
4.359786e-05 -1.705776e-05 6.541773e-08
4.359772e-05 -1.705684e-05 -9.156887e-08
4.259133e-05 -1.665762e-05 5.353417e-08
4.260009e-05 -1.665757e-05 -3.615879e-08
4.358215e-05 -1.705183e-05 6.505705e-08
4.358201e-05 -1.705081e-05 -9.097054e-08
4.258225e-05 -1.665469e-05 5.509741e-08
4.257082e-05 -1.665015e-05 5.805477e-08
4.259129e-05 -1.665505e-05 -3.736554e-08
4.356654e-05 -1.704589e-05 6.464406e-08
4.356641e-05 -1.704479e-05 -9.031016e-08
4.255376e-05 -1.664554e-05 5.822480e-08
4.254807e-05 -1.664326e-05 3.987564e-08
4.257293e-05 -1.665170e-05 5.641010e-08
4.255733e-05 -1.664524e-05 2.340323e-08
4.355106e-05 -1.703994e-05 6.418560e-08
4.355093e-05 -1.703879e-05 -8.960026e-08
4.353571e-05 -1.703401e-05 6.369060e-08
4.353557e-05 -1.703281e-05 -8.885378e-08
4.251858e-05 -1.663458e-05 5.972775e-08
4.254400e-05 -1.664241e-05 5.870638e-08
4.352049e-05 -1.702810e-05 6.316834e-08
4.352036e-05 -1.702687e-05 -8.808248e-08
4.250815e-05 -1.663149e-05 5.915297e-08
4.253418e-05 -1.663926e-05 5.889519e-08
4.350541e-05 -1.702221e-05 6.262733e-08
4.350528e-05 -1.702097e-05 -8.729624e-08
4.249784e-05 -1.662845e-05 5.826883e-08
4.252437e-05 -1.663611e-05 5.878716e-08
4.349047e-05 -1.701637e-05 6.207478e-08
4.349034e-05 -1.701512e-05 -8.650296e-08
4.248771e-05 -1.662548e-05 5.707456e-08
4.251460e-05 -1.663299e-05 5.837966e-08
4.346101e-05 -1.700480e-05 6.095687e-08
4.347554e-05 -1.700932e-05 -8.570865e-08
4.247773e-05 -1.662257e-05 -5.557784e-08
4.250493e-05 -1.662991e-05 5.767110e-08
4.344650e-05 -1.699909e-05 6.039927e-08
4.346089e-05 -1.700357e-05 -8.491775e-08
4.246817e-05 -1.661982e-05 5.375457e-08
4.249541e-05 -1.662689e-05 5.666065e-08
4.343212e-05 -1.699343e-05 5.984605e-08
4.344637e-05 -1.699787e-05 -8.413343e-08
4.245887e-05 -1.661718e-05 5.162889e-08
4.248609e-05 -1.662394e-05 5.534792e-08
4.343199e-05 -1.699223e-05 -8.335788e-08
4.244994e-05 -1.661468e-05 4.919294e-08
4.247702e-05 -1.662110e-05 5.373287e-08
4.341780e-05 -1.698780e-05 -5.929962e-08
4.341775e-05 -1.698663e-05 -8.259256e-08
4.244144e-05 -1.661234e-05 4.644686e-08
4.246824e-05 -1.661837e-05 5.181560e-08
4.247699e-05 -1.662375e-05 -3.733366e-08
4.340364e-05 -1.698109e-05 -8.183838e-08
4.243341e-05 -1.661020e-05 4.339075e-08
4.245982e-05 -1.661578e-05 4.959629e-08
4.338966e-05 -1.697560e-05 -8.109591e-08
4.242591e-05 -1.660826e-05 4.002463e-08
4.245180e-05 -1.661334e-05 4.707513e-08
4.337593e-05 -1.697129e-05 5.770303e-08
4.337581e-05 -1.697016e-05 -8.036541e-08
4.244422e-05 -1.661109e-05 4.425226e-08
4.336222e-05 -1.696588e-05 5.718777e-08
4.336209e-05 -1.696477e-05 -7.964702e-08
4.243715e-05 -1.660902e-05 4.112775e-08
4.241899e-05 -1.660654e-05 3.634844e-08
4.334862e-05 -1.696052e-05 5.668117e-08
4.334850e-05 -1.695943e-05 -7.894074e-08
4.241944e-05 -1.660421e-05 2.994367e-08
4.242403e-05 -1.661000e-05 1.869991e-08
4.243063e-05 -1.660718e-05 3.770159e-08
4.242847e-05 -1.661456e-05 1.241632e-08
4.333515e-05 -1.695521e-05 5.618324e-08
4.333503e-05 -1.695414e-05 -7.824653e-08
4.332180e-05 -1.694995e-05 5.569395e-08
4.332169e-05 -1.694889e-05 -7.756429e-08
4.239473e-05 -1.660203e-05 1.330807e-08
4.241487e-05 -1.660313e-05 2.561135e-08
4.330858e-05 -1.694473e-05 5.521326e-08
4.330846e-05 -1.694369e-05 -7.689395e-08
4.239230e-05 -1.660208e-05 7.766335e-09
4.241106e-05 -1.660234e-05 2.097632e-08
4.329547e-05 -1.693956e-05 5.474110e-08
4.329535e-05 -1.693854e-05 -7.623540e-08
4.239079e-05 -1.660249e-05 1.913464e-09
4.240804e-05 -1.660187e-05 1.603820e-08
4.328247e-05 -1.693444e-05 5.427740e-08
4.328236e-05 -1.693343e-05 -7.558856e-08
4.240588e-05 -1.660172e-05 1.079669e-08
4.325682e-05 -1.692432e-05 5.337521e-08
4.326947e-05 -1.692837e-05 -7.495337e-08
4.239070e-05 -1.660444e-05 1.071344e-08
4.240462e-05 -1.660193e-05 5.251721e-09
4.324416e-05 -1.691933e-05 5.293662e-08
4.325671e-05 -1.692335e-05 -7.432976e-08
4.239232e-05 -1.660605e-05 -1.749761e-08
4.240431e-05 -1.660251e-05 -5.963942e-10
4.323160e-05 -1.691438e-05 5.250632e-08
4.324405e-05 -1.691838e-05 -7.371769e-08
4.239501e-05 -1.660808e-05 -2.457391e-08
4.240500e-05 -1.660348e-05 -6.746665e-09
4.240427e-05 -1.661155e-05 1.695080e-09
4.321916e-05 -1.690947e-05 5.208429e-08
4.323149e-05 -1.691344e-05 -7.311713e-08
4.239888e-05 -1.661055e-05 -3.194185e-08
4.240674e-05 -1.660486e-05 -1.319707e-08
4.240496e-05 -1.661297e-05 6.111525e-09
4.321904e-05 -1.690855e-05 -7.252804e-08
4.240399e-05 -1.661348e-05 -3.958950e-08
4.240959e-05 -1.660666e-05 -1.994406e-08
4.320681e-05 -1.690460e-05 5.167048e-08
4.320670e-05 -1.690370e-05 -7.195041e-08
4.241038e-05 -1.661688e-05 -4.749991e-08
4.241358e-05 -1.660890e-05 -2.698194e-08
4.319446e-05 -1.689888e-05 -7.138421e-08
4.241811e-05 -1.662075e-05 -5.564971e-08
4.241878e-05 -1.661159e-05 -3.430200e-08
4.318231e-05 -1.689411e-05 -7.082939e-08
4.242522e-05 -1.661476e-05 -4.189156e-08
4.317037e-05 -1.689022e-05 5.047797e-08
4.317027e-05 -1.688937e-05 -7.028589e-08
4.243295e-05 -1.661840e-05 -4.973278e-08
4.242724e-05 -1.662510e-05 -6.400764e-08
4.315842e-05 -1.688551e-05 5.009643e-08
4.315831e-05 -1.688467e-05 -6.975361e-08
4.246428e-05 -1.663223e-05 -7.448402e-08
4.248501e-05 -1.664772e-05 -5.463863e-08
4.244202e-05 -1.662253e-05 -5.780133e-08
4.247222e-05 -1.665004e-05 -3.046714e-08
4.314656e-05 -1.688083e-05 4.972257e-08
4.314646e-05 -1.688001e-05 -6.923236e-08
4.313480e-05 -1.687618e-05 4.935607e-08
4.313469e-05 -1.687538e-05 -6.872186e-08
4.249560e-05 -1.665365e-05 -1.072123e-07
4.247753e-05 -1.663778e-05 -8.300898e-08
4.312312e-05 -1.687158e-05 4.899646e-08
4.312301e-05 -1.687079e-05 -6.822168e-08
4.251399e-05 -1.666051e-05 1.157626e-07
4.249221e-05 -1.664376e-05 -9.158529e-08
4.311153e-05 -1.686701e-05 4.864308e-08
4.311142e-05 -1.686624e-05 -6.773123e-08
4.253403e-05 -1.666773e-05 -1.242057e-07
4.250832e-05 -1.665014e-05 -1.001574e-07
4.308860e-05 -1.685798e-05 4.795113e-08
4.309992e-05 -1.686172e-05 -6.724962e-08
4.255561e-05 -1.667529e-05 -1.325233e-07
4.252583e-05 -1.665686e-05 -1.086769e-07
4.307727e-05 -1.685352e-05 4.760983e-08
4.308850e-05 -1.685723e-05 -6.677566e-08
4.257871e-05 -1.668323e-05 -1.406609e-07
4.254474e-05 -1.666390e-05 -1.171049e-07
4.306601e-05 -1.684910e-05 4.726925e-08
4.307716e-05 -1.685278e-05 -6.630773e-08
4.260327e-05 -1.669158e-05 -1.485550e-07
4.256503e-05 -1.667126e-05 -1.254039e-07
4.254484e-05 -1.667666e-05 8.338880e-08
4.305484e-05 -1.684472e-05 4.692717e-08
4.306591e-05 -1.684836e-05 -6.584375e-08
4.262923e-05 -1.670034e-05 -1.561442e-07
4.258669e-05 -1.667898e-05 -1.335269e-07
4.305474e-05 -1.684398e-05 -6.538113e-08
4.265650e-05 -1.670952e-05 -1.633747e-07
4.260970e-05 -1.668710e-05 -1.414184e-07
4.304375e-05 -1.684038e-05 4.658122e-08
4.304365e-05 -1.683964e-05 -6.491684e-08
4.268500e-05 -1.671911e-05 -1.702027e-07
4.263402e-05 -1.669564e-05 -1.490219e-07
4.303274e-05 -1.683609e-05 4.622911e-08
4.303264e-05 -1.683534e-05 -6.444756e-08
4.271464e-05 -1.672909e-05 -1.765933e-07
4.265961e-05 -1.670460e-05 -1.562858e-07
4.302182e-05 -1.683184e-05 4.586913e-08
4.302172e-05 -1.683108e-05 -6.397009e-08
4.268641e-05 -1.671398e-05 -1.631666e-07
4.301098e-05 -1.682765e-05 4.550044e-08
4.301088e-05 -1.682687e-05 -6.348179e-08
4.271435e-05 -1.672377e-05 -1.696290e-07
4.274533e-05 -1.673946e-05 -1.825201e-07
4.300014e-05 -1.682271e-05 -6.298047e-08
4.280430e-05 -1.675542e-05 -1.862625e-07
4.282770e-05 -1.676789e-05 -1.293794e-07
4.274336e-05 -1.673396e-05 -1.756454e-07
4.279733e-05 -1.676237e-05 -7.593392e-08
4.298948e-05 -1.681859e-05 -6.246376e-08
4.297902e-05 -1.681537e-05 4.433765e-08
4.297892e-05 -1.681452e-05 -6.192869e-08
4.283606e-05 -1.676665e-05 -1.908364e-07
4.296855e-05 -1.681138e-05 4.392679e-08
4.296846e-05 -1.681049e-05 -6.137198e-08
4.294681e-05 -1.680814e-05 2.075361e-07
4.286858e-05 -1.677816e-05 -1.949088e-07
4.294792e-05 -1.680354e-05 4.305707e-08
4.295809e-05 -1.680651e-05 -6.079043e-08
4.298257e-05 -1.682043e-05 -2.098640e-07
4.290177e-05 -1.678994e-05 -1.984738e-07
4.286887e-05 -1.678407e-05 1.378082e-07
4.293777e-05 -1.679969e-05 4.259388e-08
4.294783e-05 -1.680257e-05 -6.018129e-08
4.301864e-05 -1.683284e-05 -2.116717e-07
4.293555e-05 -1.680195e-05 -2.015272e-07
4.290207e-05 -1.679509e-05 1.403591e-07
4.292772e-05 -1.679589e-05 4.210949e-08
4.293767e-05 -1.679867e-05 -5.954228e-08
4.305499e-05 -1.684537e-05 -2.129459e-07
4.296983e-05 -1.681416e-05 -2.040661e-07
4.293586e-05 -1.680633e-05 1.425447e-07
4.292763e-05 -1.679483e-05 -5.887164e-08
4.309154e-05 -1.685798e-05 -2.136847e-07
4.300453e-05 -1.682653e-05 -2.060880e-07
4.297014e-05 -1.681777e-05 1.443619e-07
4.291780e-05 -1.679214e-05 4.160256e-08
4.291771e-05 -1.679103e-05 -5.816803e-08
4.312820e-05 -1.687063e-05 -2.138867e-07
4.303956e-05 -1.683903e-05 -2.075912e-07
4.289834e-05 -1.678480e-05 4.051740e-08
4.290791e-05 -1.678728e-05 -5.743048e-08
4.316488e-05 -1.688329e-05 -2.135503e-07
4.307483e-05 -1.685163e-05 -2.085740e-07
4.289824e-05 -1.678358e-05 -5.665832e-08
4.320149e-05 -1.689593e-05 -2.126739e-07
4.311025e-05 -1.686429e-05 -2.090349e-07
4.288880e-05 -1.678121e-05 3.993791e-08
4.288871e-05 -1.677994e-05 -5.585108e-08
4.323795e-05 -1.690851e-05 -2.112558e-07
4.314574e-05 -1.687698e-05 -2.089725e-07
4.287942e-05 -1.677767e-05 3.933329e-08
4.287933e-05 -1.677635e-05 -5.500847e-08
4.327416e-05 -1.692100e-05 -2.092944e-07
4.318121e-05 -1.688967e-05 -2.083851e-07
4.287017e-05 -1.677419e-05 3.870330e-08
4.287009e-05 -1.677282e-05 -5.413030e-08
4.321656e-05 -1.690231e-05 -2.072713e-07
4.286109e-05 -1.677078e-05 3.804780e-08
4.286100e-05 -1.676935e-05 -5.321647e-08
4.331004e-05 -1.693336e-05 -2.067879e-07
4.325172e-05 -1.691488e-05 -2.056293e-07
4.285216e-05 -1.676742e-05 3.736669e-08
4.285208e-05 -1.676594e-05 -5.226694e-08
4.334548e-05 -1.694554e-05 -2.037344e-07
4.328657e-05 -1.692734e-05 -2.034573e-07
4.334539e-05 -1.694551e-05 2.037458e-07
4.332104e-05 -1.693964e-05 -2.007537e-07
4.333352e-05 -1.693845e-05 -8.232984e-08
4.284340e-05 -1.676413e-05 3.665993e-08
4.284332e-05 -1.676260e-05 -5.128168e-08
4.283473e-05 -1.675932e-05 -5.026069e-08
4.348112e-05 -1.699190e-05 -1.860171e-07
4.338846e-05 -1.696366e-05 -1.937438e-07
4.341462e-05 -1.696924e-05 1.959908e-07
4.281817e-05 -1.675468e-05 3.438555e-08
4.282632e-05 -1.675612e-05 -4.920399e-08
4.351302e-05 -1.700271e-05 -1.802061e-07
4.342122e-05 -1.697530e-05 -1.894341e-07
4.281013e-05 -1.675167e-05 3.357601e-08
4.281809e-05 -1.675298e-05 -4.811158e-08
4.354394e-05 -1.701314e-05 -1.738422e-07
4.345322e-05 -1.698665e-05 -1.845859e-07
4.342146e-05 -1.696873e-05 1.337753e-07
4.280229e-05 -1.674874e-05 3.274075e-08
4.281005e-05 -1.674992e-05 -4.698347e-08
4.357377e-05 -1.702314e-05 -1.669276e-07
4.348437e-05 -1.699766e-05 -1.791982e-07
4.280221e-05 -1.674694e-05 -4.581964e-08
4.360242e-05 -1.703269e-05 -1.594665e-07
4.351457e-05 -1.700831e-05 -1.732707e-07
4.279465e-05 -1.674589e-05 3.187976e-08
4.279457e-05 -1.674404e-05 -4.462008e-08
4.362979e-05 -1.704176e-05 -1.514662e-07
4.354373e-05 -1.701856e-05 -1.668042e-07
4.277999e-05 -1.674043e-05 3.008040e-08
4.278714e-05 -1.674121e-05 -4.338474e-08
4.365578e-05 -1.705030e-05 -1.429383e-07
4.357176e-05 -1.702836e-05 -1.598012e-07
4.277992e-05 -1.673847e-05 -4.211359e-08
4.368030e-05 -1.705830e-05 -1.338998e-07
4.359855e-05 -1.703770e-05 -1.522666e-07
4.276621e-05 -1.673532e-05 2.817768e-08
4.277292e-05 -1.673582e-05 -4.080656e-08
4.370324e-05 -1.706573e-05 -1.243752e-07
4.362402e-05 -1.704652e-05 -1.442082e-07
4.276614e-05 -1.673325e-05 -3.946360e-08
4.372450e-05 -1.707257e-05 -1.143983e-07
4.364808e-05 -1.705481e-05 -1.356387e-07
4.275967e-05 -1.673290e-05 2.718749e-08
4.275960e-05 -1.673078e-05 -3.808465e-08
4.374399e-05 -1.707880e-05 -1.040139e-07
4.367063e-05 -1.706253e-05 -1.265765e-07
4.275336e-05 -1.673057e-05 2.617143e-08
4.275329e-05 -1.672839e-05 -3.666969e-08
4.369159e-05 -1.706967e-05 -1.170473e-07
4.274729e-05 -1.672833e-05 2.512960e-08
4.274722e-05 -1.672611e-05 -3.521872e-08
4.374414e-05 -1.708739e-05 -8.606530e-08
4.371088e-05 -1.707619e-05 -1.070865e-07
4.371943e-05 -1.705985e-05 -3.733843e-08
4.274147e-05 -1.672620e-05 2.406217e-08
4.274141e-05 -1.672392e-05 -3.373186e-08
4.273591e-05 -1.672416e-05 2.296951e-08
4.273584e-05 -1.672182e-05 -3.220932e-08
4.381161e-05 -1.710113e-05 -4.833253e-08
4.375801e-05 -1.709208e-05 -7.512999e-08
4.374412e-05 -1.707150e-05 6.036906e-08
4.273061e-05 -1.672222e-05 2.185216e-08
4.273054e-05 -1.671983e-05 -3.065154e-08
4.381878e-05 -1.710402e-05 -3.690381e-08
4.376999e-05 -1.709620e-05 -6.400723e-08
4.375797e-05 -1.707585e-05 5.281162e-08
4.272551e-05 -1.671795e-05 -2.905923e-08
4.382379e-05 -1.710638e-05 -2.546183e-08
4.378006e-05 -1.709981e-05 -5.276631e-08
4.272074e-05 -1.671617e-05 -2.743353e-08
4.382665e-05 -1.710820e-05 -1.406132e-08
4.378822e-05 -1.710294e-05 -4.146398e-08
4.271211e-05 -1.671550e-05 1.716087e-08
4.271626e-05 -1.671449e-05 -2.577615e-08
4.382740e-05 -1.710941e-05 -2.781255e-09
4.379447e-05 -1.710559e-05 -3.014881e-08
4.270820e-05 -1.671407e-05 1.594410e-08
4.271205e-05 -1.671292e-05 -2.408956e-08
4.382612e-05 -1.711000e-05 8.297041e-09
4.379879e-05 -1.710772e-05 -1.887643e-08
4.270457e-05 -1.671275e-05 1.471740e-08
4.270813e-05 -1.671146e-05 -2.237721e-08
4.382289e-05 -1.710995e-05 1.910105e-08
4.380119e-05 -1.710928e-05 -7.715496e-09
4.270123e-05 -1.671152e-05 1.348652e-08
4.270451e-05 -1.671010e-05 -2.064380e-08
4.381778e-05 -1.710926e-05 2.957090e-08
4.380167e-05 -1.711021e-05 3.260281e-09
4.270117e-05 -1.670885e-05 -1.889550e-08
4.381088e-05 -1.710794e-05 3.965955e-08
4.380027e-05 -1.711051e-05 1.398180e-08
4.269820e-05 -1.671038e-05 1.225833e-08
4.269814e-05 -1.670771e-05 -1.714013e-08
4.380218e-05 -1.710596e-05 -4.934112e-08
4.379704e-05 -1.711015e-05 2.438975e-08
4.269545e-05 -1.670932e-05 1.104055e-08
4.269539e-05 -1.670666e-05 -1.538714e-08
4.374864e-05 -1.708140e-05 2.633360e-08
4.379204e-05 -1.710915e-05 3.443621e-08
4.269300e-05 -1.670834e-05 9.841015e-09
4.269295e-05 -1.670571e-05 -1.364719e-08
4.378533e-05 -1.710751e-05 4.408411e-08
4.379209e-05 -1.710346e-05 5.856003e-08
4.269084e-05 -1.670742e-05 8.666403e-09
4.269079e-05 -1.670483e-05 -1.193121e-08
4.378037e-05 -1.710034e-05 6.732699e-08
4.377699e-05 -1.710526e-05 5.330578e-08
4.378026e-05 -1.710031e-05 -6.733761e-08
4.376710e-05 -1.710242e-05 6.208128e-08
4.378527e-05 -1.709368e-05 -2.983788e-08
4.268896e-05 -1.670656e-05 7.520790e-09
4.268891e-05 -1.670403e-05 -1.024889e-08
4.268736e-05 -1.670576e-05 6.405649e-09
4.268730e-05 -1.670329e-05 -8.607935e-09
4.371997e-05 -1.708269e-05 9.757710e-08
4.374299e-05 -1.709506e-05 7.824264e-08
4.375571e-05 -1.708719e-05 -4.861998e-08
4.268602e-05 -1.670500e-05 5.321960e-09
4.268596e-05 -1.670261e-05 -7.015605e-09
4.370192e-05 -1.707713e-05 1.039120e-07
4.372893e-05 -1.709061e-05 8.561310e-08
4.374297e-05 -1.708394e-05 -5.423864e-08
4.268494e-05 -1.670429e-05 4.272745e-09
4.268488e-05 -1.670200e-05 -5.480858e-09
4.368286e-05 -1.707118e-05 1.097528e-07
4.371364e-05 -1.708568e-05 9.250450e-08
4.268411e-05 -1.670364e-05 3.263865e-09
4.268405e-05 -1.670146e-05 -4.014342e-09
4.366287e-05 -1.706485e-05 1.150997e-07
4.369721e-05 -1.708030e-05 9.891497e-08
4.268352e-05 -1.670305e-05 2.302906e-09
4.268346e-05 -1.670100e-05 -2.626972e-09
4.364204e-05 -1.705820e-05 1.199532e-07
4.367972e-05 -1.707451e-05 1.048438e-07
4.268310e-05 -1.670061e-05 -1.328710e-09
4.362045e-05 -1.705126e-05 1.243143e-07
4.366127e-05 -1.706835e-05 1.102910e-07
4.268294e-05 -1.670030e-05 -1.279866e-10
4.359818e-05 -1.704404e-05 1.281837e-07
4.364192e-05 -1.706183e-05 1.152572e-07
4.268304e-05 -1.670164e-05 -2.173006e-10
4.268298e-05 -1.670005e-05 9.684376e-10
4.357532e-05 -1.703660e-05 1.315627e-07
4.362177e-05 -1.705500e-05 1.197431e-07
4.268326e-05 -1.670129e-05 -9.160152e-10
4.268320e-05 -1.669986e-05 1.955344e-09
4.355194e-05 -1.702895e-05 1.344521e-07
4.360090e-05 -1.704789e-05 1.237497e-07
4.268363e-05 -1.670099e-05 -1.536639e-09
4.268357e-05 -1.669974e-05 2.828850e-09
4.352814e-05 -1.702114e-05 1.368531e-07
4.357939e-05 -1.704053e-05 1.272780e-07
4.268414e-05 -1.670073e-05 -2.076251e-09
4.268408e-05 -1.669966e-05 3.586137e-09
4.355733e-05 -1.703295e-05 1.303291e-07
4.268477e-05 -1.670052e-05 -2.532720e-09
4.268471e-05 -1.669963e-05 4.225234e-09
4.353479e-05 -1.702519e-05 1.329041e-07
4.268549e-05 -1.670035e-05 -2.904532e-09
4.268543e-05 -1.669963e-05 4.744799e-09
4.347957e-05 -1.700514e-05 1.401935e-07
4.351187e-05 -1.701728e-05 1.350038e-07
4.353489e-05 -1.702184e-05 -9.347509e-08
4.347950e-05 -1.700512e-05 -1.402051e-07
4.268629e-05 -1.670020e-05 -3.190652e-09
4.268623e-05 -1.669967e-05 5.143948e-09
4.344159e-05 -1.699297e-05 1.384607e-07
4.348864e-05 -1.700926e-05 1.366292e-07
4.342958e-05 -1.698869e-05 9.495554e-08
4.351197e-05 -1.701463e-05 -9.498426e-08
4.346519e-05 -1.700114e-05 1.377812e-07
4.268715e-05 -1.670007e-05 -3.390387e-09
4.268709e-05 -1.669972e-05 5.422136e-09
4.268804e-05 -1.669996e-05 -3.503298e-09
4.268798e-05 -1.669979e-05 5.579037e-09
4.335634e-05 -1.696447e-05 1.400628e-07
4.341793e-05 -1.698478e-05 1.386685e-07
4.268895e-05 -1.669986e-05 -3.529113e-09
4.268889e-05 -1.669987e-05 5.614478e-09
4.333203e-05 -1.695647e-05 1.385924e-07
4.339429e-05 -1.697660e-05 1.384056e-07
4.268985e-05 -1.669975e-05 -3.467669e-09
4.268979e-05 -1.669994e-05 5.528368e-09
4.330802e-05 -1.694858e-05 1.366452e-07
4.337075e-05 -1.696846e-05 1.376731e-07
4.269073e-05 -1.669963e-05 -3.318880e-09
4.269067e-05 -1.670001e-05 5.320676e-09
4.328438e-05 -1.694084e-05 1.342251e-07
4.334739e-05 -1.696038e-05 1.364726e-07
4.269234e-05 -1.669933e-05 -2.759034e-09
4.269151e-05 -1.670005e-05 4.991382e-09
4.326119e-05 -1.693327e-05 1.313372e-07
4.332428e-05 -1.695241e-05 1.348058e-07
4.269227e-05 -1.669931e-05 2.761819e-09
4.269227e-05 -1.670007e-05 4.540470e-09
4.323854e-05 -1.692590e-05 1.279888e-07
4.330152e-05 -1.694457e-05 1.326756e-07
4.269296e-05 -1.669912e-05 2.350673e-09
4.269296e-05 -1.670006e-05 3.967899e-09
4.321651e-05 -1.691875e-05 1.241902e-07
4.327916e-05 -1.693689e-05 1.300859e-07
4.269404e-05 -1.669861e-05 -1.262855e-09
4.269353e-05 -1.670001e-05 3.273620e-09
4.319517e-05 -1.691185e-05 1.199556e-07
4.325730e-05 -1.692940e-05 1.270422e-07
4.269398e-05 -1.669990e-05 2.457541e-09
4.317455e-05 -1.690520e-05 -1.153133e-07
4.323601e-05 -1.692212e-05 1.235522e-07
4.269434e-05 -1.669827e-05 -5.888019e-10
4.269428e-05 -1.669974e-05 1.519549e-09
4.315488e-05 -1.689887e-05 1.102596e-07
4.321536e-05 -1.691508e-05 1.196268e-07
4.269447e-05 -1.669786e-05 1.730626e-10
4.269441e-05 -1.669951e-05 4.595055e-10
4.313610e-05 -1.689282e-05 1.048551e-07
4.319543e-05 -1.690831e-05 1.152807e-07
4.269441e-05 -1.669737e-05 1.022822e-09
4.269435e-05 -1.669921e-05 -7.227370e-10
4.317628e-05 -1.690181e-05 1.105337e-07
4.269415e-05 -1.669680e-05 1.960526e-09
4.269408e-05 -1.669882e-05 -2.027312e-09
4.312417e-05 -1.688413e-05 9.417284e-08
4.312640e-05 -1.689042e-05 6.248804e-08
4.317636e-05 -1.690923e-05 -7.765993e-08
4.315798e-05 -1.689561e-05 1.054110e-07
4.314190e-05 -1.690074e-05 3.986905e-08
4.269365e-05 -1.669614e-05 2.986131e-09
4.269358e-05 -1.669834e-05 -3.454305e-09
4.269290e-05 -1.669538e-05 4.099461e-09
4.269284e-05 -1.669777e-05 -5.003704e-09
4.305857e-05 -1.686698e-05 7.390670e-08
4.310875e-05 -1.687885e-05 8.813759e-08
4.269188e-05 -1.669452e-05 5.300105e-09
4.269182e-05 -1.669709e-05 -6.675302e-09
4.304667e-05 -1.686265e-05 6.717231e-08
4.309436e-05 -1.687384e-05 8.188133e-08
4.269057e-05 -1.669355e-05 6.587296e-09
4.269051e-05 -1.669630e-05 -8.468600e-09
4.303604e-05 -1.685862e-05 6.030436e-08
4.308104e-05 -1.686910e-05 7.544048e-08
4.268895e-05 -1.669245e-05 7.959745e-09
4.268888e-05 -1.669539e-05 -1.038264e-08
4.302667e-05 -1.685493e-05 5.334341e-08
4.306880e-05 -1.686461e-05 6.884402e-08
4.268700e-05 -1.669123e-05 9.415434e-09
4.268693e-05 -1.669434e-05 -1.241576e-08
4.301857e-05 -1.685161e-05 4.633689e-08
4.305768e-05 -1.686039e-05 6.212085e-08
4.268202e-05 -1.668840e-05 1.256297e-08
4.268462e-05 -1.669317e-05 -1.456535e-08
4.301170e-05 -1.684869e-05 3.932960e-08
4.304769e-05 -1.685650e-05 5.530717e-08
4.268195e-05 -1.669185e-05 -1.682743e-08
4.300604e-05 -1.684616e-05 3.235981e-08
4.303886e-05 -1.685297e-05 4.844481e-08
4.267895e-05 -1.668678e-05 1.424423e-08
4.267888e-05 -1.669039e-05 -1.919620e-08
4.303120e-05 -1.684982e-05 4.157534e-08
4.267541e-05 -1.668878e-05 -2.166345e-08
4.299821e-05 -1.684235e-05 -1.864720e-08
4.302470e-05 -1.684707e-05 3.473585e-08
4.267152e-05 -1.668702e-05 -2.421791e-08
4.301968e-05 -1.685500e-05 2.634397e-09
4.299606e-05 -1.684109e-05 1.194861e-08
4.301936e-05 -1.684475e-05 2.795713e-08
4.302469e-05 -1.685724e-05 -2.532427e-08
4.266726e-05 -1.668114e-05 1.960750e-08
4.266719e-05 -1.668512e-05 -2.684461e-08
4.301516e-05 -1.684284e-05 2.126349e-08
4.301935e-05 -1.685479e-05 -2.052722e-08
4.266249e-05 -1.667902e-05 2.145434e-08
4.266241e-05 -1.668306e-05 -2.952428e-08
4.300925e-05 -1.683963e-05 1.853360e-09
4.301910e-05 -1.684847e-05 -6.314974e-10
4.301209e-05 -1.684135e-05 1.467334e-08
4.301514e-05 -1.685274e-05 -1.577074e-08
4.265726e-05 -1.667679e-05 2.329957e-08
4.265718e-05 -1.668087e-05 -3.223315e-08
4.265158e-05 -1.667449e-05 2.512174e-08
4.265150e-05 -1.667855e-05 -3.494350e-08
4.300117e-05 -1.684083e-05 -1.957788e-08
4.300943e-05 -1.683938e-05 -4.360514e-09
4.264545e-05 -1.667214e-05 2.690083e-08
4.264537e-05 -1.667614e-05 -3.762554e-08
4.300523e-05 -1.684195e-05 -2.545796e-08
4.301066e-05 -1.683954e-05 -1.043728e-08
4.263889e-05 -1.666975e-05 2.862223e-08
4.263881e-05 -1.667365e-05 -4.025099e-08
4.301025e-05 -1.684345e-05 -3.119283e-08
4.301290e-05 -1.684009e-05 -1.637439e-08
4.263191e-05 -1.666734e-05 3.027912e-08
4.263183e-05 -1.667111e-05 -4.279665e-08
4.301620e-05 -1.684531e-05 -3.678240e-08
4.301614e-05 -1.684103e-05 -2.217046e-08
4.262453e-05 -1.666493e-05 3.186912e-08
4.262445e-05 -1.666853e-05 -4.524309e-08
4.302306e-05 -1.684753e-05 -4.222691e-08
4.302035e-05 -1.684235e-05 -2.782489e-08
4.260863e-05 -1.666007e-05 3.482099e-08
4.261668e-05 -1.666590e-05 -4.756862e-08
4.303082e-05 -1.685010e-05 -4.752671e-08
4.302551e-05 -1.684404e-05 -3.333758e-08
4.260015e-05 -1.665759e-05 3.615153e-08
4.260854e-05 -1.666321e-05 -4.974620e-08
4.303943e-05 -1.685300e-05 -5.268225e-08
4.303160e-05 -1.684609e-05 -3.870874e-08
4.259136e-05 -1.665508e-05 3.735761e-08
4.260006e-05 -1.666044e-05 -5.174620e-08
4.304885e-05 -1.685622e-05 5.769668e-08
4.303858e-05 -1.684849e-05 -4.393876e-08
4.258228e-05 -1.665252e-05 3.841876e-08
4.259126e-05 -1.665759e-05 -5.354035e-08
4.305916e-05 -1.685979e-05 -6.256230e-08
4.304644e-05 -1.685123e-05 -4.902811e-08
4.258219e-05 -1.665467e-05 -5.510404e-08
4.307024e-05 -1.686366e-05 -6.728762e-08
4.305516e-05 -1.685431e-05 -5.397726e-08
4.257296e-05 -1.664992e-05 3.931702e-08
4.257287e-05 -1.665167e-05 -5.641710e-08
4.306471e-05 -1.685772e-05 -5.878668e-08
4.256336e-05 -1.664861e-05 -5.746382e-08
4.307507e-05 -1.686144e-05 -6.345677e-08
4.308208e-05 -1.686783e-05 -7.187026e-08
4.306471e-05 -1.686476e-05 4.162592e-08
4.255370e-05 -1.664551e-05 -5.823236e-08
4.311076e-05 -1.687441e-05 -7.663437e-08
4.312390e-05 -1.688280e-05 -5.412595e-08
4.308621e-05 -1.686547e-05 -6.798789e-08
4.311114e-05 -1.688218e-05 -3.102844e-08
4.254403e-05 -1.664191e-05 4.090170e-08
4.254394e-05 -1.664238e-05 -5.871413e-08
4.253422e-05 -1.663921e-05 4.102988e-08
4.253413e-05 -1.663923e-05 -5.890310e-08
4.315212e-05 -1.689291e-05 -9.265071e-08
4.312413e-05 -1.687930e-05 -8.075015e-08
4.252440e-05 -1.663651e-05 4.094868e-08
4.252431e-05 -1.663609e-05 -5.879518e-08
4.316813e-05 -1.689871e-05 -9.638106e-08
4.313818e-05 -1.688447e-05 -8.472781e-08
4.251463e-05 -1.663384e-05 4.065494e-08
4.251455e-05 -1.663297e-05 -5.838776e-08
4.318476e-05 -1.690475e-05 -9.996959e-08
4.315291e-05 -1.688990e-05 -8.856743e-08
4.250496e-05 -1.663122e-05 4.014659e-08
4.250488e-05 -1.662989e-05 -5.767927e-08
4.320197e-05 -1.691102e-05 -1.034163e-07
4.316829e-05 -1.689558e-05 -9.226906e-08
4.249544e-05 -1.662865e-05 3.942234e-08
4.249536e-05 -1.662686e-05 -5.666885e-08
4.321971e-05 -1.691750e-05 1.067237e-07
4.318429e-05 -1.690151e-05 -9.583273e-08
4.248612e-05 -1.662616e-05 3.848144e-08
4.248604e-05 -1.662392e-05 -5.535616e-08
4.323808e-05 -1.692423e-05 -1.098839e-07
4.320090e-05 -1.690768e-05 -9.925840e-08
4.246827e-05 -1.662149e-05 3.594844e-08
4.247696e-05 -1.662108e-05 -5.374112e-08
4.325694e-05 -1.693114e-05 -1.129048e-07
4.321808e-05 -1.691407e-05 -1.025461e-07
4.246819e-05 -1.661835e-05 -5.182386e-08
4.327624e-05 -1.693823e-05 1.157864e-07
4.323582e-05 -1.692068e-05 -1.056956e-07
4.321814e-05 -1.691888e-05 7.302561e-08
4.245984e-05 -1.661936e-05 3.435617e-08
4.245977e-05 -1.661576e-05 -4.960456e-08
4.329612e-05 -1.694554e-05 -1.185207e-07
4.325410e-05 -1.692750e-05 -1.087071e-07
4.323588e-05 -1.692528e-05 7.528438e-08
4.245182e-05 -1.661738e-05 3.254674e-08
4.245175e-05 -1.661332e-05 -4.708341e-08
4.331640e-05 -1.695301e-05 -1.211156e-07
4.327289e-05 -1.693452e-05 -1.115804e-07
4.244424e-05 -1.661557e-05 3.052018e-08
4.244418e-05 -1.661107e-05 -4.426055e-08
4.329217e-05 -1.694173e-05 -1.143155e-07
4.327296e-05 -1.693871e-05 7.950431e-08
4.243717e-05 -1.661396e-05 2.827649e-08
4.243711e-05 -1.660900e-05 -4.113605e-08
4.331191e-05 -1.694912e-05 -1.169125e-07
4.333712e-05 -1.696066e-05 -1.235687e-07
4.329224e-05 -1.694572e-05 8.146550e-08
4.243065e-05 -1.661257e-05 2.581562e-08
4.243059e-05 -1.660716e-05 -3.770990e-08
4.337369e-05 -1.697230e-05 -1.238748e-07
4.338765e-05 -1.697932e-05 -8.602841e-08
4.333209e-05 -1.695668e-05 -1.193712e-07
4.336676e-05 -1.697361e-05 -5.143920e-08
4.242467e-05 -1.660555e-05 -3.398195e-08
4.241940e-05 -1.660419e-05 -2.995198e-08
4.344633e-05 -1.700110e-05 -1.337152e-07
4.339507e-05 -1.698034e-05 -1.259200e-07
4.241488e-05 -1.660989e-05 1.712845e-08
4.241483e-05 -1.660311e-05 -2.561966e-08
4.346914e-05 -1.700957e-05 -1.353230e-07
4.341679e-05 -1.698851e-05 -1.278279e-07
4.241106e-05 -1.660956e-05 1.379724e-08
4.241102e-05 -1.660232e-05 -2.098463e-08
4.349222e-05 -1.701815e-05 -1.367906e-07
4.343884e-05 -1.699681e-05 -1.295988e-07
4.240804e-05 -1.660954e-05 1.024804e-08
4.240800e-05 -1.660185e-05 -1.604649e-08
4.351554e-05 -1.702684e-05 -1.381180e-07
4.346120e-05 -1.700524e-05 -1.312330e-07
4.240588e-05 -1.660985e-05 6.480902e-09
4.240584e-05 -1.660171e-05 -1.080495e-08
4.353909e-05 -1.703561e-05 -1.393052e-07
4.348383e-05 -1.701377e-05 -1.327307e-07
4.240462e-05 -1.661052e-05 2.496193e-09
4.240458e-05 -1.660192e-05 -5.259928e-09
4.356283e-05 -1.704446e-05 -1.403526e-07
4.350673e-05 -1.702241e-05 -1.340920e-07
4.240500e-05 -1.661299e-05 -6.121556e-09
4.240427e-05 -1.660250e-05 5.882694e-10
4.358670e-05 -1.705336e-05 1.412631e-07
4.352986e-05 -1.703115e-05 -1.353171e-07
4.240674e-05 -1.661482e-05 -1.075005e-08
4.240496e-05 -1.660347e-05 6.738659e-09
4.361083e-05 -1.706236e-05 -1.420296e-07
4.355320e-05 -1.703997e-05 -1.364063e-07
4.240671e-05 -1.660484e-05 1.318924e-08
4.363503e-05 -1.707139e-05 -1.426595e-07
4.357673e-05 -1.704886e-05 -1.373598e-07
4.240959e-05 -1.661706e-05 -1.558616e-08
4.240956e-05 -1.660664e-05 1.993646e-08
4.365935e-05 -1.708047e-05 -1.431506e-07
4.360043e-05 -1.705782e-05 -1.381778e-07
4.241359e-05 -1.661974e-05 -2.062314e-08
4.241355e-05 -1.660888e-05 2.697465e-08
4.362427e-05 -1.706684e-05 -1.388607e-07
4.360054e-05 -1.705901e-05 9.858170e-08
4.241879e-05 -1.662287e-05 -2.585127e-08
4.241875e-05 -1.661158e-05 3.429513e-08
4.364823e-05 -1.707590e-05 -1.394084e-07
4.368375e-05 -1.708958e-05 -1.435027e-07
4.242523e-05 -1.662643e-05 -3.125700e-08
4.242519e-05 -1.661475e-05 4.188521e-08
4.372059e-05 -1.710329e-05 -1.402400e-07
4.373284e-05 -1.710799e-05 -9.662919e-08
4.367228e-05 -1.708501e-05 -1.398209e-07
4.370896e-05 -1.709921e-05 -5.878076e-08
4.243297e-05 -1.663045e-05 -3.682207e-08
4.243293e-05 -1.661839e-05 4.972707e-08
4.244204e-05 -1.663491e-05 -4.252267e-08
4.244199e-05 -1.662252e-05 5.779639e-08
4.380620e-05 -1.713533e-05 -1.431747e-07
4.374480e-05 -1.711246e-05 -1.402463e-07
4.245243e-05 -1.662713e-05 6.606119e-08
4.383062e-05 -1.714445e-05 -1.426898e-07
4.376901e-05 -1.712162e-05 -1.401168e-07
4.246426e-05 -1.663222e-05 7.448099e-08
4.385496e-05 -1.715355e-05 -1.420644e-07
4.379320e-05 -1.713078e-05 -1.398511e-07
4.247758e-05 -1.665079e-05 -6.011247e-08
4.247751e-05 -1.663777e-05 8.300705e-08
4.387920e-05 -1.716260e-05 -1.412983e-07
4.381734e-05 -1.713992e-05 -1.394492e-07
4.249228e-05 -1.665683e-05 -6.601018e-08
4.249219e-05 -1.664375e-05 9.158458e-08
4.384142e-05 -1.714904e-05 -1.389105e-07
4.250840e-05 -1.666317e-05 -7.186554e-08
4.250830e-05 -1.665013e-05 1.001581e-07
4.392720e-05 -1.718052e-05 1.393450e-07
4.386541e-05 -1.715812e-05 -1.382350e-07
4.252593e-05 -1.666979e-05 -7.765921e-08
4.252581e-05 -1.665685e-05 1.086788e-07
4.395105e-05 -1.718942e-05 -1.381525e-07
4.388928e-05 -1.716716e-05 -1.374221e-07
4.386552e-05 -1.715712e-05 9.859637e-08
4.256517e-05 -1.668380e-05 -8.903640e-08
4.254472e-05 -1.666389e-05 1.171082e-07
4.397463e-05 -1.719821e-05 -1.368204e-07
4.391301e-05 -1.717614e-05 -1.364718e-07
4.388939e-05 -1.716596e-05 9.801084e-08
4.256501e-05 -1.667125e-05 1.254085e-07
4.399799e-05 -1.720692e-05 -1.353461e-07
4.393658e-05 -1.718506e-05 -1.353835e-07
4.391311e-05 -1.717474e-05 9.732671e-08
4.258685e-05 -1.669121e-05 -9.459784e-08
4.258667e-05 -1.667897e-05 1.335327e-07
4.395995e-05 -1.719390e-05 -1.341571e-07
4.393668e-05 -1.718345e-05 9.654377e-08
4.260987e-05 -1.669894e-05 -1.000375e-07
4.260967e-05 -1.668709e-05 1.414254e-07
4.398312e-05 -1.720266e-05 -1.327922e-07
4.402110e-05 -1.721554e-05 -1.337291e-07
4.263422e-05 -1.670700e-05 -1.053157e-07
4.263400e-05 -1.669563e-05 1.490298e-07
4.405110e-05 -1.722836e-05 -1.278634e-07
4.405932e-05 -1.722991e-05 -8.741276e-08
4.400605e-05 -1.721133e-05 -1.312885e-07
4.403739e-05 -1.722015e-05 -5.392233e-08
4.265983e-05 -1.671541e-05 -1.103915e-07
4.265958e-05 -1.670459e-05 1.562947e-07
4.268664e-05 -1.672418e-05 -1.152273e-07
4.268638e-05 -1.671397e-05 1.631763e-07
4.413205e-05 -1.725680e-05 -1.234945e-07
4.407317e-05 -1.723669e-05 -1.259414e-07
4.271460e-05 -1.673332e-05 -1.197909e-07
4.271432e-05 -1.672376e-05 1.696392e-07
4.415315e-05 -1.726462e-05 -1.210155e-07
4.409491e-05 -1.724489e-05 -1.238793e-07
4.274363e-05 -1.674282e-05 -1.240564e-07
4.274333e-05 -1.673395e-05 1.756562e-07
4.417382e-05 -1.727228e-05 -1.183919e-07
4.411628e-05 -1.725296e-05 -1.216768e-07
4.277333e-05 -1.674450e-05 1.812062e-07
4.419405e-05 -1.727977e-05 -1.156235e-07
4.413727e-05 -1.726087e-05 -1.193336e-07
4.280426e-05 -1.675541e-05 1.862739e-07
4.421374e-05 -1.728704e-05 1.127127e-07
4.415785e-05 -1.726862e-05 -1.168495e-07
4.283638e-05 -1.677332e-05 -1.348817e-07
4.283602e-05 -1.676663e-05 1.908481e-07
4.423306e-05 -1.729417e-05 -1.096530e-07
4.417799e-05 -1.727620e-05 -1.142242e-07
4.290211e-05 -1.679510e-05 -1.403442e-07
4.286854e-05 -1.677815e-05 1.949206e-07
4.425179e-05 -1.730108e-05 -1.064517e-07
4.419767e-05 -1.728360e-05 -1.114578e-07
4.293590e-05 -1.680635e-05 -1.425298e-07
4.290173e-05 -1.678992e-05 1.984857e-07
4.426997e-05 -1.730777e-05 -1.031076e-07
4.421687e-05 -1.729081e-05 -1.085502e-07
4.297019e-05 -1.681779e-05 -1.443470e-07
4.293550e-05 -1.680193e-05 2.015392e-07
4.428758e-05 -1.731423e-05 -9.962242e-08
4.423555e-05 -1.729782e-05 -1.055017e-07
4.421691e-05 -1.728654e-05 7.727578e-08
4.300490e-05 -1.682939e-05 -1.457935e-07
4.296978e-05 -1.681414e-05 2.040781e-07
4.430459e-05 -1.732047e-05 -9.599872e-08
4.425370e-05 -1.730463e-05 -1.023131e-07
4.300448e-05 -1.682651e-05 2.061000e-07
4.427128e-05 -1.731121e-05 -9.898539e-08
4.303993e-05 -1.684112e-05 -1.468676e-07
4.303951e-05 -1.683901e-05 2.076032e-07
4.428828e-05 -1.731757e-05 -9.552055e-08
4.432097e-05 -1.732647e-05 -9.224030e-08
4.307520e-05 -1.685295e-05 -1.475679e-07
4.307477e-05 -1.685161e-05 2.085860e-07
4.433551e-05 -1.733520e-05 -8.433756e-08
4.433668e-05 -1.733235e-05 -5.666945e-08
4.430467e-05 -1.732369e-05 -9.192136e-08
4.432216e-05 -1.732358e-05 -3.599162e-08
4.311063e-05 -1.686483e-05 -1.478932e-07
4.311020e-05 -1.686427e-05 2.090469e-07
4.314612e-05 -1.687675e-05 -1.478423e-07
4.314569e-05 -1.687696e-05 2.089844e-07
4.439254e-05 -1.735267e-05 -7.168512e-08
4.434992e-05 -1.734057e-05 -8.036596e-08
4.318158e-05 -1.688865e-05 -1.474143e-07
4.318115e-05 -1.688965e-05 2.083970e-07
4.440461e-05 -1.735714e-05 -6.730233e-08
4.436363e-05 -1.734568e-05 -7.628658e-08
4.321694e-05 -1.690052e-05 -1.466080e-07
4.321651e-05 -1.690229e-05 2.072831e-07
4.441590e-05 -1.736135e-05 -6.285996e-08
4.437662e-05 -1.735054e-05 -7.211101e-08
4.325208e-05 -1.691230e-05 -1.454222e-07
4.325166e-05 -1.691485e-05 2.056411e-07
4.438888e-05 -1.735513e-05 -6.785228e-08
4.328693e-05 -1.692397e-05 -1.438558e-07
4.328651e-05 -1.692731e-05 2.034691e-07
4.443597e-05 -1.736899e-05 5.381933e-08
4.440039e-05 -1.735946e-05 -6.352348e-08
4.332098e-05 -1.693961e-05 2.007654e-07
4.444489e-05 -1.737246e-05 -4.923237e-08
4.441115e-05 -1.736355e-05 -5.913587e-08
4.440037e-05 -1.735316e-05 4.527622e-08
4.335497e-05 -1.695173e-05 1.975282e-07
4.445291e-05 -1.737562e-05 -4.461667e-08
4.442114e-05 -1.736739e-05 -5.469856e-08
4.441112e-05 -1.735717e-05 4.220062e-08
4.338839e-05 -1.696363e-05 1.937555e-07
4.446012e-05 -1.737849e-05 -3.998736e-08
4.443036e-05 -1.737097e-05 -5.022092e-08
4.442111e-05 -1.736094e-05 3.908907e-08
4.345351e-05 -1.697930e-05 -1.302747e-07
4.342115e-05 -1.697527e-05 1.894458e-07
4.446651e-05 -1.738107e-05 -3.535831e-08
4.443879e-05 -1.737428e-05 -4.571472e-08
4.443032e-05 -1.736447e-05 3.594340e-08
4.345315e-05 -1.698662e-05 1.845975e-07
4.444643e-05 -1.737731e-05 -4.119331e-08
4.348465e-05 -1.698952e-05 -1.264028e-07
4.348430e-05 -1.699763e-05 1.792097e-07
4.445328e-05 -1.738005e-05 -3.666973e-08
4.447209e-05 -1.738336e-05 -3.074118e-08
4.351483e-05 -1.699937e-05 -1.221459e-07
4.351450e-05 -1.700828e-05 1.732821e-07
4.446908e-05 -1.738646e-05 -2.319025e-08
4.446420e-05 -1.738104e-05 -1.454120e-08
4.445934e-05 -1.738249e-05 -3.215542e-08
4.446006e-05 -1.737531e-05 -1.085630e-08
4.354397e-05 -1.700881e-05 -1.175060e-07
4.354366e-05 -1.701852e-05 1.668154e-07
4.357198e-05 -1.701782e-05 -1.124866e-07
4.357168e-05 -1.702833e-05 1.598122e-07
4.448818e-05 -1.739028e-05 -8.091345e-09
4.447278e-05 -1.738800e-05 -1.875231e-08
4.359876e-05 -1.702637e-05 -1.070939e-07
4.359847e-05 -1.703766e-05 1.522773e-07
4.447570e-05 -1.738923e-05 -1.435011e-08
4.362421e-05 -1.703442e-05 -1.013372e-07
4.362394e-05 -1.704649e-05 1.442185e-07
4.448917e-05 -1.739094e-05 -6.947839e-10
4.447785e-05 -1.739016e-05 -9.986576e-09
4.364824e-05 -1.704196e-05 -9.523032e-08
4.364800e-05 -1.705477e-05 1.356485e-07
4.448865e-05 -1.739087e-05 5.019356e-09
4.447923e-05 -1.739080e-05 -5.663746e-09
4.367077e-05 -1.704897e-05 -8.879230e-08
4.367055e-05 -1.706250e-05 1.265856e-07
4.448733e-05 -1.739049e-05 9.300695e-09
4.447986e-05 -1.739114e-05 -1.383017e-09
4.369171e-05 -1.705542e-05 -8.204900e-08
4.369150e-05 -1.706963e-05 1.170557e-07
4.448527e-05 -1.738982e-05 1.353681e-08
4.447974e-05 -1.739119e-05 2.854677e-09
4.447981e-05 -1.738499e-05 1.156212e-09
4.371089e-05 -1.706130e-05 7.504390e-08
4.371079e-05 -1.707615e-05 1.070939e-07
4.448249e-05 -1.738887e-05 1.772745e-08
4.447888e-05 -1.739095e-05 7.048728e-09
4.447969e-05 -1.738510e-05 -1.880181e-09
4.372841e-05 -1.706666e-05 6.779730e-08
4.372832e-05 -1.708206e-05 9.674631e-08
4.447900e-05 -1.738764e-05 2.187249e-08
4.447729e-05 -1.739042e-05 1.119874e-08
4.375806e-05 -1.707588e-05 -5.280673e-08
4.374405e-05 -1.708735e-05 8.607034e-08
4.447481e-05 -1.738613e-05 2.597182e-08
4.447497e-05 -1.738961e-05 1.530447e-08
4.377002e-05 -1.707977e-05 -4.517107e-08
4.375792e-05 -1.709204e-05 7.513370e-08
4.447193e-05 -1.738852e-05 1.936576e-08
4.376989e-05 -1.709616e-05 6.400950e-08
4.446818e-05 -1.738714e-05 2.338250e-08
4.446991e-05 -1.738435e-05 3.002538e-08
4.378008e-05 -1.708324e-05 -3.749067e-08
4.377996e-05 -1.709977e-05 5.276704e-08
4.445276e-05 -1.738139e-05 3.516483e-08
4.444372e-05 -1.737482e-05 2.553921e-08
4.446373e-05 -1.738550e-05 2.735462e-08
4.444982e-05 -1.737361e-05 1.387824e-08
4.378823e-05 -1.708631e-05 -2.978188e-08
4.378813e-05 -1.710290e-05 4.146312e-08
4.379448e-05 -1.708898e-05 -2.205141e-08
4.379438e-05 -1.710555e-05 3.014641e-08
4.443525e-05 -1.737145e-05 4.960553e-08
4.444625e-05 -1.737893e-05 3.900287e-08
4.379880e-05 -1.709123e-05 -1.431418e-08
4.379870e-05 -1.710768e-05 1.887257e-08
4.442634e-05 -1.736810e-05 5.338391e-08
4.443907e-05 -1.737622e-05 4.279613e-08
4.380119e-05 -1.709301e-05 -6.603942e-09
4.380110e-05 -1.710924e-05 7.710287e-09
4.441679e-05 -1.736449e-05 5.711640e-08
4.443124e-05 -1.737324e-05 4.654463e-08
4.380167e-05 -1.709429e-05 1.030838e-09
4.380158e-05 -1.711017e-05 -3.266717e-09
4.440660e-05 -1.736064e-05 6.080296e-08
4.442275e-05 -1.737001e-05 5.024836e-08
4.380027e-05 -1.709501e-05 8.537339e-09
4.380018e-05 -1.711047e-05 -1.398932e-08
4.441361e-05 -1.736653e-05 5.390731e-08
4.379704e-05 -1.709516e-05 1.586581e-08
4.379695e-05 -1.711011e-05 -2.439822e-08
4.438431e-05 -1.735218e-05 -6.803966e-08
4.440384e-05 -1.736280e-05 5.752149e-08
4.379205e-05 -1.709473e-05 2.297333e-08
4.379195e-05 -1.710911e-05 -3.444547e-08
4.437234e-05 -1.734762e-05 7.158613e-08
4.439344e-05 -1.735882e-05 6.109086e-08
4.440381e-05 -1.735762e-05 -4.106072e-08
4.377702e-05 -1.709210e-05 3.639361e-08
4.378525e-05 -1.710747e-05 -4.409402e-08
4.435972e-05 -1.734281e-05 7.508746e-08
4.438242e-05 -1.735460e-05 6.461536e-08
4.439342e-05 -1.735370e-05 -4.361963e-08
4.377694e-05 -1.709207e-05 -3.640706e-08
4.377691e-05 -1.710523e-05 -5.331622e-08
4.434650e-05 -1.733777e-05 7.854127e-08
4.437078e-05 -1.735013e-05 6.809487e-08
4.438240e-05 -1.734955e-05 -4.614643e-08
4.376702e-05 -1.710238e-05 -6.209213e-08
4.435855e-05 -1.734544e-05 7.152911e-08
4.437077e-05 -1.734515e-05 -4.864093e-08
4.374305e-05 -1.708397e-05 5.422438e-08
4.375566e-05 -1.709898e-05 -7.040783e-08
4.434572e-05 -1.734051e-05 7.491761e-08
4.433270e-05 -1.733251e-05 8.194641e-08
4.372899e-05 -1.708022e-05 5.950730e-08
4.374291e-05 -1.709503e-05 -7.825397e-08
4.430376e-05 -1.732437e-05 8.479829e-08
4.429138e-05 -1.731702e-05 5.958479e-08
4.433231e-05 -1.733535e-05 7.825957e-08
4.430618e-05 -1.731977e-05 3.496989e-08
4.372885e-05 -1.709058e-05 -8.562459e-08
4.371372e-05 -1.707599e-05 6.445015e-08
4.371357e-05 -1.708565e-05 -9.251610e-08
4.425529e-05 -1.730296e-05 9.814453e-08
4.428864e-05 -1.731855e-05 8.799036e-08
4.369730e-05 -1.707133e-05 6.905024e-08
4.369714e-05 -1.708027e-05 -9.892664e-08
4.423817e-05 -1.729645e-05 1.011799e-07
4.427297e-05 -1.731252e-05 9.112599e-08
4.367982e-05 -1.706625e-05 7.330611e-08
4.367966e-05 -1.707448e-05 -1.048555e-07
4.422054e-05 -1.728977e-05 1.041248e-07
4.425677e-05 -1.730630e-05 9.419968e-08
4.366138e-05 -1.706079e-05 7.721721e-08
4.366120e-05 -1.706832e-05 -1.103028e-07
4.420232e-05 -1.728289e-05 -1.069680e-07
4.424005e-05 -1.729987e-05 9.720406e-08
4.364204e-05 -1.705498e-05 8.078351e-08
4.364185e-05 -1.706180e-05 -1.152689e-07
4.418373e-05 -1.727591e-05 1.096843e-07
4.422281e-05 -1.729326e-05 1.001296e-07
4.362190e-05 -1.704886e-05 8.400537e-08
4.362171e-05 -1.705497e-05 -1.197548e-07
4.416459e-05 -1.726878e-05 1.122675e-07
4.420507e-05 -1.728647e-05 1.029645e-07
4.360103e-05 -1.704245e-05 8.688332e-08
4.360084e-05 -1.704786e-05 -1.237614e-07
4.414498e-05 -1.726153e-05 1.147046e-07
4.418686e-05 -1.727953e-05 1.056952e-07
4.357953e-05 -1.703579e-05 8.941805e-08
4.357933e-05 -1.704050e-05 -1.272898e-07
4.412494e-05 -1.725418e-05 1.169918e-07
4.416819e-05 -1.727244e-05 1.083071e-07
4.418691e-05 -1.727568e-05 -7.538655e-08
4.355748e-05 -1.702892e-05 9.161022e-08
4.355727e-05 -1.703293e-05 -1.303409e-07
4.410449e-05 -1.724673e-05 1.191239e-07
4.414910e-05 -1.726524e-05 1.107871e-07
4.351203e-05 -1.701465e-05 9.496970e-08
4.353474e-05 -1.702517e-05 -1.329159e-07
4.408365e-05 -1.723919e-05 1.210892e-07
4.412960e-05 -1.725793e-05 1.131248e-07
4.348881e-05 -1.700732e-05 9.613830e-08
4.351181e-05 -1.701726e-05 -1.350156e-07
4.410972e-05 -1.725053e-05 1.153106e-07
4.348875e-05 -1.700730e-05 -9.615291e-08
4.348859e-05 -1.700923e-05 -1.366410e-07
4.408949e-05 -1.724303e-05 1.173336e-07
4.406248e-05 -1.723156e-05 1.228721e-07
4.346530e-05 -1.699988e-05 -9.698166e-08
4.346513e-05 -1.700112e-05 -1.377931e-07
4.402699e-05 -1.722001e-05 1.222881e-07
4.401447e-05 -1.721440e-05 8.451577e-08
4.406894e-05 -1.723545e-05 1.191800e-07
4.403542e-05 -1.722063e-05 5.060023e-08
4.344154e-05 -1.699295e-05 -1.384726e-07
4.341810e-05 -1.698493e-05 9.760746e-08
4.341788e-05 -1.698476e-05 -1.386804e-07
4.395293e-05 -1.719232e-05 1.285919e-07
4.400566e-05 -1.721217e-05 1.235263e-07
4.339446e-05 -1.697744e-05 9.742066e-08
4.339424e-05 -1.697658e-05 -1.384175e-07
4.393059e-05 -1.718434e-05 1.290378e-07
4.398415e-05 -1.720428e-05 1.245418e-07
4.337092e-05 -1.696999e-05 9.689725e-08
4.337070e-05 -1.696844e-05 -1.376850e-07
4.390821e-05 -1.717634e-05 1.292406e-07
4.396249e-05 -1.719633e-05 1.253285e-07
4.334755e-05 -1.696261e-05 9.603868e-08
4.334734e-05 -1.696036e-05 -1.364844e-07
4.394073e-05 -1.718835e-05 1.258818e-07
4.332444e-05 -1.695532e-05 9.484702e-08
4.332424e-05 -1.695239e-05 -1.348176e-07
4.386343e-05 -1.716036e-05 -1.289165e-07
4.391891e-05 -1.718035e-05 1.261986e-07
4.330167e-05 -1.694817e-05 9.332521e-08
4.330147e-05 -1.694455e-05 -1.326873e-07
4.384122e-05 -1.715243e-05 1.283758e-07
4.389706e-05 -1.717234e-05 1.262770e-07
4.391901e-05 -1.718013e-05 -8.956082e-08
4.327931e-05 -1.694116e-05 9.147744e-08
4.327912e-05 -1.693688e-05 -1.300974e-07
4.381908e-05 -1.714454e-05 1.275948e-07
4.387524e-05 -1.716434e-05 1.261157e-07
4.389716e-05 -1.717247e-05 -8.961710e-08
4.325745e-05 -1.693434e-05 8.930958e-08
4.325727e-05 -1.692938e-05 -1.270535e-07
4.379711e-05 -1.713672e-05 1.265674e-07
4.385347e-05 -1.715637e-05 1.257144e-07
4.387534e-05 -1.716482e-05 -8.950289e-08
4.323615e-05 -1.692772e-05 8.682978e-08
4.323598e-05 -1.692211e-05 -1.235632e-07
4.377535e-05 -1.712897e-05 1.252939e-07
4.383181e-05 -1.714844e-05 1.250727e-07
4.385357e-05 -1.715720e-05 -8.921729e-08
4.321549e-05 -1.692131e-05 8.404906e-08
4.321533e-05 -1.691507e-05 -1.196375e-07
4.381029e-05 -1.714057e-05 1.241908e-07
4.319555e-05 -1.691515e-05 8.098204e-08
4.319540e-05 -1.690829e-05 -1.152910e-07
4.378896e-05 -1.713276e-05 1.230690e-07
4.375383e-05 -1.712132e-05 1.237747e-07
4.315808e-05 -1.690358e-05 7.406890e-08
4.317625e-05 -1.690180e-05 -1.105434e-07
4.372649e-05 -1.710996e-05 1.182682e-07
4.371968e-05 -1.710931e-05 8.059403e-08
4.376786e-05 -1.712505e-05 1.217077e-07
4.373975e-05 -1.711810e-05 4.955298e-08
4.315795e-05 -1.689560e-05 -1.054201e-07
4.314057e-05 -1.688971e-05 -9.995310e-08
4.365139e-05 -1.708510e-05 1.125060e-07
4.370630e-05 -1.710261e-05 1.161908e-07
4.312414e-05 -1.688412e-05 -9.418035e-08
4.363221e-05 -1.707837e-05 1.095198e-07
4.368651e-05 -1.709542e-05 1.138755e-07
4.310881e-05 -1.688809e-05 6.215672e-08
4.310872e-05 -1.687884e-05 -8.814422e-08
4.361353e-05 -1.707184e-05 -1.062960e-07
4.366715e-05 -1.708839e-05 1.113224e-07
4.309442e-05 -1.688339e-05 5.788973e-08
4.309434e-05 -1.687383e-05 -8.188702e-08
4.359549e-05 -1.706555e-05 1.028159e-07
4.364826e-05 -1.708155e-05 1.085318e-07
4.308109e-05 -1.687889e-05 5.350601e-08
4.308102e-05 -1.686909e-05 -7.544519e-08
4.357802e-05 -1.705949e-05 9.909836e-08
4.362987e-05 -1.707491e-05 1.055039e-07
4.306884e-05 -1.687461e-05 4.901024e-08
4.306878e-05 -1.686460e-05 -6.884773e-08
4.356119e-05 -1.705369e-05 9.513706e-08
4.361204e-05 -1.706848e-05 1.022387e-07
4.305771e-05 -1.687055e-05 4.440705e-08
4.305766e-05 -1.686038e-05 -6.212361e-08
4.354506e-05 -1.704815e-05 9.093208e-08
4.359480e-05 -1.706229e-05 9.873613e-08
4.361211e-05 -1.707350e-05 -7.240321e-08
4.304772e-05 -1.686675e-05 3.971028e-08
4.304767e-05 -1.685649e-05 -5.530904e-08
4.352966e-05 -1.704290e-05 8.648364e-08
4.357819e-05 -1.705634e-05 9.499623e-08
4.303888e-05 -1.686325e-05 3.494441e-08
4.303884e-05 -1.685296e-05 -4.844585e-08
4.351502e-05 -1.703795e-05 8.179227e-08
4.356225e-05 -1.705066e-05 9.101894e-08
4.303122e-05 -1.686007e-05 3.013937e-08
4.303118e-05 -1.684981e-05 -4.157564e-08
4.354702e-05 -1.704525e-05 8.680429e-08
4.301937e-05 -1.685480e-05 2.052884e-08
4.302468e-05 -1.684706e-05 -3.473550e-08
4.353254e-05 -1.704014e-05 8.235252e-08
4.350119e-05 -1.703332e-05 7.685902e-08
4.301517e-05 -1.685274e-05 1.577291e-08
4.301934e-05 -1.684474e-05 -2.795623e-08
4.349398e-05 -1.702670e-05 6.758317e-08
4.349685e-05 -1.703253e-05 4.443983e-08
4.351884e-05 -1.703533e-05 7.766418e-08
4.350805e-05 -1.704090e-05 2.883034e-08
4.301209e-05 -1.685108e-05 1.107539e-08
4.301514e-05 -1.684283e-05 -2.126212e-08
4.301207e-05 -1.685108e-05 -1.107280e-08
4.301207e-05 -1.684134e-05 -1.467158e-08
4.344553e-05 -1.701532e-05 4.868245e-08
4.348289e-05 -1.702291e-05 6.219572e-08
4.301010e-05 -1.684027e-05 -8.198066e-09
4.343739e-05 -1.701284e-05 4.239963e-08
4.347275e-05 -1.701947e-05 5.658316e-08
4.300922e-05 -1.683961e-05 -1.851066e-09
4.343033e-05 -1.701074e-05 3.593663e-08
4.346359e-05 -1.701641e-05 5.075313e-08
4.300943e-05 -1.684853e-05 -2.546619e-09
4.300941e-05 -1.683937e-05 4.362968e-09
4.345544e-05 -1.701374e-05 4.471662e-08
4.301066e-05 -1.684848e-05 -6.905682e-09
4.301063e-05 -1.683953e-05 1.043985e-08
4.341966e-05 -1.700770e-05 -2.258741e-08
4.344835e-05 -1.701145e-05 3.848903e-08
4.301291e-05 -1.684882e-05 -1.116698e-08
4.301288e-05 -1.684008e-05 1.637705e-08
4.341615e-05 -1.700675e-05 1.577287e-08
4.344234e-05 -1.700956e-05 3.209124e-08
4.344835e-05 -1.702079e-05 -2.680712e-08
4.301615e-05 -1.684955e-05 -1.532848e-08
4.301612e-05 -1.684102e-05 2.217319e-08
4.341388e-05 -1.700615e-05 8.933659e-09
4.343744e-05 -1.700806e-05 2.555057e-08
4.344234e-05 -1.701914e-05 -2.229294e-08
4.302036e-05 -1.685066e-05 -1.938904e-08
4.302033e-05 -1.684234e-05 2.782765e-08
4.341288e-05 -1.700588e-05 2.117864e-09
4.343366e-05 -1.700694e-05 1.890141e-08
4.343744e-05 -1.701783e-05 -1.770412e-08
4.302552e-05 -1.685213e-05 -2.334811e-08
4.302548e-05 -1.684403e-05 3.334036e-08
4.341316e-05 -1.700590e-05 -4.633796e-09
4.343104e-05 -1.700619e-05 1.218475e-08
4.343366e-05 -1.701686e-05 -1.307044e-08
4.303161e-05 -1.685397e-05 -2.720554e-08
4.303157e-05 -1.684608e-05 3.871153e-08
4.342955e-05 -1.700579e-05 5.445821e-09
4.303860e-05 -1.685617e-05 -3.096143e-08
4.303855e-05 -1.684848e-05 4.394156e-08
4.342921e-05 -1.700569e-05 -1.271011e-09
4.341470e-05 -1.700619e-05 -1.130177e-08
4.304646e-05 -1.685870e-05 -3.461601e-08
4.304641e-05 -1.685122e-05 4.903090e-08
4.343483e-05 -1.700696e-05 -2.094201e-08
4.344706e-05 -1.701663e-05 -1.625705e-08
4.342998e-05 -1.700586e-05 -7.928399e-09
4.344387e-05 -1.702189e-05 -6.845418e-09
4.305519e-05 -1.686158e-05 -3.816959e-08
4.305513e-05 -1.685430e-05 5.398005e-08
4.307510e-05 -1.686829e-05 -4.497501e-08
4.306468e-05 -1.685770e-05 5.878946e-08
4.344054e-05 -1.701202e-05 -4.247403e-08
4.343888e-05 -1.700794e-05 -2.722566e-08
4.307504e-05 -1.686142e-05 6.345955e-08
4.344896e-05 -1.701415e-05 -4.796560e-08
4.344398e-05 -1.700924e-05 -3.330140e-08
4.308625e-05 -1.687211e-05 -4.822743e-08
4.308618e-05 -1.686545e-05 6.799067e-08
4.345831e-05 -1.701659e-05 -5.311883e-08
4.345010e-05 -1.701086e-05 -3.912492e-08
4.309809e-05 -1.686978e-05 7.238312e-08
4.346850e-05 -1.701932e-05 5.791684e-08
4.345720e-05 -1.701282e-05 -4.465726e-08
4.311073e-05 -1.687439e-05 7.663714e-08
4.347951e-05 -1.702234e-05 -6.231846e-08
4.346522e-05 -1.701510e-05 -4.986634e-08
4.312418e-05 -1.688534e-05 -5.738638e-08
4.312409e-05 -1.687929e-05 8.075291e-08
4.349121e-05 -1.702563e-05 -6.633330e-08
4.347410e-05 -1.701770e-05 -5.472695e-08
4.313824e-05 -1.689030e-05 -6.024043e-08
4.313815e-05 -1.688446e-05 8.473056e-08
4.350356e-05 -1.702915e-05 -6.994428e-08
4.348379e-05 -1.702059e-05 -5.921999e-08
4.315298e-05 -1.689553e-05 -6.299520e-08
4.315288e-05 -1.688989e-05 8.857018e-08
4.351648e-05 -1.703289e-05 -7.314486e-08
4.349422e-05 -1.702376e-05 -6.333144e-08
4.348381e-05 -1.702696e-05 4.090866e-08
4.316836e-05 -1.690101e-05 -6.565074e-08
4.316825e-05 -1.689557e-05 9.227182e-08
4.352990e-05 -1.703683e-05 -7.593059e-08
4.350532e-05 -1.702718e-05 -6.705126e-08
4.318437e-05 -1.690674e-05 -6.820708e-08
4.318426e-05 -1.690150e-05 9.583548e-08
4.351702e-05 -1.703083e-05 -7.037246e-08
4.320098e-05 -1.691270e-05 -7.066424e-08
4.320086e-05 -1.690766e-05 9.926115e-08
4.352927e-05 -1.703469e-05 -7.329030e-08
4.354376e-05 -1.704093e-05 -7.829853e-08
4.323592e-05 -1.692529e-05 -7.528097e-08
4.321805e-05 -1.691405e-05 1.025488e-07
4.356854e-05 -1.704727e-05 -7.959747e-08
4.357741e-05 -1.705134e-05 -5.478536e-08
4.354198e-05 -1.703874e-05 -7.580163e-08
4.356451e-05 -1.704911e-05 -3.185620e-08
4.325420e-05 -1.693191e-05 -7.744054e-08
4.323579e-05 -1.692066e-05 1.056984e-07
4.325407e-05 -1.692748e-05 1.087099e-07
4.361708e-05 -1.706304e-05 -8.382356e-08
4.358224e-05 -1.705170e-05 -8.087987e-08
4.329227e-05 -1.694573e-05 -8.146211e-08
4.327285e-05 -1.693450e-05 1.115832e-07
4.363207e-05 -1.706759e-05 -8.366101e-08
4.359613e-05 -1.705620e-05 -8.175112e-08
4.331202e-05 -1.695292e-05 -8.332419e-08
4.329213e-05 -1.694171e-05 1.143183e-07
4.364700e-05 -1.707212e-05 -8.307494e-08
4.361015e-05 -1.706075e-05 -8.221083e-08
4.331187e-05 -1.694910e-05 1.169152e-07
4.362421e-05 -1.706533e-05 -8.225864e-08
4.333221e-05 -1.696029e-05 -8.508725e-08
4.333206e-05 -1.695667e-05 1.193739e-07
4.367635e-05 -1.708098e-05 8.063903e-08
4.363825e-05 -1.706989e-05 -8.189419e-08
4.335266e-05 -1.696440e-05 1.216946e-07
4.369072e-05 -1.708530e-05 -7.877065e-08
4.365219e-05 -1.707442e-05 -8.111709e-08
4.363828e-05 -1.706908e-05 5.712945e-08
4.337366e-05 -1.697229e-05 1.238774e-07
4.370471e-05 -1.708946e-05 -7.648526e-08
4.366597e-05 -1.707889e-05 -7.992685e-08
4.365222e-05 -1.707301e-05 5.657096e-08
4.339520e-05 -1.698333e-05 -8.978411e-08
4.339503e-05 -1.698032e-05 1.259226e-07
4.371828e-05 -1.709346e-05 -7.377350e-08
4.367952e-05 -1.708326e-05 -7.832294e-08
4.366600e-05 -1.707687e-05 5.571574e-08
4.341693e-05 -1.699131e-05 -9.115304e-08
4.341675e-05 -1.698849e-05 1.278305e-07
4.369276e-05 -1.708752e-05 -7.630474e-08
4.367954e-05 -1.708063e-05 5.456342e-08
4.343898e-05 -1.699941e-05 -9.242402e-08
4.343880e-05 -1.699680e-05 1.296014e-07
4.370562e-05 -1.709163e-05 -7.387158e-08
4.373137e-05 -1.709727e-05 -7.063473e-08
4.346134e-05 -1.700763e-05 -9.359716e-08
4.346116e-05 -1.700522e-05 1.312356e-07
4.374120e-05 -1.710278e-05 -6.407598e-08
4.374024e-05 -1.709861e-05 -4.219547e-08
4.371803e-05 -1.709556e-05 -7.102281e-08
4.372995e-05 -1.709250e-05 -2.641361e-08
4.348398e-05 -1.701597e-05 -9.467239e-08
4.348379e-05 -1.701376e-05 1.327333e-07
4.350688e-05 -1.702441e-05 -9.564956e-08
4.350669e-05 -1.702240e-05 1.340946e-07
4.378700e-05 -1.711248e-05 -4.852887e-08
4.375182e-05 -1.710601e-05 -5.997710e-08
4.353001e-05 -1.703294e-05 -9.652863e-08
4.352982e-05 -1.703113e-05 1.353197e-07
4.379566e-05 -1.711456e-05 -4.283202e-08
4.376170e-05 -1.710895e-05 -5.546131e-08
4.355335e-05 -1.704156e-05 -9.730969e-08
4.355316e-05 -1.703995e-05 1.364088e-07
4.380333e-05 -1.711626e-05 -3.671789e-08
4.377077e-05 -1.711158e-05 -5.052944e-08
4.357689e-05 -1.705026e-05 -9.799292e-08
4.357669e-05 -1.704884e-05 1.373623e-07
4.380993e-05 -1.711756e-05 -3.019440e-08
4.377895e-05 -1.711386e-05 -4.518334e-08
4.362443e-05 -1.706784e-05 -9.906674e-08
4.360039e-05 -1.705780e-05 1.381803e-07
4.381532e-05 -1.711840e-05 2.328057e-08
4.378618e-05 -1.711577e-05 -3.942642e-08
4.362423e-05 -1.706682e-05 1.388632e-07
4.381964e-05 -1.711885e-05 -1.597187e-08
4.379238e-05 -1.711729e-05 -3.326426e-08
4.364839e-05 -1.707671e-05 -9.945767e-08
4.364819e-05 -1.707589e-05 1.394109e-07
4.382259e-05 -1.711882e-05 -8.313569e-09
4.379748e-05 -1.711839e-05 -2.670546e-08
4.367244e-05 -1.708562e-05 -9.975137e-08
4.367224e-05 -1.708499e-05 1.398234e-07
4.382418e-05 -1.711831e-05 -3.306297e-10
4.380141e-05 -1.711904e-05 -1.976276e-08
4.369637e-05 -1.709412e-05 1.401006e-07
4.382433e-05 -1.711731e-05 7.934758e-09
4.380412e-05 -1.711924e-05 -1.245429e-08
4.380137e-05 -1.710859e-05 1.264000e-08
4.372055e-05 -1.710328e-05 1.402425e-07
4.380553e-05 -1.711896e-05 -4.805010e-09
4.374496e-05 -1.711247e-05 -1.000491e-07
4.374476e-05 -1.711244e-05 1.402488e-07
4.380558e-05 -1.711820e-05 3.151777e-09
4.382296e-05 -1.711585e-05 1.642932e-08
4.376917e-05 -1.712144e-05 -9.995353e-08
4.376897e-05 -1.712161e-05 1.401192e-07
4.379720e-05 -1.711304e-05 2.839300e-08
4.378034e-05 -1.709917e-05 2.278253e-08
4.380424e-05 -1.711695e-05 1.137330e-08
4.378556e-05 -1.709403e-05 1.084380e-08
4.379336e-05 -1.713040e-05 -9.976035e-08
4.379315e-05 -1.713076e-05 1.398536e-07
4.381750e-05 -1.713934e-05 -9.946938e-08
4.381730e-05 -1.713991e-05 1.394516e-07
4.379162e-05 -1.710217e-05 6.014742e-08
4.379147e-05 -1.711043e-05 3.706794e-08
4.384158e-05 -1.714826e-05 -9.908042e-08
4.384138e-05 -1.714902e-05 1.389130e-07
4.378034e-05 -1.709831e-05 6.883864e-08
4.378426e-05 -1.710746e-05 4.577494e-08
4.388943e-05 -1.716597e-05 -9.800777e-08
4.386536e-05 -1.715810e-05 1.382374e-07
4.376743e-05 -1.709404e-05 7.742191e-08
4.377558e-05 -1.710416e-05 5.446847e-08
4.391316e-05 -1.717475e-05 -9.732364e-08
4.388923e-05 -1.716714e-05 1.374246e-07
4.375295e-05 -1.708933e-05 8.582799e-08
4.376544e-05 -1.710051e-05 6.310677e-08
4.393672e-05 -1.718347e-05 -9.654071e-08
4.391296e-05 -1.717612e-05 1.364742e-07
4.373695e-05 -1.708417e-05 9.398929e-08
4.375385e-05 -1.709648e-05 7.163920e-08
4.396010e-05 -1.719211e-05 -9.565874e-08
4.393653e-05 -1.718504e-05 1.353859e-07
4.374080e-05 -1.709202e-05 8.000521e-08
4.395991e-05 -1.719388e-05 1.341595e-07
4.370069e-05 -1.707247e-05 -1.093628e-07
4.372633e-05 -1.708712e-05 8.814261e-08
4.398326e-05 -1.720067e-05 -9.467751e-08
4.398307e-05 -1.720264e-05 1.327946e-07
4.368072e-05 -1.706598e-05 1.164738e-07
4.371049e-05 -1.708174e-05 9.599486e-08
4.372635e-05 -1.707537e-05 -6.184898e-08
4.400619e-05 -1.720913e-05 -9.359679e-08
4.400600e-05 -1.721131e-05 1.312909e-07
4.365952e-05 -1.705905e-05 1.231787e-07
4.369333e-05 -1.707591e-05 1.035146e-07
4.371052e-05 -1.707047e-05 -6.733960e-08
4.402867e-05 -1.721988e-05 1.296481e-07
4.367491e-05 -1.706962e-05 1.106641e-07
4.369337e-05 -1.706516e-05 -7.263002e-08
4.405105e-05 -1.722833e-05 1.278658e-07
4.365529e-05 -1.706289e-05 1.174150e-07
4.363723e-05 -1.705172e-05 1.294490e-07
4.367496e-05 -1.705945e-05 -7.768583e-08
4.407330e-05 -1.723388e-05 -8.975555e-08
4.407312e-05 -1.723667e-05 1.259438e-07
4.359007e-05 -1.704030e-05 1.350959e-07
4.357065e-05 -1.702916e-05 9.427863e-08
4.363457e-05 -1.705575e-05 1.237462e-07
4.359319e-05 -1.703166e-05 5.435619e-08
4.409503e-05 -1.724188e-05 -8.827464e-08
4.409486e-05 -1.724487e-05 1.238817e-07
4.411640e-05 -1.724974e-05 -8.669315e-08
4.411623e-05 -1.725293e-05 1.216792e-07
4.351231e-05 -1.700995e-05 1.539414e-07
4.356646e-05 -1.703206e-05 1.400981e-07
4.413739e-05 -1.725744e-05 -8.501088e-08
4.413722e-05 -1.726085e-05 1.193360e-07
4.348519e-05 -1.700078e-05 1.574407e-07
4.354204e-05 -1.702350e-05 1.446459e-07
4.415796e-05 -1.726499e-05 -8.322770e-08
4.415780e-05 -1.726860e-05 1.168519e-07
4.345756e-05 -1.699140e-05 1.604719e-07
4.351689e-05 -1.701467e-05 1.487376e-07
4.417810e-05 -1.727236e-05 -8.134355e-08
4.417794e-05 -1.727618e-05 1.142266e-07
4.342943e-05 -1.698183e-05 -1.630469e-07
4.349110e-05 -1.700558e-05 1.523724e-07
4.419778e-05 -1.727956e-05 -7.935850e-08
4.419762e-05 -1.728358e-05 1.114601e-07
4.340103e-05 -1.697215e-05 1.651337e-07
4.346475e-05 -1.699628e-05 1.555508e-07
4.423564e-05 -1.729337e-05 -7.508691e-08
4.421682e-05 -1.729079e-05 1.085525e-07
4.337229e-05 -1.696234e-05 1.667667e-07
4.343790e-05 -1.698678e-05 1.582733e-07
4.423550e-05 -1.729780e-05 1.055040e-07
4.334334e-05 -1.695245e-05 1.679362e-07
4.341065e-05 -1.697713e-05 1.605412e-07
4.425378e-05 -1.729997e-05 -7.280176e-08
4.425365e-05 -1.730461e-05 1.023153e-07
4.331426e-05 -1.694251e-05 1.686434e-07
4.338307e-05 -1.696735e-05 1.623558e-07
4.341084e-05 -1.697425e-05 -1.133861e-07
4.427136e-05 -1.730635e-05 -7.041872e-08
4.427123e-05 -1.731119e-05 9.898757e-08
4.335523e-05 -1.695747e-05 1.637183e-07
4.428835e-05 -1.731251e-05 -6.793988e-08
4.428823e-05 -1.731755e-05 9.552266e-08
4.332723e-05 -1.694752e-05 1.646300e-07
4.328512e-05 -1.693254e-05 1.688895e-07
4.430474e-05 -1.731844e-05 -6.536821e-08
4.430461e-05 -1.732367e-05 9.192337e-08
4.324292e-05 -1.691759e-05 1.646731e-07
4.323052e-05 -1.691405e-05 1.127123e-07
4.329912e-05 -1.693754e-05 1.650923e-07
4.325798e-05 -1.692383e-05 6.816043e-08
4.432036e-05 -1.732955e-05 8.819371e-08
4.433546e-05 -1.733518e-05 8.433926e-08
4.314122e-05 -1.688345e-05 1.632423e-07
4.321499e-05 -1.690768e-05 1.637937e-07
4.434997e-05 -1.733478e-05 -5.714413e-08
4.434987e-05 -1.734055e-05 8.036747e-08
4.311332e-05 -1.687398e-05 1.607441e-07
4.318726e-05 -1.689785e-05 1.624691e-07
4.436368e-05 -1.733974e-05 -5.425605e-08
4.436358e-05 -1.734566e-05 7.628790e-08
4.308589e-05 -1.686470e-05 1.577924e-07
4.315981e-05 -1.688814e-05 1.607000e-07
4.437667e-05 -1.734446e-05 -5.130930e-08
4.437657e-05 -1.735051e-05 7.211210e-08
4.305901e-05 -1.685563e-05 1.543888e-07
4.313272e-05 -1.687857e-05 1.584875e-07
4.438892e-05 -1.734894e-05 -4.831324e-08
4.438883e-05 -1.735510e-05 6.785311e-08
4.303273e-05 -1.684680e-05 1.505357e-07
4.310607e-05 -1.686917e-05 1.558326e-07
4.441118e-05 -1.735719e-05 -4.220023e-08
4.440034e-05 -1.735944e-05 6.352403e-08
4.300715e-05 -1.683824e-05 1.462366e-07
4.307992e-05 -1.685996e-05 1.527365e-07
4.442116e-05 -1.736096e-05 -3.908903e-08
4.441109e-05 -1.736353e-05 5.913615e-08
4.298233e-05 -1.682996e-05 1.414965e-07
4.305435e-05 -1.685099e-05 1.492009e-07
4.443038e-05 -1.736449e-05 -3.594372e-08
4.442108e-05 -1.736737e-05 5.469856e-08
4.302943e-05 -1.684227e-05 1.452284e-07
4.443881e-05 -1.736777e-05 -3.276922e-08
4.443030e-05 -1.737095e-05 5.022065e-08
4.293525e-05 -1.681439e-05 -1.307352e-07
4.300524e-05 -1.683383e-05 1.408226e-07
4.443873e-05 -1.737426e-05 4.571420e-08
4.291787e-05 -1.681548e-05 4.757213e-08
4.291316e-05 -1.680713e-05 1.247187e-07
4.298184e-05 -1.682569e-05 1.359888e-07
4.300541e-05 -1.684082e-05 -9.929713e-08
4.444645e-05 -1.737079e-05 -2.957367e-08
4.444638e-05 -1.737729e-05 4.119257e-08
4.295931e-05 -1.681789e-05 1.307347e-07
4.298200e-05 -1.683332e-05 -9.584242e-08
4.445329e-05 -1.737353e-05 -2.636666e-08
4.445323e-05 -1.738002e-05 3.666878e-08
4.289761e-05 -1.679668e-05 1.125817e-07
4.289944e-05 -1.680353e-05 7.478779e-08
4.293772e-05 -1.681044e-05 1.250711e-07
4.295946e-05 -1.682614e-05 -9.209432e-08
4.445935e-05 -1.737599e-05 -2.315757e-08
4.445928e-05 -1.738246e-05 3.215430e-08
4.446455e-05 -1.738460e-05 2.765853e-08
4.282000e-05 -1.677670e-05 8.950283e-08
4.287921e-05 -1.679039e-05 1.058038e-07
4.446903e-05 -1.738644e-05 2.318885e-08
4.280534e-05 -1.677179e-05 8.173016e-08
4.286200e-05 -1.678452e-05 9.871483e-08
4.447278e-05 -1.738163e-05 -1.359325e-08
4.447272e-05 -1.738797e-05 1.875082e-08
4.279213e-05 -1.676723e-05 7.384826e-08
4.284601e-05 -1.677905e-05 9.135820e-08
4.447570e-05 -1.738292e-05 -1.044423e-08
4.447564e-05 -1.738921e-05 1.434855e-08
4.278042e-05 -1.676300e-05 6.590394e-08
4.283129e-05 -1.677398e-05 8.378495e-08
4.447785e-05 -1.738391e-05 -7.320739e-09
4.447779e-05 -1.739014e-05 9.984960e-09
4.277020e-05 -1.675908e-05 -5.791923e-08
4.281786e-05 -1.676928e-05 7.605038e-08
4.447923e-05 -1.738461e-05 -4.224925e-09
4.447918e-05 -1.739078e-05 5.662089e-09
4.276147e-05 -1.675547e-05 4.990482e-08
4.280572e-05 -1.676491e-05 6.820760e-08
4.447974e-05 -1.738512e-05 1.878073e-09
4.447981e-05 -1.739112e-05 1.381335e-09
4.275423e-05 -1.675221e-05 4.189824e-08
4.279489e-05 -1.676084e-05 6.030058e-08
4.447888e-05 -1.738495e-05 4.883533e-09
4.447969e-05 -1.739117e-05 -2.856376e-09
4.274846e-05 -1.674932e-05 3.395526e-08
4.278536e-05 -1.675705e-05 5.236541e-08
4.447883e-05 -1.739093e-05 -7.050436e-09
4.274412e-05 -1.674685e-05 2.613739e-08
4.277714e-05 -1.675358e-05 4.444139e-08
4.278539e-05 -1.676904e-05 -3.782493e-08
4.447729e-05 -1.738448e-05 7.857623e-09
4.447723e-05 -1.739040e-05 -1.120045e-08
4.277024e-05 -1.675047e-05 3.657788e-08
4.447497e-05 -1.738373e-05 1.080007e-08
4.447492e-05 -1.738959e-05 -1.530618e-08
4.276465e-05 -1.674777e-05 2.882974e-08
4.274113e-05 -1.674480e-05 1.850104e-08
4.447193e-05 -1.738270e-05 1.371070e-08
4.447188e-05 -1.738849e-05 -1.936747e-08
4.275550e-05 -1.674220e-05 6.772121e-09
4.276614e-05 -1.675169e-05 2.857924e-09
4.276036e-05 -1.674548e-05 2.124989e-08
4.276787e-05 -1.675993e-05 5.492786e-09
4.446819e-05 -1.738140e-05 1.658942e-08
4.446813e-05 -1.738712e-05 -2.338420e-08
4.446374e-05 -1.737981e-05 1.943617e-08
4.446368e-05 -1.738547e-05 -2.735633e-08
4.274447e-05 -1.674080e-05 -1.561300e-08
4.275486e-05 -1.674120e-05 -5.788856e-11
4.445854e-05 -1.738355e-05 -3.128378e-08
4.274836e-05 -1.674118e-05 -2.146300e-08
4.275535e-05 -1.674062e-05 -6.582784e-09
4.445271e-05 -1.738137e-05 -3.516653e-08
4.275317e-05 -1.674192e-05 -2.696137e-08
4.275690e-05 -1.674044e-05 -1.278606e-08
4.444626e-05 -1.737345e-05 2.778446e-08
4.444620e-05 -1.737891e-05 -3.900455e-08
4.275886e-05 -1.674299e-05 -3.210316e-08
4.275948e-05 -1.674065e-05 -1.865603e-08
4.443909e-05 -1.737080e-05 3.050322e-08
4.443902e-05 -1.737620e-05 -4.279782e-08
4.276537e-05 -1.674438e-05 -3.688525e-08
4.276301e-05 -1.674122e-05 -2.418465e-08
4.443125e-05 -1.736789e-05 3.319001e-08
4.443119e-05 -1.737322e-05 -4.654632e-08
4.277262e-05 -1.674606e-05 -4.130578e-08
4.276744e-05 -1.674215e-05 -2.936661e-08
4.442277e-05 -1.736472e-05 3.584485e-08
4.442270e-05 -1.736999e-05 -5.025004e-08
4.278057e-05 -1.674801e-05 -4.536371e-08
4.277272e-05 -1.674340e-05 -3.419857e-08
4.441363e-05 -1.736130e-05 3.846772e-08
4.441356e-05 -1.736651e-05 -5.390899e-08
4.277878e-05 -1.674495e-05 -3.867853e-08
4.439347e-05 -1.735372e-05 4.361754e-08
4.440379e-05 -1.736277e-05 -5.752316e-08
4.278557e-05 -1.674679e-05 -4.280541e-08
4.438245e-05 -1.734956e-05 4.614435e-08
4.439339e-05 -1.735880e-05 -6.109253e-08
4.279832e-05 -1.675264e-05 -5.239016e-08
4.279302e-05 -1.674889e-05 -4.657870e-08
4.278558e-05 -1.675270e-05 2.928246e-08
4.279830e-05 -1.675264e-05 5.239796e-08
4.437082e-05 -1.734517e-05 4.863884e-08
4.438237e-05 -1.735457e-05 -6.461704e-08
4.281881e-05 -1.675652e-05 -5.577625e-08
4.280109e-05 -1.675122e-05 -4.999825e-08
4.282731e-05 -1.676141e-05 -3.877651e-08
4.279304e-05 -1.675427e-05 3.199338e-08
4.280971e-05 -1.675377e-05 -5.306407e-08
4.435859e-05 -1.734054e-05 5.110067e-08
4.437074e-05 -1.735011e-05 -6.809656e-08
4.435850e-05 -1.734542e-05 -7.153082e-08
4.285073e-05 -1.676738e-05 -6.359837e-08
4.282835e-05 -1.675943e-05 -5.813482e-08
4.434576e-05 -1.733568e-05 5.352922e-08
4.434567e-05 -1.734049e-05 -7.491934e-08
4.286212e-05 -1.677068e-05 -6.474946e-08
4.283826e-05 -1.676249e-05 -6.013978e-08
4.433235e-05 -1.733059e-05 5.592355e-08
4.433226e-05 -1.733533e-05 -7.826136e-08
4.287367e-05 -1.677405e-05 -6.553647e-08
4.284848e-05 -1.676568e-05 -6.179104e-08
4.431827e-05 -1.732995e-05 -8.155561e-08
4.288533e-05 -1.677746e-05 -6.595905e-08
4.285895e-05 -1.676896e-05 -6.308841e-08
4.430371e-05 -1.732435e-05 -8.480020e-08
4.289703e-05 -1.678088e-05 -6.601678e-08
4.286962e-05 -1.677232e-05 -6.403162e-08
4.428870e-05 -1.731401e-05 6.288350e-08
4.428859e-05 -1.731853e-05 -8.799237e-08
4.290869e-05 -1.678429e-05 6.571701e-08
4.288042e-05 -1.677573e-05 -6.462029e-08
4.427304e-05 -1.730807e-05 6.511898e-08
4.427293e-05 -1.731250e-05 -9.112813e-08
4.292033e-05 -1.678770e-05 -6.503641e-08
4.289130e-05 -1.677917e-05 -6.485402e-08
4.425684e-05 -1.730193e-05 6.730427e-08
4.425673e-05 -1.730628e-05 -9.420199e-08
4.293181e-05 -1.679104e-05 -6.399805e-08
4.290218e-05 -1.678261e-05 -6.473238e-08
4.424012e-05 -1.729562e-05 6.943240e-08
4.424000e-05 -1.729985e-05 -9.720656e-08
4.291303e-05 -1.678604e-05 -6.425499e-08
4.422289e-05 -1.728913e-05 7.149483e-08
4.422276e-05 -1.729324e-05 -1.001323e-07
4.292376e-05 -1.678943e-05 -6.342161e-08
4.294309e-05 -1.679430e-05 -6.259463e-08
4.291304e-05 -1.678508e-05 4.467625e-08
4.420516e-05 -1.728248e-05 7.348168e-08
4.420503e-05 -1.728645e-05 -1.029675e-07
4.295472e-05 -1.679911e-05 -5.878824e-08
4.295604e-05 -1.679737e-05 -3.924450e-08
4.293433e-05 -1.679275e-05 -6.223227e-08
4.294674e-05 -1.679307e-05 -2.398844e-08
4.416829e-05 -1.726879e-05 7.718815e-08
4.418682e-05 -1.727951e-05 -1.056984e-07
4.416815e-05 -1.727242e-05 -1.083107e-07
4.299445e-05 -1.680872e-05 -5.017854e-08
4.296443e-05 -1.680211e-05 -5.653682e-08
4.414920e-05 -1.726178e-05 7.889223e-08
4.414905e-05 -1.726522e-05 -1.107910e-07
4.300328e-05 -1.681108e-05 -4.665492e-08
4.297373e-05 -1.680494e-05 -5.393672e-08
4.412970e-05 -1.725469e-05 8.049236e-08
4.412955e-05 -1.725791e-05 -1.131289e-07
4.301148e-05 -1.681322e-05 -4.281119e-08
4.298256e-05 -1.680761e-05 -5.099348e-08
4.410983e-05 -1.724752e-05 8.198741e-08
4.410968e-05 -1.725051e-05 -1.153151e-07
4.301899e-05 -1.681514e-05 -3.866777e-08
4.299087e-05 -1.681008e-05 -4.771524e-08
4.408961e-05 -1.724027e-05 8.337404e-08
4.408945e-05 -1.724301e-05 -1.173383e-07
4.302574e-05 -1.681681e-05 -3.425125e-08
4.299860e-05 -1.681234e-05 -4.411357e-08
4.406906e-05 -1.723296e-05 8.464513e-08
4.406890e-05 -1.723543e-05 -1.191850e-07
4.303169e-05 -1.681824e-05 -2.959494e-08
4.300569e-05 -1.681437e-05 -4.020432e-08
4.404805e-05 -1.722775e-05 -1.208410e-07
4.303675e-05 -1.681944e-05 -2.473829e-08
4.301209e-05 -1.681616e-05 -3.600852e-08
4.402695e-05 -1.721999e-05 -1.222936e-07
4.304090e-05 -1.682040e-05 -1.972398e-08
4.301776e-05 -1.681771e-05 -3.155294e-08
4.400579e-05 -1.721061e-05 8.766758e-08
4.400562e-05 -1.721216e-05 -1.235319e-07
4.304408e-05 -1.682115e-05 -1.459058e-08
4.302265e-05 -1.681901e-05 -2.687010e-08
4.398428e-05 -1.720304e-05 8.838115e-08
4.398411e-05 -1.720426e-05 -1.245477e-07
4.304624e-05 -1.682168e-05 9.362097e-09
4.304629e-05 -1.682170e-05 -9.361034e-09
4.302674e-05 -1.682007e-05 -2.199695e-08
4.396262e-05 -1.719543e-05 8.893616e-08
4.396246e-05 -1.719632e-05 -1.253345e-07
4.302999e-05 -1.682091e-05 -1.697148e-08
4.394087e-05 -1.718780e-05 8.932793e-08
4.394070e-05 -1.718834e-05 -1.258879e-07
4.303463e-05 -1.682227e-05 -1.290208e-09
4.303240e-05 -1.682156e-05 -1.182748e-08
4.302996e-05 -1.681327e-05 1.158066e-08
4.389720e-05 -1.717248e-05 8.960932e-08
4.391887e-05 -1.718033e-05 -1.262048e-07
4.387537e-05 -1.716484e-05 8.949508e-08
4.389703e-05 -1.717233e-05 -1.262832e-07
4.304231e-05 -1.682093e-05 1.755153e-08
4.303442e-05 -1.682230e-05 4.046323e-09
4.303460e-05 -1.681428e-05 9.509266e-10
4.385361e-05 -1.715722e-05 8.920946e-08
4.387520e-05 -1.716433e-05 -1.261220e-07
4.303861e-05 -1.681993e-05 2.283734e-08
4.303330e-05 -1.682205e-05 9.380477e-09
4.383194e-05 -1.714963e-05 8.875197e-08
4.385344e-05 -1.715636e-05 -1.257207e-07
4.303400e-05 -1.681862e-05 2.801035e-08
4.303128e-05 -1.682152e-05 1.467425e-08
4.383178e-05 -1.714843e-05 -1.250790e-07
4.302853e-05 -1.681701e-05 3.304773e-08
4.302837e-05 -1.682069e-05 1.989307e-08
4.381042e-05 -1.714211e-05 8.812243e-08
4.381026e-05 -1.714055e-05 -1.241972e-07
4.302222e-05 -1.681509e-05 3.793219e-08
4.302458e-05 -1.681954e-05 2.500775e-08
4.378909e-05 -1.713466e-05 8.732085e-08
4.378893e-05 -1.713275e-05 -1.230754e-07
4.301510e-05 -1.681287e-05 4.265110e-08
4.301992e-05 -1.681808e-05 2.999496e-08
4.376798e-05 -1.712730e-05 8.634738e-08
4.376783e-05 -1.712504e-05 -1.217141e-07
4.300718e-05 -1.681035e-05 -4.719996e-08
4.301444e-05 -1.681632e-05 3.483675e-08
4.374699e-05 -1.711744e-05 -1.201137e-07
4.299861e-05 -1.680757e-05 5.155887e-08
4.300815e-05 -1.681425e-05 3.951978e-08
4.372646e-05 -1.710995e-05 -1.182746e-07
4.298929e-05 -1.680451e-05 5.573730e-08
4.300108e-05 -1.681188e-05 4.403444e-08
4.370642e-05 -1.710590e-05 8.239780e-08
4.370628e-05 -1.710260e-05 -1.161973e-07
4.299325e-05 -1.680922e-05 4.837401e-08
4.368662e-05 -1.709905e-05 8.073890e-08
4.368649e-05 -1.709541e-05 -1.138819e-07
4.296560e-05 -1.679963e-05 6.030457e-08
4.295472e-05 -1.679260e-05 4.257834e-08
4.299325e-05 -1.680290e-05 -3.396992e-08
4.298471e-05 -1.680629e-05 5.253396e-08
4.296464e-05 -1.679241e-05 2.403974e-08
4.366725e-05 -1.709238e-05 7.890912e-08
4.366712e-05 -1.708838e-05 -1.113288e-07
4.364836e-05 -1.708588e-05 7.690856e-08
4.364823e-05 -1.708154e-05 -1.085383e-07
4.293327e-05 -1.678553e-05 7.379161e-08
4.295509e-05 -1.679593e-05 6.391250e-08
4.362997e-05 -1.707959e-05 7.473727e-08
4.362985e-05 -1.707490e-05 -1.055104e-07
4.292040e-05 -1.678108e-05 7.683135e-08
4.294399e-05 -1.679200e-05 6.733475e-08
4.359488e-05 -1.706766e-05 6.988257e-08
4.361202e-05 -1.706848e-05 -1.022452e-07
4.290705e-05 -1.677645e-05 7.968093e-08
4.293232e-05 -1.678785e-05 7.057126e-08
4.359478e-05 -1.706228e-05 -9.874261e-08
4.289325e-05 -1.677164e-05 8.234067e-08
4.292013e-05 -1.678349e-05 7.362218e-08
4.357827e-05 -1.706206e-05 6.719916e-08
4.357817e-05 -1.705634e-05 -9.500271e-08
4.287903e-05 -1.676666e-05 8.481091e-08
4.290744e-05 -1.677894e-05 7.648776e-08
4.356232e-05 -1.705672e-05 6.434511e-08
4.356223e-05 -1.705065e-05 -9.102541e-08
4.286443e-05 -1.676153e-05 8.709197e-08
4.289428e-05 -1.677421e-05 7.916833e-08
4.354708e-05 -1.705166e-05 6.132065e-08
4.354700e-05 -1.704524e-05 -8.681075e-08
4.284947e-05 -1.675627e-05 8.918416e-08
4.288069e-05 -1.676930e-05 8.166424e-08
4.353259e-05 -1.704690e-05 5.812626e-08
4.353252e-05 -1.704013e-05 -8.235895e-08
4.283419e-05 -1.675088e-05 9.108778e-08
4.286669e-05 -1.676424e-05 8.397582e-08
4.351890e-05 -1.704244e-05 5.476284e-08
4.351883e-05 -1.703533e-05 -7.767056e-08
4.285233e-05 -1.675903e-05 8.610340e-08
4.350596e-05 -1.703084e-05 -7.274669e-08
4.281862e-05 -1.674537e-05 9.280310e-08
4.283762e-05 -1.675369e-05 8.804727e-08
4.349397e-05 -1.702670e-05 -6.758931e-08
4.280278e-05 -1.673976e-05 9.433039e-08
4.282261e-05 -1.674823e-05 8.980771e-08
4.280275e-05 -1.673975e-05 -9.433538e-08
4.280731e-05 -1.674266e-05 9.138497e-08
4.279746e-05 -1.673659e-05 3.830923e-08
4.348293e-05 -1.703104e-05 4.367953e-08
4.348288e-05 -1.702290e-05 -6.220169e-08
4.347278e-05 -1.702793e-05 3.966763e-08
4.347274e-05 -1.701947e-05 -5.658890e-08
4.273745e-05 -1.671655e-05 9.856524e-08
4.277603e-05 -1.673125e-05 9.399100e-08
4.277043e-05 -1.672828e-05 -9.682696e-08
4.346361e-05 -1.702519e-05 3.550891e-08
4.346358e-05 -1.701641e-05 -5.075855e-08
4.272077e-05 -1.671061e-05 9.915752e-08
4.276009e-05 -1.672543e-05 9.502030e-08
4.277608e-05 -1.672962e-05 -6.672626e-08
4.345546e-05 -1.702281e-05 3.121488e-08
4.345543e-05 -1.701373e-05 -4.472163e-08
4.270402e-05 -1.670465e-05 9.956465e-08
4.274400e-05 -1.671955e-05 9.586759e-08
4.276015e-05 -1.672407e-05 -6.746605e-08
4.344235e-05 -1.701914e-05 2.228765e-08
4.344834e-05 -1.701145e-05 -3.849354e-08
4.268722e-05 -1.669866e-05 9.978785e-08
4.272779e-05 -1.671362e-05 9.653334e-08
4.343744e-05 -1.701783e-05 1.769976e-08
4.344233e-05 -1.700955e-05 -3.209514e-08
4.267040e-05 -1.669267e-05 9.982883e-08
4.271149e-05 -1.670766e-05 9.701820e-08
4.343367e-05 -1.701686e-05 1.306716e-08
4.343743e-05 -1.700805e-05 -2.555377e-08
4.265361e-05 -1.668668e-05 9.968998e-08
4.269513e-05 -1.670167e-05 9.732308e-08
4.343104e-05 -1.701619e-05 8.422496e-09
4.343366e-05 -1.700694e-05 -1.890382e-08
4.263686e-05 -1.668070e-05 9.937460e-08
4.267874e-05 -1.669567e-05 9.744928e-08
4.343103e-05 -1.700619e-05 -1.218628e-08
4.262019e-05 -1.667474e-05 9.888711e-08
4.266235e-05 -1.668967e-05 9.739861e-08
4.342956e-05 -1.701579e-05 3.797481e-09
4.342955e-05 -1.700579e-05 -5.446396e-09
4.260362e-05 -1.666882e-05 9.823342e-08
4.264599e-05 -1.668368e-05 9.717360e-08
4.342921e-05 -1.701563e-05 -7.831964e-10
4.342920e-05 -1.700569e-05 1.271452e-09
4.262968e-05 -1.667771e-05 9.677771e-08
4.342998e-05 -1.701569e-05 -5.306812e-09
4.342998e-05 -1.700586e-05 7.929895e-09
4.258720e-05 -1.666294e-05 9.742115e-08
4.261347e-05 -1.667176e-05 9.621557e-08
4.258719e-05 -1.666293e-05 -9.742536e-08
4.343185e-05 -1.700628e-05 1.449864e-08
4.256561e-05 -1.665417e-05 9.360066e-08
4.259736e-05 -1.666585e-05 9.549324e-08
4.255980e-05 -1.665307e-05 6.399470e-08
4.258140e-05 -1.665999e-05 9.461847e-08
4.343482e-05 -1.700696e-05 2.094556e-08
4.343889e-05 -1.701712e-05 -1.847488e-08
4.343887e-05 -1.700794e-05 2.723011e-08
4.250817e-05 -1.663426e-05 9.136473e-08
4.255000e-05 -1.664841e-05 9.245076e-08
4.344399e-05 -1.701807e-05 -2.267261e-08
4.344397e-05 -1.700923e-05 3.330670e-08
4.249315e-05 -1.662868e-05 8.982876e-08
4.253460e-05 -1.664270e-05 9.118048e-08
4.345012e-05 -1.701929e-05 -2.672483e-08
4.345009e-05 -1.701086e-05 3.913098e-08
4.247843e-05 -1.662316e-05 8.819771e-08
4.251942e-05 -1.663704e-05 8.980090e-08
4.345722e-05 -1.702079e-05 -3.059945e-08
4.345719e-05 -1.701282e-05 4.466399e-08
4.246403e-05 -1.661772e-05 8.647948e-08
4.250448e-05 -1.663143e-05 8.832113e-08
4.346524e-05 -1.702257e-05 -3.426811e-08
4.346521e-05 -1.701510e-05 4.987362e-08
4.244995e-05 -1.661237e-05 8.468618e-08
4.248979e-05 -1.662588e-05 8.674881e-08
4.347413e-05 -1.702463e-05 -3.770727e-08
4.347409e-05 -1.701769e-05 5.473469e-08
4.243620e-05 -1.660712e-05 8.283071e-08
4.247538e-05 -1.662039e-05 8.509244e-08
4.349426e-05 -1.702956e-05 -4.382697e-08
4.348378e-05 -1.702058e-05 5.922810e-08
4.242277e-05 -1.660197e-05 8.092478e-08
4.246125e-05 -1.661498e-05 8.336258e-08
4.349420e-05 -1.702375e-05 6.333983e-08
4.240968e-05 -1.659693e-05 7.897823e-08
4.244742e-05 -1.660966e-05 8.157080e-08
4.350536e-05 -1.703239e-05 -4.648276e-08
4.350530e-05 -1.702717e-05 6.705986e-08
4.243390e-05 -1.660445e-05 7.972812e-08
4.351707e-05 -1.703546e-05 -4.885808e-08
4.351700e-05 -1.703083e-05 7.038121e-08
4.239693e-05 -1.659202e-05 7.699890e-08
4.242070e-05 -1.659935e-05 7.784418e-08
4.352932e-05 -1.703872e-05 -5.094761e-08
4.352925e-05 -1.703469e-05 7.329916e-08
4.238304e-05 -1.658478e-05 7.201552e-08
4.240782e-05 -1.659437e-05 7.592688e-08
4.239237e-05 -1.659192e-05 3.085621e-08
4.354203e-05 -1.704217e-05 -5.274771e-08
4.354196e-05 -1.703873e-05 7.581056e-08
4.355507e-05 -1.704293e-05 7.791342e-08
4.233819e-05 -1.656932e-05 6.677367e-08
4.237115e-05 -1.658017e-05 7.002956e-08
4.356851e-05 -1.704725e-05 7.960645e-08
4.232746e-05 -1.656517e-05 6.468021e-08
4.235960e-05 -1.657569e-05 6.802700e-08
4.237118e-05 -1.658320e-05 -5.023012e-08
4.358230e-05 -1.705331e-05 -5.639128e-08
4.358221e-05 -1.705168e-05 8.088886e-08
4.231707e-05 -1.656116e-05 6.257321e-08
4.234838e-05 -1.657134e-05 6.600952e-08
4.235963e-05 -1.657875e-05 -4.879573e-08
4.359619e-05 -1.705722e-05 -5.701664e-08
4.359611e-05 -1.705619e-05 8.176011e-08
4.230703e-05 -1.655728e-05 6.045301e-08
4.233751e-05 -1.656712e-05 6.397822e-08
4.234841e-05 -1.657442e-05 -4.734911e-08
4.361021e-05 -1.706117e-05 -5.734651e-08
4.361012e-05 -1.706074e-05 8.221981e-08
4.229734e-05 -1.655354e-05 5.831978e-08
4.232698e-05 -1.656304e-05 6.193377e-08
4.362427e-05 -1.706513e-05 -5.738055e-08
4.362418e-05 -1.706531e-05 8.226761e-08
4.228800e-05 -1.654993e-05 5.617355e-08
4.231679e-05 -1.655909e-05 5.987657e-08
4.365225e-05 -1.707302e-05 -5.656001e-08
4.363822e-05 -1.706988e-05 8.190316e-08
4.227901e-05 -1.654646e-05 5.401427e-08
4.230696e-05 -1.655528e-05 5.780680e-08
4.366603e-05 -1.707688e-05 -5.570480e-08
4.365216e-05 -1.707441e-05 8.112604e-08
4.227037e-05 -1.654313e-05 5.184182e-08
4.229747e-05 -1.655161e-05 5.572449e-08
4.367958e-05 -1.708065e-05 -5.455249e-08
4.366594e-05 -1.707887e-05 7.993580e-08
4.226209e-05 -1.653994e-05 4.965609e-08
4.228833e-05 -1.654807e-05 5.362962e-08
4.369281e-05 -1.708429e-05 -5.310266e-08
4.367949e-05 -1.708325e-05 7.833188e-08
4.227955e-05 -1.654467e-05 5.152207e-08
4.369272e-05 -1.708750e-05 7.631367e-08
4.225416e-05 -1.653689e-05 4.745691e-08
4.225416e-05 -1.653689e-05 -4.745796e-08
4.227112e-05 -1.654141e-05 4.940171e-08
4.370567e-05 -1.708779e-05 -5.135489e-08
4.370558e-05 -1.709161e-05 7.388051e-08
4.371807e-05 -1.709111e-05 -4.930878e-08
4.371799e-05 -1.709554e-05 7.103173e-08
4.222608e-05 -1.652610e-05 3.852243e-08
4.224798e-05 -1.653246e-05 4.296226e-08
4.372987e-05 -1.709927e-05 6.776668e-08
4.221997e-05 -1.652376e-05 3.625356e-08
4.224099e-05 -1.652977e-05 4.078908e-08
4.224799e-05 -1.653575e-05 -3.079660e-08
4.374116e-05 -1.710276e-05 6.408484e-08
4.221424e-05 -1.652157e-05 3.397031e-08
4.223436e-05 -1.652721e-05 3.860229e-08
4.375186e-05 -1.709973e-05 -4.137814e-08
4.375178e-05 -1.710599e-05 5.998593e-08
4.220887e-05 -1.651952e-05 3.167256e-08
4.222811e-05 -1.652480e-05 3.640172e-08
4.376173e-05 -1.710206e-05 -3.813789e-08
4.376166e-05 -1.710893e-05 5.547008e-08
4.220388e-05 -1.651762e-05 2.936030e-08
4.222222e-05 -1.652253e-05 3.418722e-08
4.377079e-05 -1.710408e-05 -3.460109e-08
4.377072e-05 -1.711156e-05 5.053812e-08
4.219927e-05 -1.651586e-05 2.703354e-08
4.221670e-05 -1.652041e-05 3.195865e-08
4.377897e-05 -1.710575e-05 -3.077032e-08
4.377891e-05 -1.711384e-05 4.519188e-08
4.219503e-05 -1.651426e-05 2.469249e-08
4.221156e-05 -1.651843e-05 2.971592e-08
4.378619e-05 -1.710706e-05 -2.664981e-08
4.378613e-05 -1.711575e-05 3.943476e-08
4.219117e-05 -1.651280e-05 2.233753e-08
4.220679e-05 -1.651660e-05 2.745900e-08
4.379239e-05 -1.710799e-05 -2.224602e-08
4.379233e-05 -1.711727e-05 3.327232e-08
4.220240e-05 -1.651492e-05 2.518796e-08
4.379749e-05 -1.710851e-05 -1.756843e-08
4.379743e-05 -1.711837e-05 2.671317e-08
4.219839e-05 -1.651339e-05 2.290298e-08
4.218770e-05 -1.651149e-05 1.996933e-08
4.380412e-05 -1.710828e-05 -7.450658e-09
4.380136e-05 -1.711902e-05 1.977000e-08
4.218866e-05 -1.650968e-05 1.597045e-08
4.219117e-05 -1.651265e-05 1.019364e-08
4.219476e-05 -1.651200e-05 2.060452e-08
4.219382e-05 -1.651583e-05 7.205206e-09
4.380406e-05 -1.711922e-05 1.246095e-08
4.380553e-05 -1.710751e-05 -2.053305e-09
4.380547e-05 -1.711894e-05 4.810957e-09
4.218619e-05 -1.650874e-05 1.363776e-08
4.380558e-05 -1.710632e-05 3.530404e-09
4.380553e-05 -1.711817e-05 -3.146667e-09
4.217505e-05 -1.650673e-05 -5.593057e-09
4.218411e-05 -1.650795e-05 1.129772e-08
4.380424e-05 -1.710471e-05 9.262516e-09
4.380418e-05 -1.711692e-05 -1.136916e-08
4.217433e-05 -1.650644e-05 3.208017e-09
4.218242e-05 -1.650731e-05 8.953876e-09
4.218411e-05 -1.651151e-05 -8.072502e-09
4.380140e-05 -1.711519e-05 -1.980409e-08
4.217401e-05 -1.650629e-05 8.465305e-10
4.218112e-05 -1.650682e-05 6.610939e-09
4.218242e-05 -1.651087e-05 -6.401953e-09
4.379714e-05 -1.711301e-05 -2.839114e-08
4.217411e-05 -1.650626e-05 -1.480513e-09
4.218021e-05 -1.650647e-05 4.275111e-09
4.218112e-05 -1.651037e-05 -4.737312e-09
4.379148e-05 -1.709764e-05 2.691367e-08
4.379141e-05 -1.711041e-05 -3.706734e-08
4.217460e-05 -1.650635e-05 -3.761245e-09
4.217969e-05 -1.650625e-05 1.954160e-09
4.218021e-05 -1.651001e-05 -3.084307e-09
4.378427e-05 -1.709466e-05 3.282494e-08
4.378420e-05 -1.710744e-05 -4.577568e-08
4.217550e-05 -1.650656e-05 -5.985314e-09
4.217955e-05 -1.650617e-05 -3.426075e-10
4.377561e-05 -1.709141e-05 3.872019e-08
4.377552e-05 -1.710413e-05 -5.447058e-08
4.217678e-05 -1.650686e-05 -8.146972e-09
4.217979e-05 -1.650622e-05 -2.604800e-09
4.376548e-05 -1.708788e-05 4.459349e-08
4.376539e-05 -1.710049e-05 -6.311020e-08
4.218040e-05 -1.650637e-05 -4.821933e-09
4.375389e-05 -1.708406e-05 5.042819e-08
4.375379e-05 -1.709646e-05 -7.164388e-08
4.217845e-05 -1.650726e-05 -1.024392e-08
4.218137e-05 -1.650663e-05 -6.984860e-09
4.374086e-05 -1.707991e-05 5.619137e-08
4.374074e-05 -1.709200e-05 -8.001103e-08
4.218633e-05 -1.650797e-05 -1.307471e-08
4.218269e-05 -1.650699e-05 -9.086306e-09
4.218859e-05 -1.651245e-05 -4.771517e-09
4.371057e-05 -1.707049e-05 6.732937e-08
4.372628e-05 -1.708709e-05 -8.814946e-08
4.369342e-05 -1.706518e-05 7.261879e-08
4.371044e-05 -1.708172e-05 -9.600263e-08
4.219198e-05 -1.651071e-05 -1.947239e-08
4.218864e-05 -1.650861e-05 -1.494251e-08
4.367501e-05 -1.705947e-05 7.767382e-08
4.369328e-05 -1.707589e-05 -1.035231e-07
4.219557e-05 -1.651168e-05 -2.099327e-08
4.219124e-05 -1.650935e-05 -1.671203e-08
4.365542e-05 -1.705336e-05 8.246695e-08
4.367486e-05 -1.706960e-05 -1.106733e-07
4.219942e-05 -1.651274e-05 -2.238689e-08
4.219413e-05 -1.651019e-05 -1.837365e-08
4.365525e-05 -1.706287e-05 -1.174247e-07
4.220348e-05 -1.651388e-05 -2.364832e-08
4.219729e-05 -1.651112e-05 -1.991926e-08
4.219413e-05 -1.651263e-05 1.266791e-08
4.363470e-05 -1.704685e-05 8.697714e-08
4.363452e-05 -1.705573e-05 -1.237564e-07
4.220774e-05 -1.651510e-05 -2.477394e-08
4.220070e-05 -1.651214e-05 -2.134231e-08
4.361276e-05 -1.704819e-05 -1.296537e-07
4.221217e-05 -1.651637e-05 -2.576111e-08
4.220433e-05 -1.651325e-05 -2.263772e-08
4.359003e-05 -1.704029e-05 -1.351067e-07
4.221675e-05 -1.651771e-05 -2.660795e-08
4.220817e-05 -1.651443e-05 -2.380168e-08
4.356663e-05 -1.702515e-05 9.867685e-08
4.356642e-05 -1.703204e-05 -1.401090e-07
4.222145e-05 -1.651909e-05 -2.731317e-08
4.221219e-05 -1.651568e-05 -2.483140e-08
4.354222e-05 -1.701727e-05 1.019406e-07
4.354200e-05 -1.702349e-05 -1.446570e-07
4.221637e-05 -1.651699e-05 -2.572492e-08
4.351709e-05 -1.700911e-05 1.048797e-07
4.351686e-05 -1.701465e-05 -1.487488e-07
4.222069e-05 -1.651836e-05 -2.648085e-08
4.222626e-05 -1.652051e-05 -2.787591e-08
4.349131e-05 -1.700070e-05 1.074927e-07
4.349107e-05 -1.700557e-05 -1.523837e-07
4.223424e-05 -1.652268e-05 -2.791532e-08
4.223689e-05 -1.652372e-05 -1.911493e-08
4.222513e-05 -1.651977e-05 -2.709825e-08
4.223250e-05 -1.652277e-05 -1.122996e-08
4.346496e-05 -1.699207e-05 1.097790e-07
4.346471e-05 -1.699626e-05 -1.555620e-07
4.343812e-05 -1.698325e-05 1.117387e-07
4.343787e-05 -1.698677e-05 -1.582846e-07
4.225104e-05 -1.652790e-05 -2.853764e-08
4.223888e-05 -1.652417e-05 -2.811432e-08
4.338330e-05 -1.696515e-05 1.146802e-07
4.341062e-05 -1.697711e-05 -1.605526e-07
4.225598e-05 -1.652937e-05 -2.823811e-08
4.224354e-05 -1.652567e-05 -2.817339e-08
4.338304e-05 -1.696733e-05 -1.623671e-07
4.224820e-05 -1.652717e-05 -2.809238e-08
4.335547e-05 -1.695594e-05 1.156635e-07
4.335521e-05 -1.695746e-05 -1.637296e-07
4.226564e-05 -1.653223e-05 2.720867e-08
4.225284e-05 -1.652865e-05 -2.787118e-08
4.332746e-05 -1.694666e-05 1.163231e-07
4.332720e-05 -1.694751e-05 -1.646414e-07
4.227034e-05 -1.653361e-05 -2.647284e-08
4.225742e-05 -1.653012e-05 -2.750967e-08
4.225284e-05 -1.652821e-05 1.943110e-08
4.329936e-05 -1.693734e-05 1.166596e-07
4.329910e-05 -1.693753e-05 -1.651037e-07
4.227490e-05 -1.653493e-05 -2.559479e-08
4.226194e-05 -1.653156e-05 -2.700768e-08
4.225742e-05 -1.652947e-05 1.917110e-08
4.327097e-05 -1.692754e-05 -1.651177e-07
4.227931e-05 -1.653619e-05 -2.457149e-08
4.226636e-05 -1.653297e-05 -2.636503e-08
4.226194e-05 -1.653070e-05 1.880999e-08
4.324290e-05 -1.691758e-05 -1.646845e-07
4.228354e-05 -1.653738e-05 -2.340265e-08
4.227066e-05 -1.653432e-05 -2.558146e-08
4.226636e-05 -1.653189e-05 1.834759e-08
4.321522e-05 -1.690946e-05 1.157394e-07
4.321497e-05 -1.690767e-05 -1.638052e-07
4.227482e-05 -1.653562e-05 -2.465672e-08
4.318749e-05 -1.690029e-05 1.147916e-07
4.318724e-05 -1.689785e-05 -1.624806e-07
4.227882e-05 -1.653686e-05 -2.359051e-08
4.228758e-05 -1.653850e-05 -2.208802e-08
4.316004e-05 -1.689124e-05 1.135244e-07
4.315979e-05 -1.688813e-05 -1.607116e-07
4.228957e-05 -1.654009e-05 -1.954019e-08
4.228851e-05 -1.653813e-05 -1.269032e-08
4.228262e-05 -1.653802e-05 -2.238251e-08
4.228552e-05 -1.653600e-05 -8.059175e-09
4.313294e-05 -1.688232e-05 1.119386e-07
4.313271e-05 -1.687856e-05 -1.584991e-07
4.310628e-05 -1.687357e-05 1.100352e-07
4.310605e-05 -1.686916e-05 -1.558441e-07
4.230393e-05 -1.654258e-05 -1.333080e-08
4.229266e-05 -1.654097e-05 -1.790568e-08
4.308012e-05 -1.686502e-05 1.078156e-07
4.307990e-05 -1.685996e-05 -1.527479e-07
4.230625e-05 -1.654303e-05 1.115165e-08
4.229548e-05 -1.654174e-05 -1.612929e-08
4.305454e-05 -1.685670e-05 1.052816e-07
4.305434e-05 -1.685098e-05 -1.492123e-07
4.230825e-05 -1.654336e-05 -8.831055e-09
4.229798e-05 -1.654240e-05 -1.421187e-08
4.302961e-05 -1.684862e-05 1.024361e-07
4.302942e-05 -1.684226e-05 -1.452397e-07
4.230984e-05 -1.654354e-05 -6.382126e-09
4.230016e-05 -1.654293e-05 -1.215503e-08
4.298201e-05 -1.683332e-05 9.582866e-08
4.300523e-05 -1.683382e-05 -1.408338e-07
4.231102e-05 -1.654357e-05 -3.811544e-09
4.230198e-05 -1.654332e-05 -9.961554e-09
4.295947e-05 -1.682614e-05 9.208084e-08
4.298184e-05 -1.682569e-05 -1.359997e-07
4.231176e-05 -1.654346e-05 -1.132065e-09
4.230343e-05 -1.654358e-05 -7.635810e-09
4.230197e-05 -1.653989e-05 6.563932e-09
4.293786e-05 -1.681929e-05 8.805116e-08
4.295931e-05 -1.681789e-05 -1.307453e-07
4.231203e-05 -1.654320e-05 1.638735e-09
4.230448e-05 -1.654368e-05 -5.184402e-09
4.293786e-05 -1.681929e-05 -8.806424e-08
4.293772e-05 -1.681044e-05 -1.250813e-07
4.231181e-05 -1.654279e-05 4.477271e-09
4.230511e-05 -1.654364e-05 -2.616922e-09
4.291713e-05 -1.680336e-05 -1.190229e-07
4.230531e-05 -1.654344e-05 5.316854e-11
4.289761e-05 -1.679668e-05 -1.125907e-07
4.230506e-05 -1.654309e-05 2.807499e-09
4.231107e-05 -1.654224e-05 7.352800e-09
4.287931e-05 -1.680087e-05 7.445112e-08
4.287922e-05 -1.679040e-05 -1.058121e-07
4.230148e-05 -1.654121e-05 1.129907e-08
4.229550e-05 -1.653649e-05 8.747514e-09
4.230434e-05 -1.654259e-05 5.621771e-09
4.229739e-05 -1.653464e-05 4.267423e-09
4.286209e-05 -1.679543e-05 6.950101e-08
4.286200e-05 -1.678452e-05 -9.872223e-08
4.284609e-05 -1.679034e-05 6.439995e-08
4.284602e-05 -1.677906e-05 -9.136460e-08
4.229900e-05 -1.653820e-05 2.074531e-08
4.229935e-05 -1.654036e-05 1.408020e-08
4.283135e-05 -1.678556e-05 5.918789e-08
4.283130e-05 -1.677399e-05 -8.379025e-08
4.229493e-05 -1.653736e-05 2.293606e-08
4.229678e-05 -1.653946e-05 1.676171e-08
4.281791e-05 -1.678106e-05 5.390270e-08
4.281787e-05 -1.676928e-05 -7.605447e-08
4.229037e-05 -1.653654e-05 2.491354e-08
4.229378e-05 -1.653855e-05 1.930008e-08
4.280576e-05 -1.677682e-05 4.857280e-08
4.280573e-05 -1.676491e-05 -6.821042e-08
4.228536e-05 -1.653575e-05 2.664445e-08
4.229041e-05 -1.653768e-05 2.166000e-08
4.279492e-05 -1.677281e-05 4.321200e-08
4.279490e-05 -1.676084e-05 -6.030209e-08
4.227996e-05 -1.653496e-05 2.807954e-08
4.228670e-05 -1.653685e-05 2.381132e-08
4.277715e-05 -1.676550e-05 3.241919e-08
4.278537e-05 -1.675705e-05 -5.236562e-08
4.227427e-05 -1.653417e-05 2.916733e-08
4.228267e-05 -1.653606e-05 2.571958e-08
4.277715e-05 -1.675358e-05 -4.444036e-08
4.227835e-05 -1.653528e-05 2.734206e-08
4.277025e-05 -1.676225e-05 2.701710e-08
4.277025e-05 -1.675048e-05 -3.657569e-08
4.226230e-05 -1.653261e-05 -3.013386e-08
4.227380e-05 -1.653450e-05 2.863245e-08
4.276466e-05 -1.675932e-05 2.165283e-08
4.276466e-05 -1.674777e-05 -2.882650e-08
4.225340e-05 -1.653325e-05 1.046510e-08
4.225622e-05 -1.653188e-05 2.992004e-08
4.226906e-05 -1.653372e-05 2.954687e-08
4.227380e-05 -1.653276e-05 -1.876770e-08
4.276036e-05 -1.675673e-05 1.636579e-08
4.276036e-05 -1.674548e-05 -2.124570e-08
4.226421e-05 -1.653294e-05 3.004723e-08
4.226906e-05 -1.653259e-05 -1.929798e-08
4.275733e-05 -1.674363e-05 -1.387963e-08
4.224971e-05 -1.653080e-05 2.878560e-08
4.224958e-05 -1.653253e-05 1.854277e-08
4.225932e-05 -1.653218e-05 3.010238e-08
4.226422e-05 -1.653247e-05 -1.956296e-08
4.275551e-05 -1.674220e-05 -6.766378e-09
4.275486e-05 -1.675123e-05 1.327740e-09
4.275487e-05 -1.674120e-05 6.420501e-11
4.222842e-05 -1.652957e-05 2.130465e-08
4.224516e-05 -1.653023e-05 2.738160e-08
4.275535e-05 -1.675017e-05 -3.317125e-09
4.275535e-05 -1.674062e-05 6.589570e-09
4.222402e-05 -1.652959e-05 -1.800092e-08
4.224090e-05 -1.652978e-05 2.546606e-08
4.275691e-05 -1.674949e-05 -7.745367e-09
4.275690e-05 -1.674044e-05 1.279322e-08
4.222018e-05 -1.652985e-05 1.412227e-08
4.223700e-05 -1.652948e-05 2.303169e-08
4.275948e-05 -1.674919e-05 -1.194450e-08
4.275947e-05 -1.674065e-05 1.866347e-08
4.221703e-05 -1.653038e-05 9.704223e-09
4.223356e-05 -1.652937e-05 2.007277e-08
4.276301e-05 -1.674925e-05 -1.590557e-08
4.276300e-05 -1.674122e-05 2.419229e-08
4.221465e-05 -1.653121e-05 4.725015e-09
4.223066e-05 -1.652947e-05 1.658437e-08
4.276745e-05 -1.674965e-05 -1.962238e-08
4.276744e-05 -1.674214e-05 2.937440e-08
4.221311e-05 -1.653240e-05 -8.256626e-10
4.222839e-05 -1.652983e-05 1.256134e-08
4.223067e-05 -1.653514e-05 -9.698918e-09
4.277273e-05 -1.675037e-05 -2.309077e-08
4.277271e-05 -1.674339e-05 3.420646e-08
4.221250e-05 -1.653397e-05 -6.961684e-09
4.222684e-05 -1.653047e-05 7.997605e-09
4.277879e-05 -1.675139e-05 -2.630806e-08
4.277877e-05 -1.674495e-05 3.868648e-08
4.221290e-05 -1.653598e-05 -1.370172e-08
4.222610e-05 -1.653145e-05 2.885120e-09
4.279305e-05 -1.675427e-05 -3.198356e-08
4.278556e-05 -1.674678e-05 4.281339e-08
4.222626e-05 -1.653278e-05 -2.787014e-09
4.280111e-05 -1.675608e-05 -3.444037e-08
4.279302e-05 -1.674888e-05 4.658670e-08
4.222742e-05 -1.653452e-05 -9.033712e-09
4.221441e-05 -1.653846e-05 -2.107055e-08
4.280111e-05 -1.675608e-05 3.445018e-08
4.280108e-05 -1.675122e-05 5.000626e-08
4.223780e-05 -1.654260e-05 -3.145741e-08
4.225459e-05 -1.655730e-05 -2.587975e-08
4.222966e-05 -1.653671e-05 -1.587511e-08
4.224811e-05 -1.656051e-05 -1.398511e-08
4.280972e-05 -1.675810e-05 3.665266e-08
4.280970e-05 -1.675377e-05 5.307209e-08
4.281880e-05 -1.675651e-05 5.578425e-08
4.224113e-05 -1.655968e-05 -6.882290e-08
4.224390e-05 -1.654641e-05 -4.027803e-08
4.282838e-05 -1.676271e-05 -4.028473e-08
4.282834e-05 -1.675943e-05 5.814281e-08
4.225082e-05 -1.656606e-05 -8.100189e-08
4.225150e-05 -1.655086e-05 -4.985581e-08
4.283829e-05 -1.676524e-05 -4.172407e-08
4.283824e-05 -1.676249e-05 6.014776e-08
4.226210e-05 -1.657328e-05 -9.425777e-08
4.226071e-05 -1.655601e-05 -6.025915e-08
4.284851e-05 -1.676790e-05 -4.290896e-08
4.284846e-05 -1.676567e-05 6.179902e-08
4.227505e-05 -1.658139e-05 -1.086902e-07
4.227165e-05 -1.656192e-05 -7.156941e-08
4.285899e-05 -1.677065e-05 -4.383930e-08
4.285894e-05 -1.676895e-05 6.309638e-08
4.228970e-05 -1.659041e-05 -1.243926e-07
4.228445e-05 -1.656864e-05 -8.388007e-08
4.286966e-05 -1.677348e-05 -4.451494e-08
4.286960e-05 -1.677231e-05 6.403958e-08
4.230612e-05 -1.660034e-05 -1.414351e-07
4.229925e-05 -1.657624e-05 -9.729395e-08
4.288046e-05 -1.677636e-05 -4.493567e-08
4.288040e-05 -1.677572e-05 6.462824e-08
4.232438e-05 -1.661117e-05 -1.598392e-07
4.231619e-05 -1.658477e-05 -1.119171e-07
4.289134e-05 -1.677927e-05 -4.510129e-08
4.289128e-05 -1.677916e-05 6.486195e-08
4.234456e-05 -1.662279e-05 -1.795385e-07
4.233542e-05 -1.659427e-05 -1.278477e-07
4.290222e-05 -1.678219e-05 -4.501161e-08
4.290216e-05 -1.678260e-05 6.474029e-08
4.236692e-05 -1.663518e-05 2.003841e-07
4.236675e-05 -1.663502e-05 -2.003223e-07
4.235709e-05 -1.660475e-05 -1.451582e-07
4.292380e-05 -1.678794e-05 -4.406623e-08
4.291301e-05 -1.678603e-05 6.426288e-08
4.238136e-05 -1.661621e-05 -1.638669e-07
4.292374e-05 -1.678942e-05 6.342947e-08
4.247089e-05 -1.665515e-05 -2.267454e-07
4.240835e-05 -1.662855e-05 -1.838962e-07
4.238167e-05 -1.664675e-05 1.255219e-07
4.293437e-05 -1.679073e-05 -4.321109e-08
4.293431e-05 -1.679274e-05 6.224008e-08
4.294465e-05 -1.679598e-05 6.069516e-08
4.251518e-05 -1.668559e-05 -2.900127e-07
4.250643e-05 -1.666861e-05 -2.482730e-07
4.247159e-05 -1.669142e-05 1.703420e-07
4.295470e-05 -1.679910e-05 5.879586e-08
4.255392e-05 -1.668190e-05 -2.890393e-07
4.254458e-05 -1.668120e-05 -2.682826e-07
4.296446e-05 -1.679850e-05 -3.913023e-08
4.296440e-05 -1.680209e-05 5.654429e-08
4.258481e-05 -1.669159e-05 -2.848427e-07
4.260022e-05 -1.667276e-05 -2.719128e-07
4.297376e-05 -1.680082e-05 -3.727438e-08
4.297370e-05 -1.680493e-05 5.394401e-08
4.262614e-05 -1.669720e-05 -2.956688e-07
4.298259e-05 -1.680298e-05 -3.517949e-08
4.298253e-05 -1.680760e-05 5.100053e-08
4.265737e-05 -1.669597e-05 -2.900749e-07
4.264737e-05 -1.664302e-05 -2.312889e-07
4.269898e-05 -1.654272e-05 3.284415e-08
4.299089e-05 -1.680495e-05 -3.285422e-08
4.299084e-05 -1.681007e-05 4.772197e-08
4.270386e-05 -1.668297e-05 -2.721195e-07
4.299861e-05 -1.680674e-05 -3.031037e-08
4.299856e-05 -1.681232e-05 4.411990e-08
4.266421e-05 -1.651403e-05 -1.537016e-07
4.278006e-05 -1.654269e-05 -4.004391e-08
4.300570e-05 -1.680832e-05 -2.756345e-08
4.300565e-05 -1.681435e-05 4.021018e-08
4.301210e-05 -1.680969e-05 -2.463305e-08
4.301206e-05 -1.681615e-05 3.601382e-08
4.301777e-05 -1.681087e-05 -2.154280e-08
4.301772e-05 -1.681769e-05 3.155761e-08
4.302266e-05 -1.681185e-05 -1.831935e-08
4.302262e-05 -1.681899e-05 2.687407e-08
4.302674e-05 -1.681265e-05 -1.498988e-08
4.302670e-05 -1.682005e-05 2.200015e-08
4.303241e-05 -1.681377e-05 -8.097270e-09
4.302996e-05 -1.682090e-05 1.697386e-08
4.303237e-05 -1.681376e-05 8.099130e-09
4.303237e-05 -1.682154e-05 1.182900e-08
4.303392e-05 -1.681410e-05 4.554667e-09
4.303392e-05 -1.682200e-05 6.592557e-09
4.303442e-05 -1.681430e-05 2.699966e-09
4.303460e-05 -1.682226e-05 1.290011e-09
4.303438e-05 -1.682228e-05 -4.047292e-09
4.303330e-05 -1.681410e-05 6.379092e-09
4.303326e-05 -1.682204e-05 -9.382168e-09
4.303128e-05 -1.681366e-05 1.005965e-08
4.303124e-05 -1.682150e-05 -1.467660e-08
4.302837e-05 -1.681297e-05 1.371429e-08
4.302833e-05 -1.682067e-05 -1.989599e-08
4.302458e-05 -1.681201e-05 1.731796e-08
4.302454e-05 -1.681953e-05 -2.501118e-08
4.301993e-05 -1.681076e-05 2.084935e-08
4.301989e-05 -1.681807e-05 -2.999881e-08
4.301445e-05 -1.680923e-05 2.429131e-08
4.301441e-05 -1.681630e-05 -3.484093e-08
4.300816e-05 -1.680740e-05 2.763055e-08
4.300812e-05 -1.681423e-05 -3.952423e-08
4.300109e-05 -1.680530e-05 3.085712e-08
4.300104e-05 -1.681186e-05 -4.403909e-08
4.298474e-05 -1.680025e-05 3.694553e-08
4.299322e-05 -1.680921e-05 -4.837881e-08
4.298469e-05 -1.680628e-05 -5.253889e-08
4.297546e-05 -1.680308e-05 -5.651641e-08
4.296557e-05 -1.679962e-05 -6.030962e-08
4.295513e-05 -1.679073e-05 4.511233e-08
4.295506e-05 -1.679592e-05 -6.391757e-08
4.294403e-05 -1.678707e-05 4.757031e-08
4.294396e-05 -1.679199e-05 -6.733985e-08
4.293237e-05 -1.678320e-05 4.989521e-08
4.293230e-05 -1.678784e-05 -7.057637e-08
4.292018e-05 -1.677912e-05 5.208694e-08
4.292010e-05 -1.678348e-05 -7.362729e-08
4.290749e-05 -1.677484e-05 5.414558e-08
4.290741e-05 -1.677893e-05 -7.649288e-08
4.289433e-05 -1.677038e-05 5.607132e-08
4.289426e-05 -1.677420e-05 -7.917345e-08
4.288074e-05 -1.676576e-05 5.786438e-08
4.288066e-05 -1.676929e-05 -8.166936e-08
4.286675e-05 -1.676097e-05 5.952500e-08
4.286667e-05 -1.676423e-05 -8.398094e-08
4.285239e-05 -1.675604e-05 6.105341e-08
4.285230e-05 -1.675902e-05 -8.610852e-08
4.283769e-05 -1.675097e-05 6.244984e-08
4.283760e-05 -1.675368e-05 -8.805239e-08
4.282267e-05 -1.674578e-05 6.371449e-08
4.282259e-05 -1.674822e-05 -8.981283e-08
4.280729e-05 -1.674265e-05 -9.139010e-08
4.279183e-05 -1.673509e-05 -6.585563e-08
4.279176e-05 -1.673699e-05 -9.278444e-08
4.276017e-05 -1.672408e-05 6.745977e-08
4.277601e-05 -1.673124e-05 -9.399611e-08
4.274408e-05 -1.671847e-05 6.806907e-08
4.276007e-05 -1.672542e-05 -9.502541e-08
4.274399e-05 -1.671954e-05 -9.587270e-08
4.272787e-05 -1.671281e-05 6.854840e-08
4.272778e-05 -1.671361e-05 -9.653844e-08
4.271157e-05 -1.670712e-05 6.889843e-08
4.271148e-05 -1.670765e-05 -9.702327e-08
4.269521e-05 -1.670140e-05 6.912016e-08
4.269512e-05 -1.670167e-05 -9.732812e-08
4.267882e-05 -1.669567e-05 6.921495e-08
4.267873e-05 -1.669567e-05 -9.745427e-08
4.266243e-05 -1.668994e-05 6.918471e-08
4.266234e-05 -1.668967e-05 -9.740353e-08
4.264607e-05 -1.668420e-05 6.903203e-08
4.264598e-05 -1.668367e-05 -9.717844e-08
4.262976e-05 -1.667849e-05 6.876037e-08
4.262967e-05 -1.667770e-05 -9.678244e-08
4.261355e-05 -1.667279e-05 6.837424e-08
4.261346e-05 -1.667176e-05 -9.622016e-08
4.259744e-05 -1.666712e-05 6.787930e-08
4.259735e-05 -1.666585e-05 -9.549769e-08
4.258139e-05 -1.665999e-05 -9.462272e-08
4.256560e-05 -1.665417e-05 -9.360469e-08
4.255007e-05 -1.665030e-05 6.581540e-08
4.254999e-05 -1.664841e-05 -9.245456e-08
4.253467e-05 -1.664476e-05 6.496144e-08
4.253459e-05 -1.664270e-05 -9.118404e-08
4.251949e-05 -1.663926e-05 6.403556e-08
4.251941e-05 -1.663704e-05 -8.980420e-08
4.250454e-05 -1.663380e-05 6.304050e-08
4.250447e-05 -1.663143e-05 -8.832417e-08
4.248986e-05 -1.662837e-05 6.197725e-08
4.248979e-05 -1.662588e-05 -8.675158e-08
4.247544e-05 -1.662300e-05 6.084782e-08
4.247537e-05 -1.662039e-05 -8.509495e-08
4.246131e-05 -1.661769e-05 5.965711e-08
4.246125e-05 -1.661498e-05 -8.336486e-08
4.244748e-05 -1.661245e-05 5.841248e-08
4.244742e-05 -1.660966e-05 -8.157285e-08
4.243395e-05 -1.660731e-05 5.712221e-08
4.243390e-05 -1.660445e-05 -7.972998e-08
4.242075e-05 -1.660226e-05 5.579430e-08
4.242069e-05 -1.659935e-05 -7.784587e-08
4.240786e-05 -1.659732e-05 5.443577e-08
4.240781e-05 -1.659437e-05 -7.592844e-08
4.239526e-05 -1.658951e-05 -7.398387e-08
4.238303e-05 -1.658477e-05 -7.201684e-08
4.235963e-05 -1.657875e-05 4.879435e-08
4.237114e-05 -1.658017e-05 -7.003081e-08
4.234842e-05 -1.657442e-05 4.734776e-08
4.235959e-05 -1.657569e-05 -6.802820e-08
4.233754e-05 -1.657022e-05 4.589020e-08
4.234838e-05 -1.657134e-05 -6.601068e-08
4.233750e-05 -1.656712e-05 -6.397934e-08
4.232701e-05 -1.656616e-05 4.442251e-08
4.232697e-05 -1.656304e-05 -6.193488e-08
4.231682e-05 -1.656223e-05 4.294523e-08
4.231679e-05 -1.655909e-05 -5.987766e-08
4.230698e-05 -1.655844e-05 4.145868e-08
4.230695e-05 -1.655528e-05 -5.780788e-08
4.229749e-05 -1.655478e-05 3.996297e-08
4.229746e-05 -1.655160e-05 -5.572557e-08
4.228835e-05 -1.655126e-05 3.845817e-08
4.228833e-05 -1.654807e-05 -5.363069e-08
4.227957e-05 -1.654788e-05 3.694424e-08
4.227954e-05 -1.654467e-05 -5.152314e-08
4.227114e-05 -1.654463e-05 3.542109e-08
4.227111e-05 -1.654140e-05 -4.940279e-08
4.226304e-05 -1.653828e-05 -4.726948e-08
4.225533e-05 -1.653530e-05 -4.512305e-08
4.224100e-05 -1.653307e-05 2.923411e-08
4.224798e-05 -1.653246e-05 -4.296333e-08
4.224099e-05 -1.652976e-05 -4.079017e-08
4.223438e-05 -1.653054e-05 2.766312e-08
4.223436e-05 -1.652721e-05 -3.860338e-08
4.222812e-05 -1.652814e-05 2.608217e-08
4.222810e-05 -1.652480e-05 -3.640281e-08
4.222223e-05 -1.652590e-05 2.449118e-08
4.222222e-05 -1.652253e-05 -3.418830e-08
4.221671e-05 -1.652380e-05 2.289007e-08
4.221670e-05 -1.652041e-05 -3.195973e-08
4.221157e-05 -1.652184e-05 2.127881e-08
4.221156e-05 -1.651843e-05 -2.971700e-08
4.220680e-05 -1.652003e-05 1.965746e-08
4.220679e-05 -1.651660e-05 -2.746007e-08
4.220241e-05 -1.651837e-05 1.802620e-08
4.220240e-05 -1.651492e-05 -2.518901e-08
4.219840e-05 -1.651686e-05 1.638535e-08
4.219839e-05 -1.651339e-05 -2.290402e-08
4.219477e-05 -1.651550e-05 1.473550e-08
4.219476e-05 -1.651200e-05 -2.060551e-08
4.219152e-05 -1.651077e-05 -1.829424e-08
4.218866e-05 -1.650968e-05 -1.597134e-08
4.218619e-05 -1.651229e-05 9.743259e-09
4.218619e-05 -1.650874e-05 -1.363857e-08
4.218242e-05 -1.651087e-05 6.401092e-09
4.218411e-05 -1.650795e-05 -1.129844e-08
4.218112e-05 -1.651037e-05 4.736633e-09
4.218242e-05 -1.650731e-05 -8.954472e-09
4.218021e-05 -1.651001e-05 3.083847e-09
4.218112e-05 -1.650682e-05 -6.611389e-09
4.217969e-05 -1.650977e-05 1.449515e-09
4.218021e-05 -1.650647e-05 -4.275392e-09
4.217969e-05 -1.650625e-05 -1.954254e-09
4.217955e-05 -1.650965e-05 -1.588403e-10
4.217955e-05 -1.650617e-05 3.427256e-10
4.217979e-05 -1.650963e-05 -1.733722e-09
4.217979e-05 -1.650622e-05 2.605146e-09
4.218040e-05 -1.650972e-05 -3.268918e-09
4.218040e-05 -1.650637e-05 4.822520e-09
4.218137e-05 -1.650989e-05 -4.760796e-09
4.218137e-05 -1.650663e-05 6.985707e-09
4.218269e-05 -1.651014e-05 -6.208119e-09
4.218269e-05 -1.650699e-05 9.087407e-09
4.218435e-05 -1.650743e-05 1.112054e-08
4.218633e-05 -1.650797e-05 1.307630e-08
4.218864e-05 -1.651138e-05 -1.026148e-08
4.218863e-05 -1.650861e-05 1.494431e-08
4.219124e-05 -1.651196e-05 -1.149809e-08
4.219124e-05 -1.650935e-05 1.671401e-08
4.219730e-05 -1.651338e-05 -1.375567e-08
4.219413e-05 -1.651019e-05 1.837581e-08
4.219729e-05 -1.651112e-05 1.992157e-08
4.220070e-05 -1.651421e-05 -1.476366e-08
4.220070e-05 -1.651214e-05 2.134474e-08
4.220434e-05 -1.651512e-05 -1.568427e-08
4.220433e-05 -1.651325e-05 2.264025e-08
4.220818e-05 -1.651610e-05 -1.651371e-08
4.220817e-05 -1.651443e-05 2.380429e-08
4.221220e-05 -1.651714e-05 -1.724911e-08
4.221219e-05 -1.651568e-05 2.483407e-08
4.221638e-05 -1.651825e-05 -1.788834e-08
4.221637e-05 -1.651699e-05 2.572764e-08
4.222070e-05 -1.651940e-05 -1.842988e-08
4.222069e-05 -1.651836e-05 2.648360e-08
4.222513e-05 -1.652060e-05 -1.887268e-08
4.222512e-05 -1.651976e-05 2.710103e-08
4.222964e-05 -1.652121e-05 2.757934e-08
4.223424e-05 -1.652268e-05 2.791812e-08
4.223889e-05 -1.652437e-05 -1.960237e-08
4.223888e-05 -1.652417e-05 2.811713e-08
4.224355e-05 -1.652566e-05 -1.964488e-08
4.224354e-05 -1.652567e-05 2.817620e-08
4.224821e-05 -1.652694e-05 -1.958669e-08
4.224820e-05 -1.652716e-05 2.809519e-08
4.225743e-05 -1.652947e-05 -1.916767e-08
4.225283e-05 -1.652865e-05 2.787400e-08
4.226195e-05 -1.653070e-05 -1.880655e-08
4.225742e-05 -1.653012e-05 2.751249e-08
4.226637e-05 -1.653189e-05 -1.834415e-08
4.226193e-05 -1.653156e-05 2.701051e-08
4.227067e-05 -1.653304e-05 -1.778027e-08
4.226635e-05 -1.653296e-05 2.636785e-08
4.227065e-05 -1.653432e-05 2.558430e-08
4.227483e-05 -1.653412e-05 -1.711472e-08
4.227481e-05 -1.653562e-05 2.465956e-08
4.227882e-05 -1.653514e-05 -1.634728e-08
4.227881e-05 -1.653686e-05 2.359335e-08
4.228262e-05 -1.653609e-05 -1.547777e-08
4.228261e-05 -1.653802e-05 2.238535e-08
4.228620e-05 -1.653910e-05 2.103529e-08
4.228956e-05 -1.654008e-05 1.954299e-08
4.229267e-05 -1.653839e-05 -1.225672e-08
4.229265e-05 -1.654097e-05 1.790846e-08
4.229548e-05 -1.653895e-05 -1.097999e-08
4.229547e-05 -1.654174e-05 1.613202e-08
4.229798e-05 -1.653939e-05 -9.603440e-09
4.229797e-05 -1.654239e-05 1.421452e-08
4.230016e-05 -1.653971e-05 -8.129214e-09
4.230015e-05 -1.654292e-05 1.215756e-08
4.230343e-05 -1.653995e-05 -4.902996e-09
4.230197e-05 -1.654332e-05 9.963919e-09
4.230341e-05 -1.654357e-05 7.637950e-09
4.230448e-05 -1.653987e-05 -3.163351e-09
4.230446e-05 -1.654368e-05 5.186251e-09
4.230511e-05 -1.653965e-05 -1.351954e-09
4.230510e-05 -1.654363e-05 2.618390e-09
4.230531e-05 -1.653930e-05 5.174397e-10
4.230529e-05 -1.654343e-05 -5.216969e-11
4.230506e-05 -1.653884e-05 2.426768e-09
4.230504e-05 -1.654308e-05 -2.807071e-09
4.230434e-05 -1.653826e-05 4.353140e-09
4.230432e-05 -1.654259e-05 -5.622019e-09
4.230313e-05 -1.654195e-05 -8.465982e-09
4.230146e-05 -1.654120e-05 -1.130095e-08
4.229935e-05 -1.653614e-05 9.938779e-09
4.229933e-05 -1.654035e-05 -1.408303e-08
4.229678e-05 -1.653542e-05 1.162890e-08
4.229676e-05 -1.653945e-05 -1.676557e-08
4.229379e-05 -1.653475e-05 1.319066e-08
4.229377e-05 -1.653854e-05 -1.930502e-08
4.229042e-05 -1.653417e-05 1.461456e-08
4.229040e-05 -1.653767e-05 -2.166605e-08
4.228670e-05 -1.653369e-05 1.589715e-08
4.228668e-05 -1.653685e-05 -2.381846e-08
4.228267e-05 -1.653330e-05 1.702992e-08
4.228265e-05 -1.653606e-05 -2.572776e-08
4.227836e-05 -1.653300e-05 1.799254e-08
4.227834e-05 -1.653528e-05 -2.735119e-08
4.226907e-05 -1.653259e-05 1.928432e-08
4.227379e-05 -1.653450e-05 -2.864246e-08
4.226422e-05 -1.653247e-05 1.954842e-08
4.226905e-05 -1.653371e-05 -2.955766e-08
4.225933e-05 -1.653241e-05 1.951948e-08
4.226420e-05 -1.653293e-05 -3.005870e-08
4.225932e-05 -1.653241e-05 -1.953474e-08
4.225931e-05 -1.653217e-05 -3.011446e-08
4.225445e-05 -1.653145e-05 -2.970056e-08
4.224971e-05 -1.653079e-05 -2.879858e-08
4.224517e-05 -1.653272e-05 1.746678e-08
4.224516e-05 -1.653023e-05 -2.739493e-08
4.224091e-05 -1.653306e-05 1.607911e-08
4.224090e-05 -1.652978e-05 -2.547969e-08
4.223701e-05 -1.653355e-05 1.432348e-08
4.223700e-05 -1.652948e-05 -2.304557e-08
4.223356e-05 -1.653423e-05 1.219303e-08
4.223356e-05 -1.652937e-05 -2.008691e-08
4.222839e-05 -1.653631e-05 6.782940e-09
4.223067e-05 -1.652948e-05 -1.659876e-08
4.222840e-05 -1.652983e-05 -1.257605e-08
4.222684e-05 -1.653778e-05 3.489789e-09
4.222685e-05 -1.653048e-05 -8.012685e-09
4.222610e-05 -1.653958e-05 -2.069015e-10
4.222611e-05 -1.653145e-05 -2.900677e-09
4.222626e-05 -1.654177e-05 -4.318939e-09
4.222628e-05 -1.653279e-05 2.770850e-09
4.222742e-05 -1.654439e-05 -8.861925e-09
4.222743e-05 -1.653453e-05 9.016774e-09
4.222966e-05 -1.654749e-05 -1.385629e-08
4.222968e-05 -1.653671e-05 1.585722e-08
4.223311e-05 -1.653939e-05 2.331896e-08
4.223782e-05 -1.654261e-05 3.143696e-08
4.224391e-05 -1.656028e-05 -3.184968e-08
4.224392e-05 -1.654642e-05 4.025596e-08
4.225151e-05 -1.656593e-05 -3.899153e-08
4.225152e-05 -1.655087e-05 4.983197e-08
4.226073e-05 -1.657241e-05 -4.679827e-08
4.226073e-05 -1.655602e-05 6.023351e-08
4.227168e-05 -1.657979e-05 -5.533874e-08
4.227168e-05 -1.656193e-05 7.154211e-08
4.228449e-05 -1.658817e-05 -6.468783e-08
4.228449e-05 -1.656866e-05 8.385159e-08
4.229930e-05 -1.659760e-05 -7.492148e-08
4.229930e-05 -1.657627e-05 9.726526e-08
4.231626e-05 -1.660817e-05 -8.610776e-08
4.231625e-05 -1.658481e-05 1.118899e-07
4.233551e-05 -1.661989e-05 -9.829250e-08
4.233551e-05 -1.659432e-05 1.278246e-07
4.235721e-05 -1.663275e-05 -1.114770e-07
4.235721e-05 -1.660483e-05 1.451433e-07
4.240854e-05 -1.666133e-05 -1.404155e-07
4.238152e-05 -1.661631e-05 1.638662e-07
4.240876e-05 -1.666149e-05 1.403495e-07
4.240858e-05 -1.662869e-05 1.839185e-07
4.243871e-05 -1.667661e-05 1.555111e-07
4.243849e-05 -1.664181e-05 2.050720e-07
4.250679e-05 -1.670444e-05 -1.838375e-07
4.247131e-05 -1.665538e-05 2.268649e-07
4.250700e-05 -1.666888e-05 2.485012e-07
4.254502e-05 -1.671469e-05 -1.942951e-07
4.254535e-05 -1.668146e-05 2.687345e-07
4.258536e-05 -1.671953e-05 -1.995524e-07
4.258582e-05 -1.669168e-05 2.857630e-07
4.259990e-05 -1.667196e-05 2.741484e-07
4.262712e-05 -1.669687e-05 2.970608e-07
4.262682e-05 -1.671606e-05 -1.970425e-07
4.265827e-05 -1.669515e-05 2.920965e-07
4.273230e-05 -1.665508e-05 2.341614e-07
4.267672e-05 -1.669169e-05 -1.771808e-07
4.270478e-05 -1.668210e-05 2.746676e-07
4.270218e-05 -1.664497e-05 1.461935e-07
4.266795e-05 -1.651417e-05 1.555449e-07
4.270748e-05 -1.657179e-05 1.093029e-07
4.280832e-05 -1.657526e-05 9.120765e-08
4.269851e-05 -1.664396e-05 -1.467084e-07
4.277993e-05 -1.654232e-05 4.074541e-08
4.280978e-05 -1.662893e-05 -4.023874e-08
4.270518e-05 -1.657165e-05 -1.095211e-07
4.277726e-05 -1.652216e-05 6.052262e-10
4.281086e-05 -1.663039e-05 3.953398e-08
4.269804e-05 -1.654300e-05 -3.351720e-08
4.280362e-05 -1.657534e-05 -9.004958e-08
4.277248e-05 -1.664625e-05 1.461162e-07
4.267813e-05 -1.669132e-05 1.776063e-07
4.278745e-05 -1.668374e-05 5.735660e-08
4.277002e-05 -1.664530e-05 -1.460470e-07
4.252858e-05 -1.665427e-05 1.211424e-10
4.251524e-05 -1.664215e-05 -3.058004e-10
4.252248e-05 -1.664677e-05 -4.982255e-10
4.251833e-05 -1.663428e-05 -1.161040e-09
4.251939e-05 -1.664295e-05 -2.771628e-09
4.265785e-05 -1.652216e-05 1.005925e-09
4.278656e-05 -1.668318e-05 -6.012527e-08
4.262781e-05 -1.671629e-05 1.976728e-07
4.272310e-05 -1.669060e-05 1.871006e-07
4.270091e-05 -1.672033e-05 2.061770e-07
4.258637e-05 -1.672034e-05 1.998673e-07
4.266265e-05 -1.672708e-05 2.053803e-07
4.254579e-05 -1.671527e-05 1.943430e-07
4.262141e-05 -1.672361e-05 1.975938e-07
4.250736e-05 -1.670485e-05 1.837982e-07
4.257959e-05 -1.671363e-05 1.857941e-07
4.253884e-05 -1.670008e-05 1.715414e-07
4.247118e-05 -1.669112e-05 -1.704042e-07
4.250024e-05 -1.668483e-05 1.561949e-07
4.243841e-05 -1.667639e-05 -1.555779e-07
4.246442e-05 -1.666911e-05 1.407094e-07
4.250463e-05 -1.669916e-05 -8.890458e-08
4.238150e-05 -1.664664e-05 -1.255849e-07
4.243167e-05 -1.665371e-05 1.256941e-07
4.235733e-05 -1.663283e-05 1.114181e-07
4.240207e-05 -1.663910e-05 1.115003e-07
4.233560e-05 -1.661994e-05 9.823839e-08
4.237558e-05 -1.662555e-05 9.829976e-08
4.231632e-05 -1.660820e-05 8.605873e-08
4.235206e-05 -1.661318e-05 8.614611e-08
4.229935e-05 -1.659762e-05 7.487747e-08
4.233132e-05 -1.660203e-05 7.502073e-08
4.228453e-05 -1.658818e-05 6.464855e-08
4.231318e-05 -1.659206e-05 6.486454e-08
4.227171e-05 -1.657980e-05 5.530373e-08
4.229743e-05 -1.658320e-05 5.559943e-08
4.226075e-05 -1.657242e-05 4.676699e-08
4.228387e-05 -1.657539e-05 4.714214e-08
4.225154e-05 -1.656594e-05 3.896340e-08
4.227232e-05 -1.656853e-05 3.941245e-08
4.224393e-05 -1.656028e-05 3.182415e-08
4.226261e-05 -1.656252e-05 3.233782e-08
4.223783e-05 -1.655537e-05 2.528895e-08
4.225459e-05 -1.655730e-05 2.585540e-08
4.223781e-05 -1.655537e-05 -2.531234e-08
4.223311e-05 -1.655113e-05 1.930682e-08
4.224811e-05 -1.655278e-05 1.991253e-08
4.223309e-05 -1.655113e-05 -1.932853e-08
4.222968e-05 -1.654749e-05 1.383586e-08
4.224304e-05 -1.654890e-05 1.446626e-08
4.222743e-05 -1.654439e-05 8.842469e-09
4.223926e-05 -1.654557e-05 9.482340e-09
4.222628e-05 -1.654177e-05 4.300216e-09
4.223665e-05 -1.654275e-05 4.934098e-09
4.222612e-05 -1.653958e-05 1.887103e-10
4.223510e-05 -1.654039e-05 8.011022e-10
4.222685e-05 -1.653778e-05 -3.507590e-09
4.223453e-05 -1.653843e-05 -2.932008e-09
4.222840e-05 -1.653631e-05 -6.800461e-09
4.223481e-05 -1.653682e-05 -6.276645e-09
4.223066e-05 -1.653514e-05 9.681615e-09
4.223587e-05 -1.653553e-05 -9.241267e-09
4.223357e-05 -1.653424e-05 -1.221017e-08
4.223761e-05 -1.653452e-05 -1.183226e-08
4.223701e-05 -1.653355e-05 -1.434045e-08
4.223994e-05 -1.653375e-05 -1.405477e-08
4.224091e-05 -1.653306e-05 -1.609589e-08
4.224276e-05 -1.653318e-05 -1.591342e-08
4.224517e-05 -1.653272e-05 -1.748333e-08
4.224600e-05 -1.653278e-05 -1.741307e-08
4.224972e-05 -1.653252e-05 -1.851116e-08
4.224957e-05 -1.653253e-05 -1.855955e-08
4.224972e-05 -1.653252e-05 1.849493e-08
4.225447e-05 -1.653242e-05 -1.919024e-08
4.225339e-05 -1.653240e-05 -1.936039e-08
4.225447e-05 -1.653242e-05 1.917443e-08
4.225738e-05 -1.653235e-05 -1.982561e-08
4.225585e-05 -1.653295e-05 1.133848e-08
4.226145e-05 -1.653238e-05 -1.996855e-08
4.226556e-05 -1.653247e-05 -1.980647e-08
4.227381e-05 -1.653277e-05 1.875509e-08
4.226962e-05 -1.653262e-05 -1.936100e-08
4.227835e-05 -1.653299e-05 -1.800396e-08
4.227359e-05 -1.653281e-05 -1.865796e-08
4.228266e-05 -1.653330e-05 -1.704004e-08
4.227741e-05 -1.653307e-05 -1.772624e-08
4.228669e-05 -1.653368e-05 -1.590591e-08
4.228105e-05 -1.653340e-05 -1.659547e-08
4.229040e-05 -1.653416e-05 -1.462194e-08
4.228449e-05 -1.653383e-05 -1.529251e-08
4.229377e-05 -1.653474e-05 -1.319665e-08
4.228768e-05 -1.653436e-05 -1.383884e-08
4.229676e-05 -1.653541e-05 -1.163352e-08
4.229060e-05 -1.653500e-05 -1.225152e-08
4.229934e-05 -1.653613e-05 -9.942044e-09
4.229321e-05 -1.653572e-05 -1.054788e-08
4.230147e-05 -1.653688e-05 -8.143820e-09
4.229548e-05 -1.653649e-05 -8.750002e-09
4.230148e-05 -1.653688e-05 8.141841e-09
4.230313e-05 -1.653759e-05 -6.269584e-09
4.229737e-05 -1.653724e-05 -6.885342e-09
4.230315e-05 -1.653760e-05 6.268781e-09
4.230432e-05 -1.653825e-05 -4.352906e-09
4.229886e-05 -1.653796e-05 -4.983806e-09
4.230504e-05 -1.653883e-05 -2.425665e-09
4.229993e-05 -1.653860e-05 -3.074415e-09
4.230530e-05 -1.653930e-05 -5.156404e-10
4.230057e-05 -1.653913e-05 -1.182975e-09
4.230510e-05 -1.653965e-05 1.354288e-09
4.230079e-05 -1.653955e-05 6.689565e-10
4.230447e-05 -1.653986e-05 3.166090e-09
4.230058e-05 -1.653984e-05 2.464218e-09
4.230342e-05 -1.653995e-05 4.906018e-09
4.229995e-05 -1.653999e-05 4.189669e-09
4.230198e-05 -1.653990e-05 -6.560711e-09
4.229893e-05 -1.654001e-05 5.835596e-09
4.230015e-05 -1.653971e-05 8.132564e-09
4.229752e-05 -1.653989e-05 7.395048e-09
4.229797e-05 -1.653939e-05 9.606867e-09
4.229576e-05 -1.653963e-05 8.863229e-09
4.229547e-05 -1.653895e-05 1.098347e-08
4.229365e-05 -1.653925e-05 1.023696e-08
4.229266e-05 -1.653839e-05 1.226022e-08
4.229122e-05 -1.653875e-05 1.151423e-08
4.228956e-05 -1.653772e-05 1.343582e-08
4.228850e-05 -1.653813e-05 1.269390e-08
4.228957e-05 -1.653772e-05 -1.343233e-08
4.228621e-05 -1.653695e-05 1.450961e-08
4.228551e-05 -1.653740e-05 1.377535e-08
4.228622e-05 -1.653695e-05 -1.450611e-08
4.228262e-05 -1.653609e-05 1.548126e-08
4.228226e-05 -1.653658e-05 1.475839e-08
4.227881e-05 -1.653514e-05 1.635075e-08
4.227879e-05 -1.653567e-05 1.564300e-08
4.227482e-05 -1.653412e-05 1.711818e-08
4.227512e-05 -1.653468e-05 1.642936e-08
4.227066e-05 -1.653303e-05 1.778373e-08
4.227127e-05 -1.653362e-05 1.711767e-08
4.226726e-05 -1.653250e-05 1.770817e-08
4.226313e-05 -1.653132e-05 1.820107e-08
4.225888e-05 -1.653011e-05 1.859659e-08
4.225285e-05 -1.652822e-05 -1.942766e-08
4.225456e-05 -1.652886e-05 1.889489e-08
4.224820e-05 -1.652694e-05 1.959012e-08
4.225017e-05 -1.652759e-05 1.909611e-08
4.224354e-05 -1.652566e-05 1.964831e-08
4.224575e-05 -1.652630e-05 1.920037e-08
4.223888e-05 -1.652437e-05 1.960580e-08
4.224131e-05 -1.652501e-05 1.920777e-08
4.223425e-05 -1.652309e-05 1.946277e-08
4.223688e-05 -1.652372e-05 1.911842e-08
4.223425e-05 -1.652309e-05 -1.945934e-08
4.222965e-05 -1.652183e-05 1.921942e-08
4.223249e-05 -1.652245e-05 1.893244e-08
4.222966e-05 -1.652183e-05 -1.921599e-08
4.222513e-05 -1.652060e-05 1.887610e-08
4.222816e-05 -1.652120e-05 1.865003e-08
4.222069e-05 -1.651940e-05 1.843329e-08
4.222390e-05 -1.651997e-05 1.827147e-08
4.221637e-05 -1.651825e-05 1.789172e-08
4.221975e-05 -1.651879e-05 1.779721e-08
4.221219e-05 -1.651714e-05 1.725245e-08
4.221572e-05 -1.651766e-05 1.722792e-08
4.220817e-05 -1.651610e-05 1.651700e-08
4.221184e-05 -1.651658e-05 1.656461e-08
4.220433e-05 -1.651512e-05 1.568748e-08
4.220813e-05 -1.651556e-05 1.580872e-08
4.220070e-05 -1.651421e-05 1.476676e-08
4.220462e-05 -1.651461e-05 1.496225e-08
4.219729e-05 -1.651338e-05 1.375862e-08
4.220131e-05 -1.651374e-05 1.402796e-08
4.219414e-05 -1.651263e-05 -1.266515e-08
4.219824e-05 -1.651295e-05 1.300944e-08
4.219124e-05 -1.651196e-05 1.150062e-08
4.219541e-05 -1.651224e-05 1.191128e-08
4.218864e-05 -1.651138e-05 1.026375e-08
4.219285e-05 -1.651162e-05 1.073906e-08
4.218633e-05 -1.651089e-05 8.964919e-09
4.219057e-05 -1.651108e-05 9.499189e-09
4.218633e-05 -1.651089e-05 -8.962938e-09
4.218435e-05 -1.651047e-05 7.611544e-09
4.218859e-05 -1.651063e-05 8.198525e-09
4.218435e-05 -1.651047e-05 -7.609872e-09
4.218269e-05 -1.651014e-05 6.209470e-09
4.218691e-05 -1.651026e-05 6.843629e-09
4.218942e-05 -1.651311e-05 -1.612844e-09
4.218137e-05 -1.650989e-05 4.761828e-09
4.218554e-05 -1.650996e-05 5.440030e-09
4.218040e-05 -1.650972e-05 3.269624e-09
4.218449e-05 -1.650975e-05 3.992014e-09
4.217979e-05 -1.650963e-05 1.734117e-09
4.218377e-05 -1.650961e-05 2.503352e-09
4.217955e-05 -1.650965e-05 1.589257e-10
4.218341e-05 -1.650957e-05 9.785184e-10
4.217969e-05 -1.650977e-05 -1.449720e-09
4.218339e-05 -1.650963e-05 -5.767467e-10
4.218374e-05 -1.650981e-05 -2.155782e-09
4.218446e-05 -1.651011e-05 -3.751810e-09
4.218557e-05 -1.651053e-05 -5.358585e-09
4.218411e-05 -1.651151e-05 8.071496e-09
4.218705e-05 -1.651110e-05 -6.970754e-09
4.218619e-05 -1.651229e-05 -9.744371e-09
4.218892e-05 -1.651180e-05 -8.583964e-09
4.218866e-05 -1.651321e-05 -1.141402e-08
4.219117e-05 -1.651265e-05 -1.019485e-08
4.218866e-05 -1.651321e-05 1.141283e-08
4.219152e-05 -1.651428e-05 -1.307879e-08
4.219382e-05 -1.651365e-05 -1.180087e-08
4.219152e-05 -1.651428e-05 1.307755e-08
4.219477e-05 -1.651550e-05 -1.473679e-08
4.219684e-05 -1.651479e-05 -1.340020e-08
4.219839e-05 -1.651686e-05 -1.638666e-08
4.220025e-05 -1.651608e-05 -1.499156e-08
4.220240e-05 -1.651837e-05 -1.802752e-08
4.220405e-05 -1.651752e-05 -1.657413e-08
4.220680e-05 -1.652003e-05 -1.965880e-08
4.220822e-05 -1.651910e-05 -1.814735e-08
4.221156e-05 -1.652184e-05 -2.128014e-08
4.221278e-05 -1.652084e-05 -1.971092e-08
4.221671e-05 -1.652380e-05 -2.289140e-08
4.221771e-05 -1.652272e-05 -2.126471e-08
4.222223e-05 -1.652590e-05 -2.449252e-08
4.222302e-05 -1.652475e-05 -2.280866e-08
4.222812e-05 -1.652814e-05 -2.608350e-08
4.222870e-05 -1.652692e-05 -2.434282e-08
4.223437e-05 -1.653053e-05 -2.766445e-08
4.223475e-05 -1.652924e-05 -2.586726e-08
4.224100e-05 -1.653307e-05 -2.923543e-08
4.224117e-05 -1.653170e-05 -2.738210e-08
4.224799e-05 -1.653575e-05 3.079528e-08
4.224796e-05 -1.653431e-05 -2.888744e-08
4.225535e-05 -1.653857e-05 -3.234806e-08
4.225511e-05 -1.653706e-05 -3.038342e-08
4.225535e-05 -1.653857e-05 3.234675e-08
4.226306e-05 -1.654153e-05 -3.388995e-08
4.226262e-05 -1.653995e-05 -3.187018e-08
4.226306e-05 -1.654153e-05 3.388864e-08
4.227113e-05 -1.654463e-05 -3.542241e-08
4.227049e-05 -1.654298e-05 -3.334785e-08
4.226830e-05 -1.654342e-05 1.904632e-08
4.227957e-05 -1.654788e-05 -3.694554e-08
4.227872e-05 -1.654616e-05 -3.481653e-08
4.228835e-05 -1.655126e-05 -3.845948e-08
4.228731e-05 -1.654947e-05 -3.627638e-08
4.229749e-05 -1.655478e-05 -3.996427e-08
4.229625e-05 -1.655292e-05 -3.772750e-08
4.230698e-05 -1.655843e-05 -4.145997e-08
4.230555e-05 -1.655651e-05 -3.916997e-08
4.231682e-05 -1.656223e-05 -4.294654e-08
4.231519e-05 -1.656024e-05 -4.060383e-08
4.232701e-05 -1.656616e-05 -4.442382e-08
4.232518e-05 -1.656410e-05 -4.202907e-08
4.233754e-05 -1.657022e-05 -4.589152e-08
4.233552e-05 -1.656810e-05 -4.344554e-08
4.234621e-05 -1.657223e-05 -4.485299e-08
4.235724e-05 -1.657649e-05 -4.625092e-08
4.237119e-05 -1.658321e-05 5.022870e-08
4.236860e-05 -1.658089e-05 -4.763852e-08
4.238308e-05 -1.658779e-05 -5.165042e-08
4.238030e-05 -1.658541e-05 -4.901457e-08
4.238308e-05 -1.658779e-05 5.164893e-08
4.239530e-05 -1.659250e-05 -5.305407e-08
4.239234e-05 -1.659006e-05 -5.037734e-08
4.239531e-05 -1.659250e-05 5.305245e-08
4.240786e-05 -1.659732e-05 -5.443753e-08
4.240471e-05 -1.659483e-05 -5.172432e-08
4.242074e-05 -1.660226e-05 -5.579623e-08
4.241739e-05 -1.659972e-05 -5.305214e-08
4.243395e-05 -1.660731e-05 -5.712436e-08
4.243040e-05 -1.660472e-05 -5.435645e-08
4.244747e-05 -1.661245e-05 -5.841489e-08
4.244371e-05 -1.660982e-05 -5.563179e-08
4.246130e-05 -1.661769e-05 -5.965982e-08
4.245733e-05 -1.661502e-05 -5.687162e-08
4.247543e-05 -1.662300e-05 -6.085085e-08
4.247123e-05 -1.662030e-05 -5.806867e-08
4.248985e-05 -1.662837e-05 -6.198061e-08
4.248540e-05 -1.662565e-05 -5.921555e-08
4.250454e-05 -1.663380e-05 -6.304421e-08
4.249984e-05 -1.663106e-05 -6.030561e-08
4.251948e-05 -1.663926e-05 -6.403961e-08
4.251451e-05 -1.663651e-05 -6.133354e-08
4.253466e-05 -1.664476e-05 -6.496582e-08
4.252940e-05 -1.664200e-05 -6.229505e-08
4.255006e-05 -1.665030e-05 -6.582010e-08
4.254450e-05 -1.664751e-05 -6.318566e-08
4.256567e-05 -1.665587e-05 -6.659672e-08
4.255980e-05 -1.665307e-05 -6.399964e-08
4.256568e-05 -1.665587e-05 6.659171e-08
4.258147e-05 -1.666147e-05 -6.728779e-08
4.257527e-05 -1.665865e-05 -6.473001e-08
4.258148e-05 -1.666148e-05 6.728247e-08
4.259743e-05 -1.666711e-05 -6.788487e-08
4.259091e-05 -1.666428e-05 -6.536919e-08
4.258396e-05 -1.666277e-05 1.504624e-08
4.261354e-05 -1.667278e-05 -6.838000e-08
4.260668e-05 -1.666993e-05 -6.590990e-08
4.262975e-05 -1.667848e-05 -6.876629e-08
4.262258e-05 -1.667562e-05 -6.634573e-08
4.264606e-05 -1.668420e-05 -6.903807e-08
4.263856e-05 -1.668133e-05 -6.667133e-08
4.266242e-05 -1.668993e-05 -6.919084e-08
4.265462e-05 -1.668706e-05 -6.688239e-08
4.267881e-05 -1.669567e-05 -6.922114e-08
4.267071e-05 -1.669280e-05 -6.697560e-08
4.269520e-05 -1.670140e-05 -6.912639e-08
4.268682e-05 -1.669854e-05 -6.694849e-08
4.271156e-05 -1.670712e-05 -6.890469e-08
4.270291e-05 -1.670428e-05 -6.679923e-08
4.272786e-05 -1.671281e-05 -6.855468e-08
4.271895e-05 -1.670999e-05 -6.652651e-08
4.274407e-05 -1.671846e-05 -6.807536e-08
4.273491e-05 -1.671567e-05 -6.612941e-08
4.275077e-05 -1.672131e-05 -6.560727e-08
4.276650e-05 -1.672689e-05 -6.495964e-08
4.278205e-05 -1.673241e-05 -6.418618e-08
4.279185e-05 -1.673510e-05 6.584936e-08
4.280737e-05 -1.674048e-05 -6.485388e-08
4.279741e-05 -1.673785e-05 -6.328667e-08
4.280739e-05 -1.674049e-05 6.484759e-08
4.282265e-05 -1.674578e-05 -6.372077e-08
4.281253e-05 -1.674320e-05 -6.226088e-08
4.283767e-05 -1.675096e-05 -6.245610e-08
4.282740e-05 -1.674845e-05 -6.110861e-08
4.285237e-05 -1.675603e-05 -6.105967e-08
4.284197e-05 -1.675359e-05 -5.982969e-08
4.286673e-05 -1.676096e-05 -5.953126e-08
4.285621e-05 -1.675859e-05 -5.842395e-08
4.288072e-05 -1.676575e-05 -5.787065e-08
4.287010e-05 -1.676346e-05 -5.689115e-08
4.289431e-05 -1.677038e-05 -5.607759e-08
4.288360e-05 -1.676818e-05 -5.523108e-08
4.290746e-05 -1.677484e-05 -5.415186e-08
4.289669e-05 -1.677273e-05 -5.344348e-08
4.292015e-05 -1.677911e-05 -5.209322e-08
4.290932e-05 -1.677711e-05 -5.152809e-08
4.293234e-05 -1.678319e-05 -4.990149e-08
4.292147e-05 -1.678129e-05 -4.948469e-08
4.294400e-05 -1.678706e-05 -4.757660e-08
4.293311e-05 -1.678528e-05 -4.731305e-08
4.295510e-05 -1.679072e-05 -4.511860e-08
4.294419e-05 -1.678905e-05 -4.501305e-08
4.296561e-05 -1.679414e-05 -4.252786e-08
4.295470e-05 -1.679259e-05 -4.258473e-08
4.296563e-05 -1.679415e-05 4.252159e-08
4.297549e-05 -1.679732e-05 -3.980512e-08
4.296460e-05 -1.679590e-05 -4.002837e-08
4.297551e-05 -1.679733e-05 3.979886e-08
4.298471e-05 -1.680024e-05 -3.695174e-08
4.297386e-05 -1.679896e-05 -3.734465e-08
4.299328e-05 -1.680291e-05 3.396380e-08
4.298245e-05 -1.680176e-05 -3.453481e-08
4.300106e-05 -1.680529e-05 -3.086311e-08
4.299033e-05 -1.680428e-05 -3.160096e-08
4.300813e-05 -1.680739e-05 -2.763635e-08
4.299748e-05 -1.680653e-05 -2.854637e-08
4.301442e-05 -1.680921e-05 -2.429683e-08
4.300388e-05 -1.680850e-05 -2.537589e-08
4.301990e-05 -1.681075e-05 -2.085449e-08
4.300949e-05 -1.681018e-05 -2.209643e-08
4.302455e-05 -1.681199e-05 -1.732260e-08
4.301429e-05 -1.681156e-05 -1.871756e-08
4.302834e-05 -1.681296e-05 -1.371831e-08
4.301827e-05 -1.681266e-05 -1.525198e-08
4.303125e-05 -1.681365e-05 -1.006290e-08
4.302140e-05 -1.681348e-05 -1.171599e-08
4.303326e-05 -1.681409e-05 -6.381440e-09
4.302369e-05 -1.681402e-05 -8.129543e-09
4.303438e-05 -1.681429e-05 -2.701322e-09
4.302514e-05 -1.681433e-05 -4.515695e-09
4.302574e-05 -1.681440e-05 -8.990762e-10
4.303463e-05 -1.681430e-05 -9.512414e-10
4.302551e-05 -1.681429e-05 2.696767e-09
4.303396e-05 -1.681411e-05 -4.553898e-09
4.302447e-05 -1.681402e-05 6.252138e-09
4.302062e-05 -1.680943e-05 -2.609429e-09
4.303000e-05 -1.681329e-05 -1.157772e-08
4.302264e-05 -1.681360e-05 9.751787e-09
4.302671e-05 -1.681264e-05 1.499389e-08
4.302003e-05 -1.681304e-05 1.318192e-08
4.302263e-05 -1.681184e-05 1.832440e-08
4.301666e-05 -1.681234e-05 1.652587e-08
4.301773e-05 -1.681085e-05 2.154882e-08
4.301253e-05 -1.681146e-05 1.976237e-08
4.301207e-05 -1.680968e-05 2.463992e-08
4.300766e-05 -1.681039e-05 2.286721e-08
4.300567e-05 -1.680830e-05 2.757104e-08
4.300209e-05 -1.680912e-05 2.581620e-08
4.299858e-05 -1.680672e-05 3.031855e-08
4.299584e-05 -1.680765e-05 2.858746e-08
4.299086e-05 -1.680494e-05 3.286286e-08
4.298896e-05 -1.680596e-05 3.116250e-08
4.298256e-05 -1.680297e-05 3.518848e-08
4.272211e-05 -1.669046e-05 -1.874309e-07
4.266307e-05 -1.673727e-05 1.068204e-07
4.298148e-05 -1.680408e-05 3.352656e-08
4.297373e-05 -1.680081e-05 3.728362e-08
4.270050e-05 -1.672069e-05 -2.048691e-07
4.270196e-05 -1.671619e-05 -1.007227e-07
4.262176e-05 -1.674028e-05 1.097650e-07
4.297346e-05 -1.680201e-05 3.566835e-08
4.296443e-05 -1.679849e-05 3.913964e-08
4.266115e-05 -1.672660e-05 -2.045305e-07
4.266154e-05 -1.673501e-05 -1.124515e-07
4.257987e-05 -1.673436e-05 1.078417e-07
4.296496e-05 -1.679976e-05 3.757952e-08
4.295473e-05 -1.679603e-05 4.075039e-08
4.262043e-05 -1.672300e-05 -1.975367e-07
4.262076e-05 -1.673910e-05 -1.152603e-07
4.253907e-05 -1.672268e-05 1.026030e-07
4.295602e-05 -1.679736e-05 3.925419e-08
4.295476e-05 -1.679604e-05 -4.074087e-08
4.294468e-05 -1.679343e-05 4.211168e-08
4.294671e-05 -1.679481e-05 4.068835e-08
4.294471e-05 -1.679344e-05 -4.210207e-08
4.293434e-05 -1.679073e-05 4.322074e-08
4.243179e-05 -1.667477e-05 7.871992e-08
4.257917e-05 -1.673339e-05 -1.126505e-07
4.293707e-05 -1.679215e-05 4.187940e-08
4.292378e-05 -1.678793e-05 4.407591e-08
4.246417e-05 -1.666893e-05 -1.408093e-07
4.246431e-05 -1.669061e-05 -9.022306e-08
4.240217e-05 -1.665866e-05 7.034346e-08
4.292718e-05 -1.678938e-05 4.282575e-08
4.291306e-05 -1.678509e-05 -4.466655e-08
4.243149e-05 -1.665358e-05 -1.257844e-07
4.243161e-05 -1.667406e-05 -8.129684e-08
4.237565e-05 -1.664353e-05 6.234200e-08
4.291710e-05 -1.678654e-05 4.352659e-08
4.290220e-05 -1.678218e-05 4.502131e-08
4.240196e-05 -1.663901e-05 -1.115805e-07
4.240205e-05 -1.665803e-05 -7.255505e-08
4.235211e-05 -1.662960e-05 5.485178e-08
4.290687e-05 -1.678365e-05 4.398157e-08
4.289132e-05 -1.677927e-05 4.511100e-08
4.237551e-05 -1.662549e-05 -9.837010e-08
4.237558e-05 -1.664296e-05 -6.424151e-08
4.233137e-05 -1.661698e-05 4.792971e-08
4.289656e-05 -1.678073e-05 4.419065e-08
4.288044e-05 -1.677636e-05 4.494538e-08
4.235201e-05 -1.661314e-05 -8.620727e-08
4.235207e-05 -1.662910e-05 -5.648193e-08
4.231321e-05 -1.660566e-05 4.158279e-08
4.288624e-05 -1.677780e-05 4.415397e-08
4.286964e-05 -1.677348e-05 4.452465e-08
4.233130e-05 -1.660200e-05 -7.507363e-08
4.233134e-05 -1.661653e-05 -4.932455e-08
4.229745e-05 -1.659559e-05 3.578877e-08
4.287596e-05 -1.677489e-05 4.387179e-08
4.285897e-05 -1.677065e-05 4.384902e-08
4.231317e-05 -1.659204e-05 -6.491021e-08
4.231320e-05 -1.660526e-05 -4.276951e-08
4.228389e-05 -1.658669e-05 3.051031e-08
4.286578e-05 -1.677202e-05 4.334436e-08
4.284850e-05 -1.676789e-05 4.291869e-08
4.229742e-05 -1.658320e-05 -5.563896e-08
4.229744e-05 -1.659524e-05 -3.678920e-08
4.227233e-05 -1.657885e-05 2.570405e-08
4.285577e-05 -1.676921e-05 4.257194e-08
4.283828e-05 -1.676524e-05 4.173381e-08
4.228386e-05 -1.657539e-05 -4.717654e-08
4.228388e-05 -1.658637e-05 -3.134219e-08
4.226262e-05 -1.657198e-05 2.132640e-08
4.284598e-05 -1.676649e-05 4.155473e-08
4.282837e-05 -1.676270e-05 4.029448e-08
4.227232e-05 -1.656852e-05 -3.944270e-08
4.227233e-05 -1.657856e-05 -2.638209e-08
4.225459e-05 -1.656597e-05 1.733683e-08
4.283647e-05 -1.676388e-05 4.029285e-08
4.281883e-05 -1.676032e-05 3.860076e-08
4.282730e-05 -1.676140e-05 3.878639e-08
4.281884e-05 -1.676032e-05 -3.859100e-08
4.223926e-05 -1.655223e-05 7.364892e-09
4.225459e-05 -1.656573e-05 -1.774313e-08
4.281853e-05 -1.675909e-05 3.703534e-08
4.280973e-05 -1.675811e-05 -3.664287e-08
4.224303e-05 -1.654889e-05 -1.448706e-08
4.225179e-05 -1.655791e-05 -1.015790e-08
4.223665e-05 -1.654882e-05 4.622049e-09
4.281023e-05 -1.675695e-05 3.503965e-08
4.223925e-05 -1.654557e-05 -9.502072e-09
4.223925e-05 -1.655204e-05 -7.435153e-09
4.223510e-05 -1.654588e-05 2.139293e-09
4.280245e-05 -1.675502e-05 3.279923e-08
4.278559e-05 -1.675270e-05 -2.927263e-08
4.223664e-05 -1.654275e-05 -4.953023e-09
4.223664e-05 -1.654865e-05 -4.597022e-09
4.223453e-05 -1.654337e-05 -9.591208e-11
4.279524e-05 -1.675331e-05 3.031408e-08
4.277879e-05 -1.675139e-05 2.631788e-08
4.223510e-05 -1.654039e-05 -8.194628e-10
4.223510e-05 -1.654573e-05 -2.026984e-09
4.223482e-05 -1.654123e-05 -2.093253e-09
4.278868e-05 -1.675186e-05 2.758428e-08
4.277272e-05 -1.675037e-05 2.310056e-08
4.223452e-05 -1.653842e-05 2.914039e-09
4.223452e-05 -1.654323e-05 2.876109e-10
4.223588e-05 -1.653942e-05 -3.860237e-09
4.278282e-05 -1.675068e-05 2.461017e-08
4.276745e-05 -1.674964e-05 1.963212e-08
4.223481e-05 -1.653682e-05 6.258940e-09
4.223481e-05 -1.654111e-05 2.356472e-09
4.223761e-05 -1.653789e-05 -5.402832e-09
4.277771e-05 -1.674979e-05 2.139253e-08
4.276301e-05 -1.674925e-05 1.591521e-08
4.223587e-05 -1.653553e-05 9.223737e-09
4.223587e-05 -1.653931e-05 4.187094e-09
4.223994e-05 -1.653660e-05 -6.726080e-09
4.277342e-05 -1.674922e-05 1.793278e-08
4.275948e-05 -1.674919e-05 1.195397e-08
4.223761e-05 -1.653452e-05 1.181486e-08
4.224277e-05 -1.653553e-05 -7.834631e-09
4.277000e-05 -1.674898e-05 1.423338e-08
4.275691e-05 -1.674949e-05 7.754588e-09
4.223994e-05 -1.653375e-05 1.403747e-08
4.224601e-05 -1.653463e-05 -8.733342e-09
4.276751e-05 -1.674909e-05 1.029819e-08
4.275535e-05 -1.675017e-05 3.325981e-09
4.224276e-05 -1.653318e-05 1.589624e-08
4.224277e-05 -1.653546e-05 8.304603e-09
4.224958e-05 -1.653389e-05 -9.427820e-09
4.276601e-05 -1.674957e-05 6.133074e-09
4.275487e-05 -1.675123e-05 -1.319387e-09
4.276553e-05 -1.675044e-05 1.746542e-09
4.275551e-05 -1.675268e-05 -6.164610e-09
4.226146e-05 -1.653235e-05 -1.036434e-08
4.224958e-05 -1.653385e-05 9.952745e-09
4.276614e-05 -1.675169e-05 -2.849484e-09
4.275550e-05 -1.675267e-05 6.172297e-09
4.275733e-05 -1.675451e-05 -1.118752e-08
4.225738e-05 -1.653236e-05 1.980961e-08
4.226556e-05 -1.653202e-05 -1.033115e-08
4.225738e-05 -1.653276e-05 -1.023347e-08
4.276788e-05 -1.675334e-05 -7.638863e-09
4.275732e-05 -1.675451e-05 1.119433e-08
4.276036e-05 -1.675673e-05 -1.636007e-08
4.226146e-05 -1.653239e-05 1.995318e-08
4.226963e-05 -1.653178e-05 -1.014995e-08
4.277078e-05 -1.675538e-05 -1.260052e-08
4.276466e-05 -1.675932e-05 -2.164838e-08
4.226557e-05 -1.653248e-05 1.979191e-08
4.226557e-05 -1.653204e-05 1.086856e-08
4.227359e-05 -1.653162e-05 -9.838717e-09
4.277486e-05 -1.675780e-05 -1.770808e-08
4.277026e-05 -1.676226e-05 -2.701409e-08
4.226963e-05 -1.653262e-05 1.934743e-08
4.226964e-05 -1.653180e-05 1.067095e-08
4.227742e-05 -1.653157e-05 -9.415741e-09
4.278016e-05 -1.676058e-05 -2.293020e-08
4.277716e-05 -1.676551e-05 -3.241774e-08
4.227360e-05 -1.653282e-05 1.864556e-08
4.227360e-05 -1.653166e-05 1.033620e-08
4.228106e-05 -1.653164e-05 -8.897187e-09
4.278669e-05 -1.676370e-05 -2.823211e-08
4.278538e-05 -1.676903e-05 3.782474e-08
4.227742e-05 -1.653308e-05 1.771516e-08
4.227743e-05 -1.653162e-05 9.883251e-09
4.228449e-05 -1.653184e-05 -8.294103e-09
4.279443e-05 -1.676712e-05 -3.357875e-08
4.279493e-05 -1.677282e-05 -4.321383e-08
4.228107e-05 -1.653341e-05 1.658580e-08
4.228107e-05 -1.653170e-05 9.329084e-09
4.228768e-05 -1.653218e-05 -7.611170e-09
4.280339e-05 -1.677079e-05 -3.893901e-08
4.280577e-05 -1.677683e-05 -4.857628e-08
4.228450e-05 -1.653384e-05 1.528428e-08
4.228450e-05 -1.653190e-05 8.685643e-09
4.229060e-05 -1.653264e-05 -6.848814e-09
4.281354e-05 -1.677469e-05 -4.428843e-08
4.281792e-05 -1.678107e-05 -5.390782e-08
4.228769e-05 -1.653437e-05 1.383206e-08
4.228770e-05 -1.653224e-05 7.958545e-09
4.229321e-05 -1.653322e-05 -6.007685e-09
4.282489e-05 -1.677881e-05 -4.960714e-08
4.283136e-05 -1.678556e-05 -5.919460e-08
4.229061e-05 -1.653501e-05 1.224619e-08
4.229061e-05 -1.653271e-05 7.149108e-09
4.229548e-05 -1.653387e-05 -5.093056e-09
4.283744e-05 -1.678316e-05 -5.487378e-08
4.284609e-05 -1.679034e-05 -6.440817e-08
4.285118e-05 -1.678777e-05 -6.006067e-08
4.286209e-05 -1.679544e-05 -6.951059e-08
4.229993e-05 -1.653590e-05 -2.046688e-09
4.229550e-05 -1.653395e-05 5.294154e-09
4.286610e-05 -1.679269e-05 -6.513414e-08
4.287932e-05 -1.680087e-05 -7.446186e-08
4.229888e-05 -1.653796e-05 4.983772e-09
4.229567e-05 -1.653500e-05 3.487919e-09
4.230057e-05 -1.653649e-05 -9.896474e-10
4.288220e-05 -1.679794e-05 -7.005840e-08
4.289773e-05 -1.680665e-05 -7.922483e-08
4.229995e-05 -1.653860e-05 3.075368e-09
4.229995e-05 -1.653599e-05 2.099252e-09
4.230079e-05 -1.653698e-05 6.013872e-11
4.289944e-05 -1.680353e-05 -7.479946e-08
4.289772e-05 -1.680665e-05 7.921313e-08
4.291726e-05 -1.681280e-05 -8.376763e-08
4.230059e-05 -1.653914e-05 1.184718e-09
4.230059e-05 -1.653657e-05 9.954764e-10
4.230058e-05 -1.653736e-05 1.089312e-09
4.291780e-05 -1.680949e-05 -7.932760e-08
4.291726e-05 -1.681279e-05 8.375514e-08
4.230080e-05 -1.653956e-05 -6.666088e-10
4.230080e-05 -1.653706e-05 -9.899912e-11
4.229995e-05 -1.653763e-05 2.087199e-09
4.293722e-05 -1.681581e-05 -8.361821e-08
4.293265e-05 -1.681831e-05 4.752670e-08
4.230059e-05 -1.653985e-05 -2.461419e-09
4.230059e-05 -1.653744e-05 -1.170622e-09
4.229893e-05 -1.653776e-05 3.045587e-09
4.295765e-05 -1.682249e-05 -8.765188e-08
4.229996e-05 -1.654000e-05 -4.186553e-09
4.229996e-05 -1.653770e-05 -2.208627e-09
4.229753e-05 -1.653777e-05 3.958345e-09
4.297904e-05 -1.682951e-05 -9.141384e-08
4.300541e-05 -1.684082e-05 9.928318e-08
4.229894e-05 -1.654002e-05 -5.832266e-09
4.229894e-05 -1.653783e-05 -3.204748e-09
4.229576e-05 -1.653764e-05 4.821044e-09
4.300132e-05 -1.683686e-05 -9.489318e-08
4.302961e-05 -1.684862e-05 -1.024502e-07
4.229753e-05 -1.653989e-05 -7.391583e-09
4.229365e-05 -1.653740e-05 5.630590e-09
4.302442e-05 -1.684453e-05 -9.808199e-08
4.305453e-05 -1.685669e-05 -1.052957e-07
4.229577e-05 -1.653964e-05 -8.859689e-09
4.229123e-05 -1.653703e-05 6.384884e-09
4.304829e-05 -1.685248e-05 -1.009747e-07
4.308011e-05 -1.686502e-05 -1.078297e-07
4.229366e-05 -1.653926e-05 -1.023338e-08
4.229366e-05 -1.653745e-05 -5.888718e-09
4.228850e-05 -1.653655e-05 7.082583e-09
4.307284e-05 -1.686070e-05 -1.035676e-07
4.310626e-05 -1.687357e-05 -1.100494e-07
4.309801e-05 -1.686915e-05 -1.058580e-07
4.313293e-05 -1.688231e-05 -1.119527e-07
4.227880e-05 -1.653450e-05 8.829594e-09
4.228851e-05 -1.653659e-05 -7.395081e-09
4.312372e-05 -1.687782e-05 -1.078442e-07
4.316002e-05 -1.689123e-05 -1.135385e-07
4.228227e-05 -1.653658e-05 -1.475482e-08
4.228274e-05 -1.653571e-05 -8.306183e-09
4.227512e-05 -1.653365e-05 9.295791e-09
4.314990e-05 -1.688667e-05 -1.095249e-07
4.318747e-05 -1.690029e-05 -1.148056e-07
4.227880e-05 -1.653567e-05 -1.563946e-08
4.227880e-05 -1.653454e-05 -9.206974e-09
4.227127e-05 -1.653273e-05 9.703904e-09
4.317647e-05 -1.689568e-05 -1.108993e-07
4.321520e-05 -1.690946e-05 -1.157534e-07
4.227513e-05 -1.653468e-05 -1.642584e-08
4.227513e-05 -1.653368e-05 -9.690425e-09
4.226727e-05 -1.653174e-05 1.005402e-08
4.320337e-05 -1.690481e-05 -1.119667e-07
4.324314e-05 -1.691871e-05 -1.163811e-07
4.227127e-05 -1.653362e-05 -1.711416e-08
4.227128e-05 -1.653275e-05 -1.011363e-08
4.226313e-05 -1.653070e-05 1.034626e-08
4.323051e-05 -1.691404e-05 -1.127265e-07
4.324316e-05 -1.691871e-05 1.163671e-07
4.327121e-05 -1.692801e-05 -1.166881e-07
4.226727e-05 -1.653250e-05 -1.770467e-08
4.225889e-05 -1.652963e-05 1.058074e-08
4.325782e-05 -1.692334e-05 -1.131782e-07
4.327123e-05 -1.692802e-05 1.166741e-07
4.329933e-05 -1.693733e-05 -1.166736e-07
4.226313e-05 -1.653133e-05 -1.819758e-08
4.225456e-05 -1.652851e-05 1.075757e-08
4.328522e-05 -1.693267e-05 -1.133210e-07
4.332743e-05 -1.694665e-05 -1.163370e-07
4.225889e-05 -1.653011e-05 -1.859310e-08
4.225889e-05 -1.652964e-05 -1.102288e-08
4.225017e-05 -1.652738e-05 1.087684e-08
4.331264e-05 -1.694202e-05 -1.131543e-07
4.335544e-05 -1.695593e-05 -1.156775e-07
4.225456e-05 -1.652886e-05 -1.889140e-08
4.225457e-05 -1.652852e-05 -1.120625e-08
4.224575e-05 -1.652623e-05 1.093866e-08
4.334000e-05 -1.695134e-05 -1.126773e-07
4.338327e-05 -1.696514e-05 -1.146941e-07
4.225017e-05 -1.652759e-05 -1.909262e-08
4.225018e-05 -1.652738e-05 -1.132994e-08
4.224131e-05 -1.652507e-05 1.094313e-08
4.336722e-05 -1.696060e-05 -1.118892e-07
4.341087e-05 -1.697426e-05 1.133721e-07
4.224575e-05 -1.652630e-05 -1.919688e-08
4.224576e-05 -1.652623e-05 -1.139404e-08
4.223689e-05 -1.652392e-05 1.089035e-08
4.339423e-05 -1.696979e-05 -1.107891e-07
4.343809e-05 -1.698324e-05 -1.117526e-07
4.342094e-05 -1.697885e-05 -1.093760e-07
4.346492e-05 -1.699206e-05 -1.097929e-07
4.222391e-05 -1.652058e-05 1.039047e-08
4.223689e-05 -1.652391e-05 -1.134392e-08
4.344727e-05 -1.698778e-05 -1.076492e-07
4.349127e-05 -1.700069e-05 -1.075066e-07
4.222816e-05 -1.652120e-05 -1.864653e-08
4.223066e-05 -1.652220e-05 -1.095068e-08
4.221975e-05 -1.651953e-05 1.011107e-08
4.347316e-05 -1.699652e-05 -1.056078e-07
4.351705e-05 -1.700910e-05 -1.048936e-07
4.222390e-05 -1.651998e-05 -1.826798e-08
4.222391e-05 -1.652056e-05 -1.082528e-08
4.221573e-05 -1.651852e-05 9.776235e-09
4.349852e-05 -1.700506e-05 -1.032513e-07
4.354218e-05 -1.701726e-05 -1.019544e-07
4.221975e-05 -1.651879e-05 -1.779374e-08
4.221975e-05 -1.651951e-05 -1.053531e-08
4.221185e-05 -1.651758e-05 9.386884e-09
4.352327e-05 -1.701337e-05 -1.005794e-07
4.356659e-05 -1.702514e-05 -9.869055e-08
4.221572e-05 -1.651766e-05 -1.722448e-08
4.221573e-05 -1.651850e-05 -1.018775e-08
4.220814e-05 -1.651669e-05 8.944295e-09
4.354733e-05 -1.702141e-05 -9.759274e-08
4.359019e-05 -1.703271e-05 -9.510491e-08
4.221184e-05 -1.651658e-05 -1.656120e-08
4.221185e-05 -1.651755e-05 -9.783495e-09
4.220462e-05 -1.651587e-05 8.450200e-09
4.357062e-05 -1.702915e-05 -9.429255e-08
4.359023e-05 -1.703273e-05 9.509134e-08
4.361290e-05 -1.703995e-05 -9.120232e-08
4.220814e-05 -1.651556e-05 -1.580537e-08
4.220814e-05 -1.651666e-05 -9.323844e-09
4.220131e-05 -1.651512e-05 7.906848e-09
4.359307e-05 -1.703657e-05 -9.068161e-08
4.361295e-05 -1.703997e-05 9.118893e-08
4.363466e-05 -1.704683e-05 -8.699022e-08
4.220462e-05 -1.651461e-05 -1.495900e-08
4.220462e-05 -1.651583e-05 -8.810516e-09
4.219824e-05 -1.651444e-05 7.317093e-09
4.361460e-05 -1.704365e-05 -8.676448e-08
4.365537e-05 -1.705334e-05 -8.247957e-08
4.220131e-05 -1.651374e-05 -1.402483e-08
4.220131e-05 -1.651508e-05 -8.245794e-09
4.219541e-05 -1.651384e-05 6.684391e-09
4.363514e-05 -1.705035e-05 -8.254833e-08
4.219824e-05 -1.651295e-05 -1.300648e-08
4.219824e-05 -1.651440e-05 -7.632556e-09
4.219285e-05 -1.651332e-05 6.012724e-09
4.365461e-05 -1.705667e-05 -7.804378e-08
4.219541e-05 -1.651224e-05 -1.190853e-08
4.219057e-05 -1.651288e-05 5.306339e-09
4.367295e-05 -1.706258e-05 -7.326577e-08
4.369009e-05 -1.706808e-05 -6.823449e-08
4.372640e-05 -1.707539e-05 6.183998e-08
4.218554e-05 -1.651198e-05 3.014216e-09
4.370600e-05 -1.707318e-05 -6.297613e-08
4.374080e-05 -1.707989e-05 -5.619895e-08
4.218690e-05 -1.651026e-05 -6.842074e-09
4.218942e-05 -1.651227e-05 -4.376283e-09
4.218449e-05 -1.651182e-05 2.198416e-09
4.372062e-05 -1.707787e-05 -5.752307e-08
4.375383e-05 -1.708404e-05 -5.043420e-08
4.218553e-05 -1.650996e-05 -5.438822e-09
4.218554e-05 -1.651192e-05 -3.150381e-09
4.218377e-05 -1.651174e-05 1.357233e-09
4.373392e-05 -1.708218e-05 -5.191292e-08
4.376542e-05 -1.708786e-05 -4.459783e-08
4.218449e-05 -1.650975e-05 -3.991139e-09
4.218449e-05 -1.651176e-05 -2.299898e-09
4.218341e-05 -1.651175e-05 4.912924e-10
4.374588e-05 -1.708614e-05 -4.618590e-08
4.377555e-05 -1.709138e-05 -3.872283e-08
4.218377e-05 -1.650961e-05 -2.502812e-09
4.218377e-05 -1.651168e-05 -1.423223e-09
4.218339e-05 -1.651184e-05 -3.974137e-10
4.375650e-05 -1.708979e-05 -4.038034e-08
4.378422e-05 -1.709464e-05 -3.282587e-08
4.218340e-05 -1.650957e-05 -9.783082e-10
4.218340e-05 -1.651169e-05 -5.211769e-10
4.218374e-05 -1.651205e-05 -1.305533e-09
4.376578e-05 -1.709317e-05 -3.452810e-08
4.379142e-05 -1.709762e-05 -2.691289e-08
4.218339e-05 -1.650963e-05 5.766409e-10
4.218339e-05 -1.651178e-05 4.040332e-10
4.218446e-05 -1.651236e-05 -2.228970e-09
4.377371e-05 -1.709629e-05 -2.865391e-08
4.379715e-05 -1.710031e-05 -2.099419e-08
4.218374e-05 -1.650981e-05 2.155390e-09
4.218557e-05 -1.651280e-05 -3.163526e-09
4.378029e-05 -1.709915e-05 -2.278077e-08
4.379721e-05 -1.710034e-05 2.099663e-08
4.380140e-05 -1.710268e-05 -1.509558e-08
4.218446e-05 -1.651010e-05 3.751169e-09
4.218705e-05 -1.651337e-05 -4.105326e-09
4.378551e-05 -1.710171e-05 -1.693705e-08
4.380146e-05 -1.710270e-05 1.509963e-08
4.380418e-05 -1.710469e-05 -9.256969e-09
4.218557e-05 -1.651053e-05 5.357739e-09
4.218557e-05 -1.651273e-05 3.280258e-09
4.218892e-05 -1.651407e-05 -5.051045e-09
4.378937e-05 -1.710392e-05 -1.115870e-08
4.380553e-05 -1.710630e-05 -3.523546e-09
4.218705e-05 -1.651110e-05 6.969741e-09
4.218705e-05 -1.651330e-05 4.258542e-09
4.219118e-05 -1.651491e-05 -5.997983e-09
4.379185e-05 -1.710575e-05 -5.485994e-09
4.380547e-05 -1.710749e-05 2.061255e-09
4.379299e-05 -1.710717e-05 4.143953e-11
4.380407e-05 -1.710826e-05 7.459480e-09
4.220026e-05 -1.651831e-05 -8.827489e-09
4.219118e-05 -1.651485e-05 6.223437e-09
4.379280e-05 -1.710816e-05 5.388197e-09
4.380142e-05 -1.710861e-05 -1.263050e-08
4.219684e-05 -1.651479e-05 1.339887e-08
4.219722e-05 -1.651633e-05 7.355169e-09
4.220405e-05 -1.651973e-05 -9.762920e-09
4.379133e-05 -1.710871e-05 1.052475e-08
4.379744e-05 -1.710849e-05 1.757842e-08
4.220026e-05 -1.651608e-05 1.499021e-08
4.220026e-05 -1.651824e-05 9.159377e-09
4.220823e-05 -1.652130e-05 -1.069333e-08
4.378862e-05 -1.710883e-05 1.542772e-08
4.379234e-05 -1.710797e-05 2.225636e-08
4.220405e-05 -1.651752e-05 1.657277e-08
4.220405e-05 -1.651967e-05 1.012974e-08
4.221278e-05 -1.652302e-05 -1.161834e-08
4.378474e-05 -1.710851e-05 2.007936e-08
4.378615e-05 -1.710705e-05 2.666039e-08
4.220823e-05 -1.651910e-05 1.814598e-08
4.220823e-05 -1.652124e-05 1.109481e-08
4.221772e-05 -1.652489e-05 -1.253776e-08
4.377973e-05 -1.710778e-05 2.446668e-08
4.377893e-05 -1.710574e-05 3.078107e-08
4.221278e-05 -1.652084e-05 1.970956e-08
4.221278e-05 -1.652296e-05 1.205423e-08
4.222302e-05 -1.652691e-05 -1.345146e-08
4.377366e-05 -1.710665e-05 2.858053e-08
4.377075e-05 -1.710406e-05 3.461193e-08
4.221771e-05 -1.652272e-05 2.126334e-08
4.221772e-05 -1.652483e-05 1.300782e-08
4.222871e-05 -1.652907e-05 -1.435942e-08
4.376661e-05 -1.710514e-05 3.241472e-08
4.376169e-05 -1.710204e-05 3.814878e-08
4.222302e-05 -1.652475e-05 2.280730e-08
4.222303e-05 -1.652685e-05 1.395546e-08
4.223476e-05 -1.653137e-05 -1.526164e-08
4.375863e-05 -1.710328e-05 3.596522e-08
4.375181e-05 -1.709971e-05 4.138906e-08
4.222870e-05 -1.652692e-05 2.434146e-08
4.222871e-05 -1.652901e-05 1.489712e-08
4.224118e-05 -1.653382e-05 -1.615817e-08
4.374981e-05 -1.710109e-05 3.922960e-08
4.374120e-05 -1.709709e-05 4.433133e-08
4.223475e-05 -1.652924e-05 2.586591e-08
4.223476e-05 -1.653131e-05 1.583282e-08
4.224796e-05 -1.653642e-05 -1.704905e-08
4.374021e-05 -1.709860e-05 4.220656e-08
4.374124e-05 -1.709711e-05 -4.432041e-08
4.372991e-05 -1.709421e-05 4.697494e-08
4.224117e-05 -1.653170e-05 2.738075e-08
4.224118e-05 -1.653377e-05 1.676260e-08
4.225512e-05 -1.653916e-05 -1.793436e-08
4.372990e-05 -1.709583e-05 4.489554e-08
4.372995e-05 -1.709423e-05 -4.696400e-08
4.371804e-05 -1.709110e-05 4.931972e-08
4.371896e-05 -1.709281e-05 4.729645e-08
4.370563e-05 -1.708778e-05 5.136582e-08
4.227874e-05 -1.654822e-05 -2.055771e-08
4.226062e-05 -1.654047e-05 1.818021e-08
4.370746e-05 -1.708957e-05 4.940949e-08
4.369278e-05 -1.708428e-05 5.311359e-08
4.227049e-05 -1.654299e-05 3.334649e-08
4.227051e-05 -1.654500e-05 2.042402e-08
4.228732e-05 -1.655152e-05 -2.142152e-08
4.369546e-05 -1.708614e-05 5.123505e-08
4.227872e-05 -1.654616e-05 3.481520e-08
4.227874e-05 -1.654816e-05 2.132537e-08
4.229627e-05 -1.655496e-05 -2.228011e-08
4.368306e-05 -1.708255e-05 5.277359e-08
4.228731e-05 -1.654947e-05 3.627507e-08
4.228733e-05 -1.655146e-05 2.222123e-08
4.230556e-05 -1.655853e-05 -2.313349e-08
4.367030e-05 -1.707883e-05 5.402557e-08
4.229625e-05 -1.655292e-05 3.772619e-08
4.229627e-05 -1.655490e-05 2.311166e-08
4.231521e-05 -1.656225e-05 -2.398164e-08
4.365728e-05 -1.707499e-05 5.499143e-08
4.363831e-05 -1.706909e-05 -5.711848e-08
4.230555e-05 -1.655651e-05 3.916866e-08
4.230556e-05 -1.655848e-05 2.399671e-08
4.232520e-05 -1.656610e-05 -2.482445e-08
4.364405e-05 -1.707108e-05 5.567156e-08
4.362424e-05 -1.706512e-05 5.739153e-08
4.231519e-05 -1.656024e-05 4.060252e-08
4.231521e-05 -1.656219e-05 2.487634e-08
4.233555e-05 -1.657009e-05 -2.566174e-08
4.363069e-05 -1.706712e-05 5.606630e-08
4.361018e-05 -1.706116e-05 5.735751e-08
4.232519e-05 -1.656410e-05 4.202775e-08
4.232521e-05 -1.656605e-05 2.575047e-08
4.234623e-05 -1.657421e-05 -2.649317e-08
4.361728e-05 -1.706314e-05 5.617593e-08
4.359617e-05 -1.705721e-05 5.702766e-08
4.233553e-05 -1.656810e-05 4.344423e-08
4.233555e-05 -1.657003e-05 2.661892e-08
4.235726e-05 -1.657846e-05 -2.731823e-08
4.360388e-05 -1.705916e-05 5.600071e-08
4.358227e-05 -1.705331e-05 5.640230e-08
4.234621e-05 -1.657223e-05 4.485166e-08
4.236863e-05 -1.658284e-05 -2.813611e-08
4.359056e-05 -1.705522e-05 5.554083e-08
4.356857e-05 -1.704948e-05 5.548189e-08
4.235724e-05 -1.657650e-05 4.624957e-08
4.238033e-05 -1.658735e-05 -2.894571e-08
4.357740e-05 -1.705133e-05 5.479655e-08
4.356859e-05 -1.704949e-05 -5.547084e-08
4.355513e-05 -1.704575e-05 5.426704e-08
4.356446e-05 -1.704754e-05 5.376826e-08
4.355515e-05 -1.704576e-05 -5.425598e-08
4.354201e-05 -1.704216e-05 5.275876e-08
4.241742e-05 -1.660158e-05 -3.130644e-08
4.236863e-05 -1.658278e-05 2.918583e-08
4.355182e-05 -1.704386e-05 5.245647e-08
4.352930e-05 -1.703871e-05 5.095862e-08
4.240471e-05 -1.659483e-05 5.172264e-08
4.240015e-05 -1.659424e-05 2.982405e-08
4.243043e-05 -1.660655e-05 -3.206156e-08
4.353955e-05 -1.704032e-05 5.086205e-08
4.351705e-05 -1.703545e-05 4.886902e-08
4.241740e-05 -1.659972e-05 5.305033e-08
4.241743e-05 -1.660153e-05 3.247770e-08
4.244375e-05 -1.661161e-05 -3.279462e-08
4.352771e-05 -1.703695e-05 4.898645e-08
4.350534e-05 -1.703239e-05 4.649358e-08
4.243040e-05 -1.660472e-05 5.435446e-08
4.243043e-05 -1.660650e-05 3.326272e-08
4.245737e-05 -1.661675e-05 -3.350111e-08
4.351637e-05 -1.703378e-05 4.683193e-08
4.349424e-05 -1.702955e-05 4.383761e-08
4.244372e-05 -1.660982e-05 5.562954e-08
4.244375e-05 -1.661156e-05 3.402536e-08
4.247127e-05 -1.662197e-05 -3.417649e-08
4.350560e-05 -1.703081e-05 4.440189e-08
4.348382e-05 -1.702696e-05 -4.089830e-08
4.245733e-05 -1.661502e-05 5.686907e-08
4.245737e-05 -1.661671e-05 3.476101e-08
4.248544e-05 -1.662725e-05 -3.481677e-08
4.349547e-05 -1.702808e-05 4.170139e-08
4.347412e-05 -1.702462e-05 3.771725e-08
4.247123e-05 -1.662030e-05 5.806579e-08
4.247127e-05 -1.662193e-05 3.546495e-08
4.249988e-05 -1.663258e-05 -3.541929e-08
4.348603e-05 -1.702561e-05 3.873767e-08
4.346523e-05 -1.702256e-05 3.427755e-08
4.248541e-05 -1.662565e-05 5.921233e-08
4.248544e-05 -1.662721e-05 3.613301e-08
4.251455e-05 -1.663794e-05 -3.598295e-08
4.347735e-05 -1.702341e-05 3.552083e-08
4.345721e-05 -1.702078e-05 3.060820e-08
4.249984e-05 -1.663106e-05 6.030203e-08
4.249988e-05 -1.663253e-05 3.676227e-08
4.252944e-05 -1.664333e-05 -3.650760e-08
4.346949e-05 -1.702149e-05 3.206447e-08
4.345011e-05 -1.701929e-05 2.673272e-08
4.251451e-05 -1.663651e-05 6.132960e-08
4.251455e-05 -1.663790e-05 3.735140e-08
4.254455e-05 -1.664875e-05 -3.699296e-08
4.346249e-05 -1.701986e-05 2.838634e-08
4.344398e-05 -1.701807e-05 2.267948e-08
4.252940e-05 -1.664200e-05 6.229075e-08
4.252945e-05 -1.664329e-05 3.790004e-08
4.255985e-05 -1.665419e-05 -3.743749e-08
4.345639e-05 -1.701851e-05 2.450860e-08
4.343888e-05 -1.701712e-05 1.848058e-08
4.345124e-05 -1.701744e-05 2.045757e-08
4.343483e-05 -1.701642e-05 1.416884e-08
4.260673e-05 -1.667065e-05 -3.849000e-08
4.255985e-05 -1.665415e-05 3.887254e-08
4.344706e-05 -1.701663e-05 1.626235e-08
4.343483e-05 -1.701642e-05 -1.416438e-08
4.343186e-05 -1.701595e-05 9.772433e-09
4.259091e-05 -1.666428e-05 6.536357e-08
4.262263e-05 -1.667619e-05 -3.873214e-08
4.259096e-05 -1.666514e-05 -3.819049e-08
4.344387e-05 -1.701606e-05 1.195206e-08
4.343186e-05 -1.701595e-05 -9.769273e-09
4.342998e-05 -1.701569e-05 5.308644e-09
4.260669e-05 -1.666994e-05 6.590409e-08
4.263861e-05 -1.668175e-05 -3.891295e-08
4.344168e-05 -1.701570e-05 7.552298e-09
4.342920e-05 -1.701563e-05 7.837074e-10
4.262258e-05 -1.667562e-05 6.633975e-08
4.262263e-05 -1.667618e-05 4.022526e-08
4.265467e-05 -1.668731e-05 -3.902910e-08
4.344050e-05 -1.701554e-05 3.082959e-09
4.342955e-05 -1.701579e-05 -3.798281e-09
4.263857e-05 -1.668134e-05 6.666520e-08
4.263862e-05 -1.668174e-05 4.041402e-08
4.267076e-05 -1.669289e-05 -3.907793e-08
4.344035e-05 -1.701558e-05 -1.439568e-09
4.343103e-05 -1.701619e-05 -8.424576e-09
4.265462e-05 -1.668707e-05 6.687616e-08
4.265467e-05 -1.668731e-05 4.053537e-08
4.268687e-05 -1.669846e-05 -3.905739e-08
4.344124e-05 -1.701583e-05 -5.997151e-09
4.267072e-05 -1.669281e-05 6.696930e-08
4.267077e-05 -1.669289e-05 4.058664e-08
4.270296e-05 -1.670402e-05 -3.896592e-08
4.344318e-05 -1.701634e-05 -1.056626e-08
4.268682e-05 -1.669855e-05 6.694214e-08
4.268687e-05 -1.669846e-05 4.056574e-08
4.271900e-05 -1.670956e-05 -3.880237e-08
4.344620e-05 -1.701714e-05 -1.511874e-08
4.270291e-05 -1.670428e-05 6.679286e-08
4.270296e-05 -1.670403e-05 4.047112e-08
4.273496e-05 -1.671507e-05 -3.856592e-08
4.345030e-05 -1.701827e-05 -1.962523e-08
4.344836e-05 -1.702079e-05 2.680107e-08
4.271896e-05 -1.670999e-05 6.652012e-08
4.271901e-05 -1.670957e-05 4.030162e-08
4.275082e-05 -1.672053e-05 -3.825596e-08
4.345548e-05 -1.701973e-05 -2.405832e-08
4.345545e-05 -1.702281e-05 -3.122152e-08
4.273493e-05 -1.671567e-05 6.612301e-08
4.273497e-05 -1.671509e-05 4.005643e-08
4.276655e-05 -1.672594e-05 -3.787208e-08
4.346172e-05 -1.702156e-05 -2.839445e-08
4.346360e-05 -1.702518e-05 -3.551600e-08
4.275079e-05 -1.672131e-05 6.560088e-08
4.278210e-05 -1.673129e-05 -3.741395e-08
4.346900e-05 -1.702375e-05 -3.261447e-08
4.347277e-05 -1.702793e-05 -3.967506e-08
4.347730e-05 -1.702631e-05 -3.670356e-08
4.348292e-05 -1.703103e-05 -4.368717e-08
4.282744e-05 -1.674680e-05 -3.559221e-08
4.348659e-05 -1.702924e-05 -4.065064e-08
4.349401e-05 -1.703449e-05 -4.754404e-08
4.281254e-05 -1.674321e-05 6.225448e-08
4.280383e-05 -1.673923e-05 3.664262e-08
4.284201e-05 -1.675176e-05 -3.483535e-08
4.349684e-05 -1.703252e-05 -4.444776e-08
4.349402e-05 -1.703450e-05 4.753626e-08
4.350601e-05 -1.703830e-05 -5.123989e-08
4.282741e-05 -1.674846e-05 6.110225e-08
4.282745e-05 -1.674685e-05 3.697209e-08
4.285625e-05 -1.675659e-05 -3.400345e-08
4.350801e-05 -1.703616e-05 -4.808942e-08
4.350603e-05 -1.703830e-05 5.123200e-08
4.351888e-05 -1.704243e-05 -5.477080e-08
4.284198e-05 -1.675359e-05 5.982335e-08
4.284202e-05 -1.675181e-05 3.618706e-08
4.287014e-05 -1.676128e-05 -3.309639e-08
4.352007e-05 -1.704014e-05 -5.157190e-08
4.353258e-05 -1.704689e-05 -5.813423e-08
4.285623e-05 -1.675860e-05 5.841760e-08
4.285626e-05 -1.675665e-05 3.532423e-08
4.288364e-05 -1.676582e-05 -3.211404e-08
4.353298e-05 -1.704445e-05 -5.489280e-08
4.354706e-05 -1.705166e-05 -6.132863e-08
4.287012e-05 -1.676347e-05 5.688480e-08
4.287015e-05 -1.676135e-05 3.438349e-08
4.289672e-05 -1.677020e-05 -3.105627e-08
4.354670e-05 -1.704907e-05 -5.805074e-08
4.356230e-05 -1.705672e-05 -6.435308e-08
4.288362e-05 -1.676819e-05 5.522472e-08
4.288365e-05 -1.676589e-05 3.336468e-08
4.290935e-05 -1.677440e-05 -2.992294e-08
4.356119e-05 -1.705399e-05 -6.104492e-08
4.357825e-05 -1.706205e-05 -6.720712e-08
4.289670e-05 -1.677274e-05 5.343711e-08
4.289673e-05 -1.677027e-05 3.226766e-08
4.292150e-05 -1.677841e-05 -2.871396e-08
4.357641e-05 -1.705920e-05 -6.387496e-08
4.359486e-05 -1.706765e-05 -6.989052e-08
4.290934e-05 -1.677711e-05 5.152172e-08
4.290937e-05 -1.677448e-05 3.109229e-08
4.293313e-05 -1.678221e-05 -2.742931e-08
4.359232e-05 -1.706468e-05 -6.654070e-08
4.361213e-05 -1.707351e-05 7.239527e-08
4.292149e-05 -1.678130e-05 4.947830e-08
4.292151e-05 -1.677849e-05 2.983847e-08
4.294422e-05 -1.678581e-05 -2.606905e-08
4.360888e-05 -1.707041e-05 -6.904215e-08
4.362995e-05 -1.707958e-05 -7.474519e-08
4.293312e-05 -1.678529e-05 4.730665e-08
4.293315e-05 -1.678230e-05 2.850616e-08
4.295472e-05 -1.678917e-05 -2.463340e-08
4.362605e-05 -1.707639e-05 -7.137935e-08
4.364833e-05 -1.708587e-05 -7.691647e-08
4.364379e-05 -1.708258e-05 -7.355236e-08
4.366723e-05 -1.709237e-05 -7.891702e-08
4.298246e-05 -1.679781e-05 -1.988098e-08
4.295474e-05 -1.678927e-05 2.560647e-08
4.366207e-05 -1.708899e-05 -7.556118e-08
4.368660e-05 -1.709905e-05 -8.074679e-08
4.297388e-05 -1.679897e-05 3.733824e-08
4.296616e-05 -1.679398e-05 2.256535e-08
4.299034e-05 -1.680017e-05 -1.815314e-08
4.368083e-05 -1.709559e-05 -7.740580e-08
4.370639e-05 -1.710589e-05 -8.240566e-08
4.298247e-05 -1.680177e-05 3.452848e-08
4.298248e-05 -1.679792e-05 2.067660e-08
4.299749e-05 -1.680225e-05 -1.635780e-08
4.370004e-05 -1.710236e-05 -7.908611e-08
4.372658e-05 -1.711289e-05 -8.389351e-08
4.299035e-05 -1.680429e-05 3.159471e-08
4.300389e-05 -1.680406e-05 -1.449930e-08
4.371967e-05 -1.710930e-05 -8.060198e-08
4.372660e-05 -1.711290e-05 8.388565e-08
4.374711e-05 -1.712003e-05 -8.521012e-08
4.299751e-05 -1.680654e-05 2.854026e-08
4.300949e-05 -1.680559e-05 -1.258358e-08
4.373966e-05 -1.711638e-05 -8.195325e-08
4.374714e-05 -1.712004e-05 8.520223e-08
4.376795e-05 -1.712729e-05 -8.635526e-08
4.300390e-05 -1.680851e-05 2.536998e-08
4.300391e-05 -1.680419e-05 1.509084e-08
4.301429e-05 -1.680684e-05 -1.061850e-08
4.375998e-05 -1.712359e-05 -8.313966e-08
4.378906e-05 -1.713465e-05 -8.732872e-08
4.300951e-05 -1.681019e-05 2.209084e-08
4.300952e-05 -1.680572e-05 1.310116e-08
4.301827e-05 -1.680782e-05 -8.614114e-09
4.378058e-05 -1.713091e-05 -8.416092e-08
4.381039e-05 -1.714210e-05 -8.813028e-08
4.301431e-05 -1.681157e-05 1.871240e-08
4.301432e-05 -1.680698e-05 1.105923e-08
4.302141e-05 -1.680855e-05 -6.582693e-09
4.380144e-05 -1.713832e-05 -8.501679e-08
4.383191e-05 -1.714962e-05 -8.875981e-08
4.301829e-05 -1.681267e-05 1.524739e-08
4.301829e-05 -1.680797e-05 8.975210e-09
4.302369e-05 -1.680904e-05 -4.538462e-09
4.382249e-05 -1.714582e-05 -8.570705e-08
4.302143e-05 -1.681349e-05 1.171211e-08
4.302143e-05 -1.680870e-05 6.861599e-09
4.302514e-05 -1.680932e-05 -2.496624e-09
4.384371e-05 -1.715338e-05 -8.623150e-08
4.302372e-05 -1.681404e-05 8.126525e-09
4.302372e-05 -1.680919e-05 4.732951e-09
4.302574e-05 -1.680940e-05 -4.716041e-10
4.386505e-05 -1.716100e-05 -8.659006e-08
4.388648e-05 -1.716864e-05 -8.678288e-08
4.391904e-05 -1.718014e-05 8.955310e-08
4.302264e-05 -1.680879e-05 5.416126e-09
4.302516e-05 -1.680947e-05 2.604961e-09
4.390794e-05 -1.717630e-05 -8.681038e-08
4.394083e-05 -1.718778e-05 -8.933558e-08
4.302450e-05 -1.681403e-05 -6.250817e-09
4.302450e-05 -1.680927e-05 -3.642638e-09
4.302003e-05 -1.680834e-05 7.308110e-09
4.392940e-05 -1.718397e-05 -8.667342e-08
4.396259e-05 -1.719542e-05 -8.894370e-08
4.302267e-05 -1.681361e-05 -9.749319e-09
4.302267e-05 -1.680893e-05 -5.656688e-09
4.301666e-05 -1.680777e-05 9.161629e-09
4.395082e-05 -1.719162e-05 -8.637344e-08
4.398424e-05 -1.720303e-05 -8.838854e-08
4.302006e-05 -1.681306e-05 -1.317833e-08
4.302006e-05 -1.680849e-05 -7.633243e-09
4.301253e-05 -1.680706e-05 1.096875e-08
4.397216e-05 -1.719925e-05 -8.591269e-08
4.400575e-05 -1.721059e-05 -8.767476e-08
4.301668e-05 -1.681235e-05 -1.652116e-08
4.301669e-05 -1.680791e-05 -9.568739e-09
4.300767e-05 -1.680620e-05 1.271688e-08
4.399339e-05 -1.720684e-05 -8.529437e-08
4.402707e-05 -1.721810e-05 -8.680855e-08
4.301255e-05 -1.681147e-05 -1.975660e-08
4.301256e-05 -1.680720e-05 -1.145451e-08
4.300210e-05 -1.680517e-05 1.439111e-08
4.401445e-05 -1.721439e-05 -8.452298e-08
4.402712e-05 -1.721812e-05 8.680160e-08
4.404818e-05 -1.722556e-05 -8.579771e-08
4.300769e-05 -1.681040e-05 -2.286048e-08
4.300770e-05 -1.680633e-05 -1.327727e-08
4.299585e-05 -1.680395e-05 1.597651e-08
4.403532e-05 -1.722187e-05 -8.360442e-08
4.404822e-05 -1.722557e-05 8.579102e-08
4.406902e-05 -1.723294e-05 -8.465148e-08
4.300211e-05 -1.680913e-05 -2.580866e-08
4.300212e-05 -1.680528e-05 -1.502157e-08
4.298897e-05 -1.680256e-05 1.745959e-08
4.405596e-05 -1.722930e-05 -8.254597e-08
4.408956e-05 -1.724026e-05 -8.338001e-08
4.299587e-05 -1.680766e-05 -2.857925e-08
4.299588e-05 -1.680406e-05 -1.667205e-08
4.298150e-05 -1.680098e-05 1.882898e-08
4.407634e-05 -1.723665e-05 -8.135614e-08
4.410979e-05 -1.724750e-05 -8.199298e-08
4.298898e-05 -1.680597e-05 -3.115377e-08
4.298899e-05 -1.680266e-05 -1.821495e-08
4.297348e-05 -1.679922e-05 2.007555e-08
4.409644e-05 -1.724393e-05 -8.004405e-08
4.412966e-05 -1.725467e-05 -8.049753e-08
4.298150e-05 -1.680409e-05 -3.351745e-08
4.298152e-05 -1.680107e-05 -1.963871e-08
4.296498e-05 -1.679730e-05 2.119229e-08
4.411622e-05 -1.725114e-05 -7.861829e-08
4.414915e-05 -1.726177e-05 -7.889701e-08
4.297348e-05 -1.680202e-05 -3.565894e-08
4.297350e-05 -1.679930e-05 -2.093411e-08
4.295604e-05 -1.679522e-05 2.217398e-08
4.413567e-05 -1.725828e-05 -7.708586e-08
4.416824e-05 -1.726877e-05 -7.719253e-08
4.415475e-05 -1.726533e-05 -7.545220e-08
4.418695e-05 -1.727570e-05 7.538256e-08
4.292721e-05 -1.678826e-05 2.427693e-08
4.295606e-05 -1.679529e-05 -2.311342e-08
4.417345e-05 -1.727230e-05 -7.372251e-08
4.420511e-05 -1.728246e-05 -7.348529e-08
4.293709e-05 -1.679215e-05 -4.186954e-08
4.294053e-05 -1.679195e-05 -2.405474e-08
4.291712e-05 -1.678576e-05 2.469126e-08
4.419172e-05 -1.727916e-05 -7.190336e-08
4.422284e-05 -1.728911e-05 -7.149810e-08
4.292720e-05 -1.678939e-05 -4.281590e-08
4.292722e-05 -1.678830e-05 -2.529614e-08
4.290689e-05 -1.678321e-05 2.496082e-08
4.420956e-05 -1.728589e-05 -7.000310e-08
4.424008e-05 -1.729560e-05 -6.943538e-08
4.291711e-05 -1.678655e-05 -4.351674e-08
4.291713e-05 -1.678579e-05 -2.572603e-08
4.289659e-05 -1.678063e-05 2.508529e-08
4.422693e-05 -1.729247e-05 -6.803099e-08
4.425680e-05 -1.730192e-05 -6.730700e-08
4.290688e-05 -1.678366e-05 -4.397171e-08
4.288627e-05 -1.677804e-05 2.506457e-08
4.424381e-05 -1.729888e-05 -6.599605e-08
4.427299e-05 -1.730805e-05 -6.512151e-08
4.289658e-05 -1.678074e-05 -4.418079e-08
4.287598e-05 -1.677546e-05 2.489864e-08
4.426018e-05 -1.730512e-05 -6.390624e-08
4.428865e-05 -1.731399e-05 -6.288587e-08
4.288625e-05 -1.677781e-05 -4.414412e-08
4.288628e-05 -1.677803e-05 -2.611338e-08
4.286581e-05 -1.677293e-05 2.458757e-08
4.427603e-05 -1.731116e-05 -6.176818e-08
4.430377e-05 -1.731973e-05 -6.060550e-08
4.287597e-05 -1.677489e-05 -4.386193e-08
4.287599e-05 -1.677545e-05 -2.594133e-08
4.285579e-05 -1.677046e-05 2.413144e-08
4.429135e-05 -1.731701e-05 -5.958706e-08
4.430381e-05 -1.731975e-05 6.060323e-08
4.431832e-05 -1.732526e-05 -5.828446e-08
4.286579e-05 -1.677202e-05 -4.333450e-08
4.286582e-05 -1.677291e-05 -2.561876e-08
4.284600e-05 -1.676808e-05 2.353034e-08
4.430611e-05 -1.732265e-05 -5.736681e-08
4.431837e-05 -1.732528e-05 5.828225e-08
4.433231e-05 -1.733057e-05 -5.592572e-08
4.285578e-05 -1.676921e-05 -4.256208e-08
4.285580e-05 -1.677043e-05 -2.514577e-08
4.283649e-05 -1.676581e-05 2.278431e-08
4.432032e-05 -1.732807e-05 -5.511028e-08
4.434572e-05 -1.733566e-05 -5.353134e-08
4.284598e-05 -1.676649e-05 -4.154485e-08
4.284601e-05 -1.676804e-05 -2.452244e-08
4.282732e-05 -1.676367e-05 2.189339e-08
4.433395e-05 -1.733327e-05 -5.281944e-08
4.435854e-05 -1.734052e-05 -5.110276e-08
4.434700e-05 -1.733825e-05 -5.049569e-08
4.280246e-05 -1.675830e-05 1.835159e-08
4.283649e-05 -1.676575e-05 -2.374884e-08
4.435946e-05 -1.734300e-05 -4.813994e-08
4.281023e-05 -1.675695e-05 -3.502968e-08
4.279526e-05 -1.675693e-05 1.688156e-08
4.281024e-05 -1.675989e-05 1.967700e-08
4.437133e-05 -1.734752e-05 -4.575271e-08
4.280245e-05 -1.675502e-05 -3.278926e-08
4.280246e-05 -1.675821e-05 -1.915215e-08
4.278869e-05 -1.675581e-05 1.526722e-08
4.438259e-05 -1.735180e-05 -4.333436e-08
4.440386e-05 -1.735763e-05 4.105863e-08
4.279525e-05 -1.675332e-05 -3.030409e-08
4.279526e-05 -1.675683e-05 -1.762762e-08
4.278283e-05 -1.675497e-05 1.350918e-08
4.439323e-05 -1.735583e-05 -4.088505e-08
4.441358e-05 -1.736128e-05 -3.846981e-08
4.278868e-05 -1.675186e-05 -2.757426e-08
4.278869e-05 -1.675570e-05 -1.595335e-08
4.277772e-05 -1.675442e-05 1.160848e-08
4.440325e-05 -1.735963e-05 -3.840488e-08
4.442272e-05 -1.736470e-05 -3.584693e-08
4.278282e-05 -1.675068e-05 -2.460015e-08
4.278283e-05 -1.675485e-05 -1.412991e-08
4.277343e-05 -1.675418e-05 9.566786e-09
4.441263e-05 -1.736317e-05 -3.589387e-08
4.443120e-05 -1.736787e-05 -3.319211e-08
4.277771e-05 -1.674979e-05 -2.138252e-08
4.277772e-05 -1.675429e-05 -1.215831e-08
4.277001e-05 -1.675427e-05 7.386691e-09
4.442138e-05 -1.736646e-05 -3.335202e-08
4.443904e-05 -1.737078e-05 -3.050532e-08
4.277342e-05 -1.674922e-05 -1.792283e-08
4.277343e-05 -1.675404e-05 -1.004016e-08
4.276752e-05 -1.675471e-05 5.071995e-09
4.442947e-05 -1.736950e-05 -3.077932e-08
4.444621e-05 -1.737343e-05 -2.778655e-08
4.277000e-05 -1.674898e-05 -1.422352e-08
4.277001e-05 -1.675413e-05 -7.778021e-09
4.276601e-05 -1.675551e-05 2.628144e-09
4.443691e-05 -1.737229e-05 -2.817576e-08
4.445272e-05 -1.737582e-05 -2.503579e-08
4.276751e-05 -1.674909e-05 -1.028851e-08
4.276751e-05 -1.675456e-05 -5.375645e-09
4.276553e-05 -1.675668e-05 6.267200e-11
4.444368e-05 -1.737481e-05 -2.554133e-08
4.445277e-05 -1.737584e-05 2.503369e-08
4.445855e-05 -1.737794e-05 -2.225304e-08
4.276600e-05 -1.674957e-05 -6.123670e-09
4.276601e-05 -1.675534e-05 -2.838472e-09
4.276614e-05 -1.675822e-05 -2.614313e-09
4.444978e-05 -1.737707e-05 -2.287602e-08
4.445860e-05 -1.737796e-05 2.225092e-08
4.446369e-05 -1.737979e-05 -1.943828e-08
4.445520e-05 -1.737906e-05 -2.017983e-08
4.446813e-05 -1.738138e-05 -1.659153e-08
4.277487e-05 -1.676500e-05 -1.116722e-08
4.276614e-05 -1.675803e-05 2.607411e-09
4.445993e-05 -1.738078e-05 -1.745276e-08
4.447188e-05 -1.738268e-05 -1.371281e-08
4.277077e-05 -1.675537e-05 1.260719e-08
4.277526e-05 -1.676089e-05 5.985478e-09
4.278017e-05 -1.676793e-05 -1.412840e-08
4.446396e-05 -1.738222e-05 -1.469483e-08
4.447492e-05 -1.738371e-05 -1.080218e-08
4.277485e-05 -1.675779e-05 1.771352e-08
4.277486e-05 -1.676480e-05 1.150580e-08
4.278669e-05 -1.677114e-05 -1.710899e-08
4.446728e-05 -1.738339e-05 -1.190606e-08
4.447724e-05 -1.738446e-05 -7.859737e-09
4.278015e-05 -1.676058e-05 2.293422e-08
4.278016e-05 -1.676772e-05 1.459130e-08
4.279444e-05 -1.677460e-05 -2.009044e-08
4.446989e-05 -1.738429e-05 -9.086517e-09
4.447883e-05 -1.738493e-05 -4.885646e-09
4.278667e-05 -1.676370e-05 2.823455e-08
4.278668e-05 -1.677093e-05 1.769962e-08
4.280340e-05 -1.677828e-05 -2.306078e-08
4.447178e-05 -1.738489e-05 -6.236287e-09
4.279442e-05 -1.676711e-05 3.357949e-08
4.279443e-05 -1.677439e-05 2.081122e-08
4.281356e-05 -1.678216e-05 -2.601558e-08
4.447294e-05 -1.738522e-05 -3.355526e-09
4.447986e-05 -1.738501e-05 -1.158309e-09
4.280337e-05 -1.677078e-05 3.893802e-08
4.282492e-05 -1.678622e-05 -2.895473e-08
4.447336e-05 -1.738525e-05 -4.445016e-10
4.447918e-05 -1.738459e-05 4.222847e-09
4.281353e-05 -1.677468e-05 4.428571e-08
4.283747e-05 -1.679047e-05 -3.187675e-08
4.447304e-05 -1.738500e-05 2.496367e-09
4.447779e-05 -1.738389e-05 7.318695e-09
4.282488e-05 -1.677880e-05 4.960270e-08
4.282491e-05 -1.678600e-05 3.006964e-08
4.285122e-05 -1.679495e-05 -3.477391e-08
4.447197e-05 -1.738445e-05 5.466422e-09
4.447564e-05 -1.738290e-05 1.044224e-08
4.283743e-05 -1.678315e-05 5.486763e-08
4.283746e-05 -1.679026e-05 3.312062e-08
4.286615e-05 -1.679968e-05 -3.763077e-08
4.447013e-05 -1.738360e-05 8.464669e-09
4.447273e-05 -1.738161e-05 1.359133e-08
4.285117e-05 -1.678777e-05 6.005287e-08
4.285121e-05 -1.679475e-05 3.614368e-08
4.288226e-05 -1.680470e-05 -4.042670e-08
4.446753e-05 -1.738246e-05 1.148964e-08
4.446903e-05 -1.738003e-05 1.676294e-08
4.286609e-05 -1.679268e-05 6.512483e-08
4.286614e-05 -1.679948e-05 3.912232e-08
4.289951e-05 -1.681001e-05 -4.313950e-08
4.446417e-05 -1.738102e-05 1.453924e-08
4.446909e-05 -1.738004e-05 -1.676476e-08
4.446456e-05 -1.737815e-05 1.995299e-08
4.446002e-05 -1.737929e-05 1.761055e-08
4.446461e-05 -1.737816e-05 -1.995466e-08
4.445929e-05 -1.737597e-05 2.315609e-08
4.295774e-05 -1.682794e-05 -5.058229e-08
4.289950e-05 -1.680983e-05 4.485873e-08
4.445510e-05 -1.737726e-05 2.069962e-08
4.445324e-05 -1.737351e-05 2.636542e-08
4.293722e-05 -1.681581e-05 8.360492e-08
4.297914e-05 -1.683458e-05 -5.278054e-08
4.293730e-05 -1.682163e-05 -4.823414e-08
4.444939e-05 -1.737494e-05 2.380126e-08
4.444639e-05 -1.737077e-05 2.957270e-08
4.295765e-05 -1.682249e-05 8.763814e-08
4.300142e-05 -1.684154e-05 -5.481961e-08
4.444291e-05 -1.737233e-05 2.690900e-08
4.443875e-05 -1.736775e-05 3.276856e-08
4.297904e-05 -1.682951e-05 9.139982e-08
4.297913e-05 -1.683444e-05 5.487893e-08
4.302454e-05 -1.684879e-05 -5.669262e-08
4.443565e-05 -1.736945e-05 3.001514e-08
4.300132e-05 -1.683687e-05 9.487894e-08
4.300142e-05 -1.684140e-05 5.699563e-08
4.304841e-05 -1.685634e-05 -5.839454e-08
4.442761e-05 -1.736629e-05 3.311113e-08
4.302443e-05 -1.684453e-05 9.806763e-08
4.302453e-05 -1.684868e-05 5.893933e-08
4.307296e-05 -1.686414e-05 -5.992181e-08
4.441881e-05 -1.736288e-05 3.618842e-08
4.304829e-05 -1.685248e-05 1.009603e-07
4.304841e-05 -1.685623e-05 6.070505e-08
4.309814e-05 -1.687218e-05 -6.127192e-08
4.440926e-05 -1.735922e-05 3.923959e-08
4.440042e-05 -1.735318e-05 -4.527547e-08
4.307285e-05 -1.686070e-05 1.035532e-07
4.307297e-05 -1.686404e-05 6.228924e-08
4.312385e-05 -1.688043e-05 -6.244317e-08
4.439896e-05 -1.735532e-05 4.225882e-08
4.438886e-05 -1.734892e-05 4.831435e-08
4.309802e-05 -1.686916e-05 1.058436e-07
4.309814e-05 -1.687210e-05 6.368943e-08
4.315004e-05 -1.688886e-05 -6.343436e-08
4.438793e-05 -1.735120e-05 4.524125e-08
4.437661e-05 -1.734444e-05 5.131076e-08
4.312373e-05 -1.687782e-05 1.078298e-07
4.312386e-05 -1.688036e-05 6.490394e-08
4.317662e-05 -1.689745e-05 -6.424467e-08
4.437617e-05 -1.734684e-05 4.818138e-08
4.436363e-05 -1.733972e-05 5.425783e-08
4.314991e-05 -1.688668e-05 1.095105e-07
4.315004e-05 -1.688880e-05 6.593159e-08
4.320352e-05 -1.690616e-05 -6.487349e-08
4.436370e-05 -1.734225e-05 5.107208e-08
4.434992e-05 -1.733476e-05 5.714618e-08
4.317649e-05 -1.689568e-05 1.108850e-07
4.317662e-05 -1.689740e-05 6.677158e-08
4.323066e-05 -1.691497e-05 -6.532036e-08
4.435052e-05 -1.733741e-05 5.390501e-08
4.433551e-05 -1.732956e-05 5.996647e-08
4.433664e-05 -1.733233e-05 5.667170e-08
4.433557e-05 -1.732958e-05 -5.996417e-08
4.432043e-05 -1.732411e-05 6.271034e-08
4.331279e-05 -1.694167e-05 -6.556525e-08
4.323066e-05 -1.691494e-05 6.788640e-08
4.432208e-05 -1.732700e-05 5.936440e-08
4.432048e-05 -1.732413e-05 -6.270783e-08
4.430468e-05 -1.731842e-05 6.537089e-08
4.328524e-05 -1.693268e-05 1.133067e-07
4.327182e-05 -1.692829e-05 6.610756e-08
4.334015e-05 -1.695057e-05 -6.528029e-08
4.430687e-05 -1.732143e-05 6.197657e-08
4.428830e-05 -1.731249e-05 6.794266e-08
4.331266e-05 -1.694202e-05 1.131401e-07
4.331280e-05 -1.694169e-05 6.813951e-08
4.336737e-05 -1.695941e-05 -6.481133e-08
4.429101e-05 -1.731562e-05 6.450296e-08
4.427131e-05 -1.730633e-05 7.042159e-08
4.334002e-05 -1.695134e-05 1.126631e-07
4.334016e-05 -1.695059e-05 6.784370e-08
4.339437e-05 -1.696816e-05 -6.415790e-08
4.427453e-05 -1.730957e-05 6.693966e-08
4.425373e-05 -1.729995e-05 7.280469e-08
4.336724e-05 -1.696061e-05 1.118750e-07
4.336738e-05 -1.695945e-05 6.735708e-08
4.342107e-05 -1.697680e-05 -6.331960e-08
4.425746e-05 -1.730330e-05 6.928378e-08
4.423559e-05 -1.729335e-05 7.508987e-08
4.339424e-05 -1.696979e-05 1.107749e-07
4.339438e-05 -1.696821e-05 6.667922e-08
4.344741e-05 -1.698530e-05 -6.229607e-08
4.423981e-05 -1.729680e-05 7.153330e-08
4.421696e-05 -1.728656e-05 -7.727279e-08
4.342096e-05 -1.697886e-05 1.093619e-07
4.347329e-05 -1.699361e-05 -6.108709e-08
4.422162e-05 -1.729009e-05 7.368688e-08
4.419772e-05 -1.727954e-05 7.936151e-08
4.344730e-05 -1.698779e-05 1.076350e-07
4.349864e-05 -1.700172e-05 -5.969271e-08
4.420290e-05 -1.728318e-05 7.574370e-08
4.417805e-05 -1.727235e-05 8.134657e-08
4.347318e-05 -1.699653e-05 1.055936e-07
4.347331e-05 -1.699370e-05 6.349395e-08
4.352339e-05 -1.700959e-05 -5.811334e-08
4.418368e-05 -1.727608e-05 7.770327e-08
4.415791e-05 -1.726497e-05 8.323073e-08
4.349854e-05 -1.700507e-05 1.032371e-07
4.349866e-05 -1.700182e-05 6.204757e-08
4.354744e-05 -1.701720e-05 -5.634995e-08
4.416399e-05 -1.726878e-05 7.956538e-08
4.413734e-05 -1.725743e-05 8.501391e-08
4.352329e-05 -1.701338e-05 1.005653e-07
4.352340e-05 -1.700971e-05 6.040920e-08
4.357073e-05 -1.702452e-05 -5.440437e-08
4.414385e-05 -1.726132e-05 8.132999e-08
4.411635e-05 -1.724972e-05 8.669618e-08
4.412328e-05 -1.725369e-05 8.299717e-08
4.409498e-05 -1.724186e-05 8.827768e-08
4.363522e-05 -1.704447e-05 -4.751269e-08
4.357075e-05 -1.702465e-05 5.656116e-08
4.410232e-05 -1.724590e-05 8.456708e-08
4.407325e-05 -1.723386e-05 8.975857e-08
4.361463e-05 -1.704366e-05 8.675081e-08
4.359945e-05 -1.703518e-05 5.176077e-08
4.365468e-05 -1.705040e-05 -4.488642e-08
4.408098e-05 -1.723796e-05 8.603988e-08
4.405119e-05 -1.722573e-05 9.113909e-08
4.363517e-05 -1.705037e-05 8.253507e-08
4.363524e-05 -1.704465e-05 4.940703e-08
4.367301e-05 -1.705595e-05 -4.211379e-08
4.405929e-05 -1.722989e-05 8.741579e-08
4.405123e-05 -1.722575e-05 -9.113607e-08
4.402881e-05 -1.721748e-05 9.241945e-08
4.365464e-05 -1.705668e-05 7.803102e-08
4.369015e-05 -1.706112e-05 -3.921083e-08
4.403728e-05 -1.722170e-05 8.869508e-08
4.402886e-05 -1.721750e-05 -9.241639e-08
4.400614e-05 -1.720912e-05 9.359986e-08
4.367298e-05 -1.706260e-05 7.325368e-08
4.370604e-05 -1.706591e-05 -3.619739e-08
4.401497e-05 -1.721338e-05 8.987795e-08
4.398322e-05 -1.720065e-05 9.468057e-08
4.369013e-05 -1.706810e-05 6.822329e-08
4.369018e-05 -1.706132e-05 4.077833e-08
4.372065e-05 -1.707036e-05 -3.309653e-08
4.399238e-05 -1.720496e-05 9.096459e-08
4.396005e-05 -1.719209e-05 9.566179e-08
4.370604e-05 -1.707320e-05 6.296607e-08
4.370608e-05 -1.706613e-05 3.764241e-08
4.373395e-05 -1.707447e-05 -2.993305e-08
4.396955e-05 -1.719644e-05 9.195528e-08
4.372066e-05 -1.707789e-05 5.751439e-08
4.372069e-05 -1.707058e-05 3.441306e-08
4.374590e-05 -1.707829e-05 -2.673035e-08
4.394649e-05 -1.718783e-05 9.285024e-08
4.373396e-05 -1.708220e-05 5.190582e-08
4.373399e-05 -1.707470e-05 3.111579e-08
4.375652e-05 -1.708186e-05 -2.350632e-08
4.392323e-05 -1.717915e-05 9.364968e-08
4.374592e-05 -1.708616e-05 4.618051e-08
4.374595e-05 -1.707853e-05 2.777503e-08
4.376579e-05 -1.708518e-05 -2.027032e-08
4.389979e-05 -1.717039e-05 9.435382e-08
4.386556e-05 -1.715714e-05 -9.859329e-08
4.375655e-05 -1.708981e-05 4.037673e-08
4.375656e-05 -1.708209e-05 2.440986e-08
4.377372e-05 -1.708829e-05 -1.702448e-08
4.387620e-05 -1.716158e-05 9.496288e-08
4.384153e-05 -1.714824e-05 9.908351e-08
4.376582e-05 -1.709319e-05 3.452628e-08
4.376584e-05 -1.708542e-05 2.103087e-08
4.378030e-05 -1.709117e-05 -1.376945e-08
4.385249e-05 -1.715272e-05 9.547708e-08
4.381746e-05 -1.713933e-05 9.947247e-08
4.382866e-05 -1.714381e-05 9.589663e-08
4.379331e-05 -1.713038e-05 9.976344e-08
4.379185e-05 -1.709814e-05 -4.047080e-09
4.378034e-05 -1.709141e-05 1.424353e-08
4.380476e-05 -1.713488e-05 9.622173e-08
4.376913e-05 -1.712142e-05 9.995662e-08
4.378941e-05 -1.710394e-05 1.116380e-08
4.378061e-05 -1.709535e-05 8.262538e-09
4.379299e-05 -1.709979e-05 -8.883429e-10
4.378081e-05 -1.712592e-05 9.645259e-08
4.374492e-05 -1.711246e-05 1.000522e-07
4.379189e-05 -1.710577e-05 5.492588e-09
4.379189e-05 -1.709837e-05 4.107741e-09
4.379280e-05 -1.710105e-05 2.188993e-09
4.375682e-05 -1.711695e-05 9.658938e-08
4.372071e-05 -1.710349e-05 1.000503e-07
4.379303e-05 -1.710719e-05 -3.361647e-11
4.379303e-05 -1.710001e-05 8.200000e-10
4.379133e-05 -1.710191e-05 5.163232e-09
4.373282e-05 -1.710798e-05 9.663228e-08
4.372075e-05 -1.710351e-05 -1.000472e-07
4.369653e-05 -1.709454e-05 9.995102e-08
4.379284e-05 -1.710818e-05 -5.379383e-09
4.379284e-05 -1.710126e-05 -2.380621e-09
4.378863e-05 -1.710236e-05 8.016306e-09
4.370883e-05 -1.709901e-05 9.658149e-08
4.369657e-05 -1.709455e-05 -9.994788e-08
4.367240e-05 -1.708560e-05 9.975452e-08
4.379137e-05 -1.710873e-05 -1.051517e-08
4.379137e-05 -1.710211e-05 -5.472027e-09
4.378474e-05 -1.710239e-05 1.073389e-08
4.368489e-05 -1.709006e-05 9.643711e-08
4.364835e-05 -1.707670e-05 9.946081e-08
4.378866e-05 -1.710884e-05 -1.541758e-08
4.377974e-05 -1.710203e-05 1.330505e-08
4.366100e-05 -1.708113e-05 9.619920e-08
4.362439e-05 -1.706783e-05 9.906989e-08
4.378477e-05 -1.710853e-05 -2.006882e-08
4.377367e-05 -1.710128e-05 1.572177e-08
4.363720e-05 -1.707224e-05 9.586785e-08
4.360059e-05 -1.705902e-05 -9.857854e-08
4.377976e-05 -1.710780e-05 -2.445589e-08
4.377977e-05 -1.710220e-05 -1.392667e-08
4.376662e-05 -1.710015e-05 1.797832e-08
4.361351e-05 -1.706339e-05 9.544308e-08
4.357685e-05 -1.705025e-05 9.799610e-08
4.377369e-05 -1.710666e-05 -2.856958e-08
4.377370e-05 -1.710144e-05 -1.643454e-08
4.375865e-05 -1.709868e-05 2.007079e-08
4.358995e-05 -1.705459e-05 9.492481e-08
4.355331e-05 -1.704155e-05 9.731289e-08
4.376664e-05 -1.710516e-05 -3.240366e-08
4.376665e-05 -1.710030e-05 -1.877571e-08
4.374983e-05 -1.709688e-05 2.199659e-08
4.356654e-05 -1.704586e-05 9.431293e-08
4.352997e-05 -1.703293e-05 9.653186e-08
4.375866e-05 -1.710329e-05 -3.595411e-08
4.375868e-05 -1.709882e-05 -2.094627e-08
4.374023e-05 -1.709478e-05 2.375411e-08
4.354331e-05 -1.703719e-05 9.360729e-08
4.350684e-05 -1.702439e-05 9.565280e-08
4.352028e-05 -1.702861e-05 9.280770e-08
4.348394e-05 -1.701595e-05 9.467565e-08
4.370749e-05 -1.708693e-05 2.801013e-08
4.374026e-05 -1.709489e-05 -2.476642e-08
4.349748e-05 -1.702011e-05 9.191402e-08
4.346130e-05 -1.700762e-05 9.360044e-08
4.371898e-05 -1.709282e-05 -4.728532e-08
4.372176e-05 -1.709130e-05 -2.687027e-08
4.369550e-05 -1.708389e-05 2.908936e-08
4.347492e-05 -1.701172e-05 9.092615e-08
4.343894e-05 -1.699939e-05 9.242733e-08
4.370748e-05 -1.708958e-05 -4.939838e-08
4.370751e-05 -1.708701e-05 -2.918013e-08
4.368309e-05 -1.708068e-05 2.999903e-08
4.345263e-05 -1.700343e-05 8.984406e-08
4.341689e-05 -1.699129e-05 9.115635e-08
4.369549e-05 -1.708616e-05 -5.122396e-08
4.369552e-05 -1.708396e-05 -3.029932e-08
4.367034e-05 -1.707735e-05 3.073935e-08
4.343064e-05 -1.699526e-05 8.866772e-08
4.339516e-05 -1.698332e-05 8.978742e-08
4.368308e-05 -1.708256e-05 -5.276251e-08
4.365731e-05 -1.707390e-05 3.131053e-08
4.340897e-05 -1.698722e-05 8.739701e-08
4.337378e-05 -1.697549e-05 8.832034e-08
4.367032e-05 -1.707884e-05 -5.401448e-08
4.364409e-05 -1.707038e-05 3.171279e-08
4.338763e-05 -1.697931e-05 8.603175e-08
4.337382e-05 -1.697550e-05 -8.831700e-08
4.335278e-05 -1.696780e-05 8.675483e-08
4.365730e-05 -1.707500e-05 -5.498033e-08
4.365733e-05 -1.707394e-05 -3.260281e-08
4.363073e-05 -1.706680e-05 3.194630e-08
4.336666e-05 -1.697155e-05 8.457178e-08
4.335282e-05 -1.696782e-05 -8.675144e-08
4.333217e-05 -1.696028e-05 8.509064e-08
4.364407e-05 -1.707109e-05 -5.566045e-08
4.364410e-05 -1.707040e-05 -3.302004e-08
4.361732e-05 -1.706321e-05 3.201127e-08
4.334607e-05 -1.696393e-05 8.301687e-08
4.331198e-05 -1.695291e-05 8.332758e-08
4.363071e-05 -1.706713e-05 -5.605517e-08
4.363075e-05 -1.706682e-05 -3.326231e-08
4.360392e-05 -1.705962e-05 3.190786e-08
4.332589e-05 -1.695648e-05 8.136679e-08
4.361730e-05 -1.706315e-05 -5.616479e-08
4.361733e-05 -1.706321e-05 -3.332981e-08
4.359060e-05 -1.705606e-05 3.163628e-08
4.330614e-05 -1.694920e-05 7.962147e-08
4.327299e-05 -1.693873e-05 -7.950091e-08
4.360390e-05 -1.705917e-05 -5.598953e-08
4.360393e-05 -1.705961e-05 -3.322271e-08
4.357744e-05 -1.705256e-05 3.119679e-08
4.328684e-05 -1.694209e-05 7.778084e-08
4.325416e-05 -1.693190e-05 7.744394e-08
4.326802e-05 -1.693517e-05 7.584482e-08
4.353958e-05 -1.704271e-05 2.887620e-08
4.357745e-05 -1.705253e-05 -3.248557e-08
4.324970e-05 -1.692845e-05 7.381341e-08
4.321817e-05 -1.691889e-05 -7.302220e-08
4.355184e-05 -1.704387e-05 -5.244517e-08
4.355968e-05 -1.704740e-05 -3.097330e-08
4.352774e-05 -1.703972e-05 2.777204e-08
4.323190e-05 -1.692193e-05 7.168662e-08
4.320094e-05 -1.691269e-05 7.066765e-08
4.353956e-05 -1.704033e-05 -5.085079e-08
4.353959e-05 -1.704265e-05 -3.007886e-08
4.351639e-05 -1.703692e-05 2.650569e-08
4.321465e-05 -1.691563e-05 6.946446e-08
4.318433e-05 -1.690673e-05 6.821050e-08
4.352772e-05 -1.703696e-05 -4.897523e-08
4.352775e-05 -1.703965e-05 -2.893332e-08
4.350562e-05 -1.703433e-05 2.508040e-08
4.319797e-05 -1.690955e-05 6.714696e-08
4.316833e-05 -1.690100e-05 6.565415e-08
4.351638e-05 -1.703378e-05 -4.682077e-08
4.351640e-05 -1.703684e-05 -2.761925e-08
4.349549e-05 -1.703197e-05 2.350072e-08
4.318188e-05 -1.690370e-05 6.473414e-08
4.315294e-05 -1.689552e-05 6.299862e-08
4.350561e-05 -1.703082e-05 -4.439085e-08
4.350563e-05 -1.703424e-05 -2.613982e-08
4.348605e-05 -1.702985e-05 2.177299e-08
4.316640e-05 -1.689809e-05 6.222599e-08
4.313821e-05 -1.689029e-05 6.024384e-08
4.349547e-05 -1.702809e-05 -4.169055e-08
4.349549e-05 -1.703186e-05 -2.449962e-08
4.347737e-05 -1.702799e-05 1.990565e-08
4.315156e-05 -1.689273e-05 5.962252e-08
4.312415e-05 -1.688533e-05 5.738978e-08
4.348604e-05 -1.702562e-05 -3.872715e-08
4.346950e-05 -1.702639e-05 1.790966e-08
4.313738e-05 -1.688763e-05 5.692367e-08
4.311078e-05 -1.688064e-05 5.443635e-08
4.347736e-05 -1.702341e-05 -3.551075e-08
4.346250e-05 -1.702504e-05 1.579873e-08
4.312388e-05 -1.688279e-05 5.412939e-08
4.311081e-05 -1.688065e-05 -5.443294e-08
4.309813e-05 -1.687622e-05 5.138343e-08
4.346949e-05 -1.702149e-05 -3.205500e-08
4.346950e-05 -1.702625e-05 -1.868883e-08
4.345640e-05 -1.702396e-05 1.358906e-08
4.311109e-05 -1.687823e-05 5.123960e-08
4.309816e-05 -1.687623e-05 -5.138000e-08
4.308622e-05 -1.687210e-05 4.823086e-08
4.346249e-05 -1.701986e-05 -2.837765e-08
4.346250e-05 -1.702490e-05 -1.649234e-08
4.345125e-05 -1.702311e-05 1.129868e-08
4.309903e-05 -1.687396e-05 4.825417e-08
4.307507e-05 -1.686828e-05 4.497843e-08
4.345639e-05 -1.701851e-05 -2.450088e-08
4.345640e-05 -1.702380e-05 -1.419143e-08
4.344707e-05 -1.702248e-05 8.945597e-09
4.308772e-05 -1.686998e-05 4.517290e-08
4.306474e-05 -1.686477e-05 -4.162249e-08
4.307718e-05 -1.686631e-05 4.199559e-08
4.305516e-05 -1.686157e-05 3.817303e-08
4.344050e-05 -1.702173e-05 1.633572e-09
4.344707e-05 -1.702232e-05 -9.350621e-09
4.306744e-05 -1.686294e-05 3.872200e-08
4.304643e-05 -1.685869e-05 3.461945e-08
4.344168e-05 -1.701570e-05 -7.549728e-09
4.344814e-05 -1.702168e-05 -5.670367e-09
4.344035e-05 -1.702182e-05 -8.739828e-10
4.305853e-05 -1.685990e-05 3.535180e-08
4.303857e-05 -1.685616e-05 3.096488e-08
4.344050e-05 -1.701554e-05 -3.081799e-09
4.344050e-05 -1.702155e-05 -1.716866e-09
4.344124e-05 -1.702211e-05 -3.414443e-09
4.305046e-05 -1.685719e-05 3.188467e-08
4.303158e-05 -1.685396e-05 2.720899e-08
4.344035e-05 -1.701557e-05 1.439356e-09
4.344035e-05 -1.702165e-05 9.011328e-10
4.344318e-05 -1.702261e-05 -5.980663e-09
4.304325e-05 -1.685482e-05 2.832024e-08
4.302549e-05 -1.685212e-05 2.335156e-08
4.344123e-05 -1.701583e-05 5.995571e-09
4.344123e-05 -1.702193e-05 3.552091e-09
4.344621e-05 -1.702336e-05 -8.559236e-09
4.303694e-05 -1.685280e-05 2.465817e-08
4.302033e-05 -1.685065e-05 1.939249e-08
4.344318e-05 -1.701634e-05 1.056337e-08
4.345031e-05 -1.702440e-05 -1.113286e-08
4.303154e-05 -1.685113e-05 2.089818e-08
4.301612e-05 -1.684954e-05 1.533191e-08
4.344620e-05 -1.701714e-05 1.511465e-08
4.345549e-05 -1.702574e-05 -1.368335e-08
4.302708e-05 -1.684983e-05 1.704008e-08
4.301288e-05 -1.684881e-05 1.117038e-08
4.345030e-05 -1.701827e-05 1.962009e-08
4.345031e-05 -1.702423e-05 1.159369e-08
4.346173e-05 -1.702742e-05 -1.619379e-08
4.302358e-05 -1.684891e-05 1.308395e-08
4.301063e-05 -1.684847e-05 6.909028e-09
4.345548e-05 -1.701973e-05 2.405232e-08
4.345549e-05 -1.702558e-05 1.424675e-08
4.346901e-05 -1.702944e-05 -1.864963e-08
4.302107e-05 -1.684837e-05 9.030218e-09
4.300941e-05 -1.684852e-05 2.549873e-09
4.346172e-05 -1.702156e-05 2.838777e-08
4.346173e-05 -1.702726e-05 1.685639e-08
4.347732e-05 -1.703181e-05 -2.103906e-08
4.301956e-05 -1.684822e-05 4.879899e-09
4.300922e-05 -1.684897e-05 -1.903830e-09
4.346900e-05 -1.702375e-05 3.260728e-08
4.346901e-05 -1.702928e-05 1.940783e-08
4.348661e-05 -1.703453e-05 -2.335285e-08
4.301909e-05 -1.684847e-05 6.348546e-10
4.300925e-05 -1.684898e-05 1.906945e-09
4.301010e-05 -1.684982e-05 -6.447126e-09
4.347731e-05 -1.702631e-05 3.669599e-08
4.347732e-05 -1.703166e-05 2.188908e-08
4.349686e-05 -1.703761e-05 -2.558410e-08
4.301966e-05 -1.684912e-05 -3.701854e-09
4.301013e-05 -1.684983e-05 6.450024e-09
4.302131e-05 -1.685017e-05 -8.125511e-09
4.302564e-05 -1.685538e-05 3.490225e-09
4.353301e-05 -1.704888e-05 -3.173945e-08
4.349687e-05 -1.703747e-05 2.660627e-08
4.302404e-05 -1.685163e-05 -1.262921e-08
4.352008e-05 -1.704014e-05 5.156375e-08
4.351805e-05 -1.704262e-05 2.908313e-08
4.354674e-05 -1.705328e-05 -3.360342e-08
4.302788e-05 -1.685350e-05 -1.720326e-08
4.302471e-05 -1.685725e-05 2.532519e-08
4.353299e-05 -1.704445e-05 5.488466e-08
4.353302e-05 -1.704876e-05 3.299159e-08
4.356123e-05 -1.705798e-05 -3.537131e-08
4.303283e-05 -1.685576e-05 -2.183454e-08
4.303119e-05 -1.686006e-05 -3.013932e-08
4.354671e-05 -1.704907e-05 5.804262e-08
4.354675e-05 -1.705317e-05 3.492470e-08
4.357645e-05 -1.706297e-05 -3.704254e-08
4.303891e-05 -1.685841e-05 -2.650597e-08
4.303886e-05 -1.686324e-05 -3.494537e-08
4.356120e-05 -1.705400e-05 6.103681e-08
4.356124e-05 -1.705787e-05 3.675803e-08
4.359237e-05 -1.706822e-05 -3.861678e-08
4.304610e-05 -1.686143e-05 -3.119636e-08
4.304770e-05 -1.686675e-05 -3.971236e-08
4.357642e-05 -1.705920e-05 6.386685e-08
4.357646e-05 -1.706287e-05 3.849102e-08
4.360893e-05 -1.707374e-05 -4.009388e-08
4.305441e-05 -1.686480e-05 -3.588080e-08
4.305769e-05 -1.687055e-05 -4.441035e-08
4.359233e-05 -1.706468e-05 6.653262e-08
4.359238e-05 -1.706813e-05 4.012339e-08
4.362611e-05 -1.707949e-05 -4.147379e-08
4.306381e-05 -1.686848e-05 -4.053217e-08
4.306882e-05 -1.687460e-05 -4.901478e-08
4.360889e-05 -1.707042e-05 6.903409e-08
4.360894e-05 -1.707365e-05 4.165500e-08
4.364385e-05 -1.708546e-05 -4.275648e-08
4.307429e-05 -1.687243e-05 -4.512392e-08
4.308107e-05 -1.687889e-05 -5.351180e-08
4.362606e-05 -1.707639e-05 7.137131e-08
4.366213e-05 -1.709165e-05 -4.394196e-08
4.308582e-05 -1.687662e-05 -4.963323e-08
4.309440e-05 -1.688338e-05 -5.789676e-08
4.364381e-05 -1.708259e-05 7.354433e-08
4.368090e-05 -1.709802e-05 -4.503022e-08
4.309836e-05 -1.688102e-05 -5.404244e-08
4.310879e-05 -1.688809e-05 -6.216498e-08
4.366208e-05 -1.708900e-05 7.555316e-08
4.366214e-05 -1.709158e-05 4.564497e-08
4.370012e-05 -1.710458e-05 -4.602120e-08
4.311189e-05 -1.688561e-05 -5.833632e-08
4.312422e-05 -1.689301e-05 -6.630248e-08
4.368085e-05 -1.709560e-05 7.739778e-08
4.368091e-05 -1.709796e-05 4.677331e-08
4.371974e-05 -1.711129e-05 -4.691486e-08
4.312639e-05 -1.689041e-05 -6.249713e-08
4.312424e-05 -1.689302e-05 6.629304e-08
4.314065e-05 -1.689817e-05 -7.028446e-08
4.314183e-05 -1.689544e-05 -6.650191e-08
4.314068e-05 -1.689817e-05 7.027387e-08
4.315805e-05 -1.690357e-05 -7.408048e-08
4.378066e-05 -1.713223e-05 -4.901107e-08
4.371975e-05 -1.711124e-05 4.872736e-08
4.315820e-05 -1.690071e-05 -7.032370e-08
4.317639e-05 -1.690924e-05 7.764753e-08
4.376000e-05 -1.712359e-05 8.313162e-08
4.375124e-05 -1.712154e-05 4.821547e-08
4.380152e-05 -1.713942e-05 -4.951455e-08
4.317545e-05 -1.690624e-05 -7.393485e-08
4.319552e-05 -1.691514e-05 -8.099512e-08
4.378060e-05 -1.713092e-05 8.415292e-08
4.378068e-05 -1.713220e-05 5.090082e-08
4.382257e-05 -1.714670e-05 -4.992030e-08
4.319353e-05 -1.691202e-05 -7.730985e-08
4.321546e-05 -1.692130e-05 -8.406267e-08
4.380145e-05 -1.713833e-05 8.500883e-08
4.380153e-05 -1.713940e-05 5.142276e-08
4.384379e-05 -1.715404e-05 -5.022834e-08
4.321240e-05 -1.691807e-05 -8.042677e-08
4.323611e-05 -1.692770e-05 -8.684378e-08
4.382251e-05 -1.714583e-05 8.569908e-08
4.382259e-05 -1.714668e-05 5.184333e-08
4.386514e-05 -1.716142e-05 -5.043881e-08
4.323200e-05 -1.692435e-05 -8.326773e-08
4.325741e-05 -1.693433e-05 -8.932386e-08
4.384373e-05 -1.715339e-05 8.622353e-08
4.388656e-05 -1.716884e-05 -5.055203e-08
4.325227e-05 -1.693088e-05 -8.581878e-08
4.327927e-05 -1.694115e-05 -9.149191e-08
4.386508e-05 -1.716101e-05 8.658210e-08
4.390802e-05 -1.717628e-05 -5.056860e-08
4.327313e-05 -1.693761e-05 -8.806935e-08
4.330163e-05 -1.694815e-05 -9.333980e-08
4.388650e-05 -1.716865e-05 8.677494e-08
4.388658e-05 -1.716885e-05 5.249757e-08
4.392949e-05 -1.718373e-05 -5.048945e-08
4.329451e-05 -1.694454e-05 -9.001165e-08
4.332440e-05 -1.695531e-05 -9.486167e-08
4.390796e-05 -1.717631e-05 8.680248e-08
4.390804e-05 -1.717629e-05 5.251427e-08
4.395091e-05 -1.719116e-05 -5.031601e-08
4.331634e-05 -1.695164e-05 -9.164007e-08
4.334751e-05 -1.696259e-05 -9.605337e-08
4.392943e-05 -1.718398e-05 8.666558e-08
4.392951e-05 -1.718374e-05 5.243154e-08
4.397225e-05 -1.719858e-05 -5.005031e-08
4.333855e-05 -1.695888e-05 -9.295066e-08
4.337087e-05 -1.696997e-05 -9.691194e-08
4.395085e-05 -1.719163e-05 8.636568e-08
4.395093e-05 -1.719118e-05 5.225080e-08
4.399347e-05 -1.720596e-05 -4.969510e-08
4.336105e-05 -1.696623e-05 -9.394065e-08
4.339441e-05 -1.697742e-05 -9.743534e-08
4.397219e-05 -1.719926e-05 8.590504e-08
4.397227e-05 -1.719860e-05 5.197404e-08
4.401453e-05 -1.721330e-05 -4.925399e-08
4.338377e-05 -1.697367e-05 -9.460810e-08
4.341805e-05 -1.698491e-05 -9.762210e-08
4.340663e-05 -1.698116e-05 -9.495167e-08
4.344171e-05 -1.699241e-05 -9.747115e-08
4.407642e-05 -1.723500e-05 -4.746374e-08
4.401455e-05 -1.721333e-05 5.114463e-08
4.342955e-05 -1.698867e-05 -9.497036e-08
4.344176e-05 -1.699243e-05 9.745652e-08
4.405599e-05 -1.722931e-05 8.253926e-08
4.404448e-05 -1.722428e-05 4.852708e-08
4.409651e-05 -1.724212e-05 -4.672931e-08
4.345244e-05 -1.699618e-05 -9.466347e-08
4.346535e-05 -1.699990e-05 9.696703e-08
4.407637e-05 -1.723666e-05 8.134985e-08
4.407644e-05 -1.723506e-05 4.927828e-08
4.411629e-05 -1.724918e-05 -4.593350e-08
4.347524e-05 -1.700365e-05 -9.403033e-08
4.409647e-05 -1.724394e-05 8.003818e-08
4.409653e-05 -1.724218e-05 4.851202e-08
4.413573e-05 -1.725618e-05 -4.507819e-08
4.349784e-05 -1.701104e-05 -9.307030e-08
4.353495e-05 -1.702186e-05 9.346055e-08
4.411625e-05 -1.725115e-05 7.861283e-08
4.411632e-05 -1.724925e-05 4.768160e-08
4.415481e-05 -1.726311e-05 -4.416368e-08
4.352018e-05 -1.701833e-05 -9.178286e-08
4.355742e-05 -1.702890e-05 -9.162475e-08
4.413570e-05 -1.725829e-05 7.708081e-08
4.413576e-05 -1.725625e-05 4.678920e-08
4.417350e-05 -1.726995e-05 -4.319003e-08
4.354217e-05 -1.702549e-05 -9.016741e-08
4.357947e-05 -1.703577e-05 -8.943256e-08
4.415478e-05 -1.726535e-05 7.544757e-08
4.415484e-05 -1.726318e-05 4.583537e-08
4.419178e-05 -1.727669e-05 -4.215864e-08
4.356373e-05 -1.703248e-05 -8.822327e-08
4.360097e-05 -1.704243e-05 -8.689783e-08
4.417348e-05 -1.727232e-05 7.371830e-08
4.417353e-05 -1.727002e-05 4.482048e-08
4.420961e-05 -1.728332e-05 -4.107291e-08
4.358478e-05 -1.703927e-05 -8.594977e-08
4.362183e-05 -1.704883e-05 -8.401987e-08
4.419176e-05 -1.727917e-05 7.189955e-08
4.422698e-05 -1.728981e-05 -3.993794e-08
4.360523e-05 -1.704582e-05 -8.334620e-08
4.364197e-05 -1.705496e-05 -8.079801e-08
4.420959e-05 -1.728590e-05 6.999967e-08
4.424386e-05 -1.729614e-05 -3.875945e-08
4.362500e-05 -1.705211e-05 -8.041182e-08
4.366131e-05 -1.706076e-05 -7.723170e-08
4.422696e-05 -1.729248e-05 6.802789e-08
4.422701e-05 -1.728989e-05 4.143582e-08
4.426023e-05 -1.730231e-05 -3.754300e-08
4.364400e-05 -1.705810e-05 -7.714594e-08
4.367975e-05 -1.706622e-05 -7.332060e-08
4.424384e-05 -1.729890e-05 6.599322e-08
4.424388e-05 -1.729623e-05 4.021100e-08
4.427607e-05 -1.730830e-05 -3.629350e-08
4.366215e-05 -1.706375e-05 -7.354797e-08
4.369723e-05 -1.707130e-05 -6.906471e-08
4.426021e-05 -1.730513e-05 6.390364e-08
4.426025e-05 -1.730240e-05 3.894743e-08
4.429138e-05 -1.731409e-05 -3.501498e-08
4.367937e-05 -1.706904e-05 -6.961750e-08
4.371364e-05 -1.707597e-05 -6.446459e-08
4.369558e-05 -1.707394e-05 -6.535447e-08
4.372892e-05 -1.708019e-05 -5.952167e-08
4.433398e-05 -1.733021e-05 -3.103361e-08
4.429141e-05 -1.731418e-05 3.632321e-08
4.371068e-05 -1.707840e-05 -6.075936e-08
4.432035e-05 -1.732808e-05 5.510807e-08
4.431074e-05 -1.732256e-05 3.287647e-08
4.434703e-05 -1.733515e-05 -2.966392e-08
4.372460e-05 -1.708240e-05 -5.583346e-08
4.433398e-05 -1.733329e-05 5.281731e-08
4.433401e-05 -1.733031e-05 3.219288e-08
4.435949e-05 -1.733985e-05 -2.827473e-08
4.373725e-05 -1.708592e-05 -5.057932e-08
4.375579e-05 -1.708721e-05 4.860589e-08
4.376706e-05 -1.708991e-05 -4.267268e-08
4.434703e-05 -1.733827e-05 5.049359e-08
4.434706e-05 -1.733524e-05 3.077227e-08
4.437135e-05 -1.734432e-05 -2.686662e-08
4.374856e-05 -1.708892e-05 -4.500125e-08
4.376714e-05 -1.708993e-05 4.265884e-08
4.435950e-05 -1.734302e-05 4.813783e-08
4.438261e-05 -1.734856e-05 -2.543997e-08
4.375844e-05 -1.709138e-05 -3.910598e-08
4.374686e-05 -1.707914e-05 9.063621e-09
4.378535e-05 -1.709371e-05 2.982499e-08
4.437136e-05 -1.734753e-05 4.575061e-08
4.439325e-05 -1.735256e-05 -2.399498e-08
4.376682e-05 -1.709327e-05 -3.290349e-08
4.379196e-05 -1.709469e-05 -2.298548e-08
4.438262e-05 -1.735181e-05 4.333225e-08
4.438264e-05 -1.734866e-05 2.639191e-08
4.440326e-05 -1.735631e-05 -2.253179e-08
4.377363e-05 -1.709458e-05 -2.640810e-08
4.379696e-05 -1.709513e-05 -1.587698e-08
4.439326e-05 -1.735585e-05 4.088294e-08
4.439328e-05 -1.735266e-05 2.489352e-08
4.441265e-05 -1.735981e-05 -2.105046e-08
4.377880e-05 -1.709530e-05 -1.963947e-08
4.380018e-05 -1.709497e-05 -8.547288e-09
4.440328e-05 -1.735964e-05 3.840276e-08
4.440329e-05 -1.735641e-05 2.337627e-08
4.442139e-05 -1.736306e-05 -1.955101e-08
4.378227e-05 -1.709543e-05 -1.262367e-08
4.380158e-05 -1.709425e-05 -1.039312e-09
4.441266e-05 -1.736318e-05 3.589175e-08
4.441268e-05 -1.735991e-05 2.184022e-08
4.442948e-05 -1.736606e-05 -1.803345e-08
4.378401e-05 -1.709498e-05 -5.393887e-09
4.380110e-05 -1.709298e-05 6.597165e-09
4.442141e-05 -1.736648e-05 3.334990e-08
4.442142e-05 -1.736317e-05 2.028538e-08
4.443692e-05 -1.736880e-05 -1.649776e-08
4.378396e-05 -1.709395e-05 2.009662e-09
4.379870e-05 -1.709120e-05 1.430926e-08
4.442950e-05 -1.736952e-05 3.077720e-08
4.442951e-05 -1.736617e-05 1.871177e-08
4.444369e-05 -1.737128e-05 -1.494392e-08
4.378213e-05 -1.709240e-05 9.541350e-09
4.379438e-05 -1.708895e-05 2.204843e-08
4.377849e-05 -1.709035e-05 1.715384e-08
4.378814e-05 -1.708627e-05 2.978087e-08
4.445993e-05 -1.737713e-05 -1.017345e-08
4.444372e-05 -1.737139e-05 1.550823e-08
4.377306e-05 -1.708786e-05 2.480374e-08
4.377999e-05 -1.708320e-05 3.749164e-08
4.445523e-05 -1.737907e-05 2.017768e-08
4.444953e-05 -1.737472e-05 1.257960e-08
4.446396e-05 -1.737853e-05 -8.546963e-09
4.376585e-05 -1.708498e-05 3.245619e-08
4.376993e-05 -1.707973e-05 4.517403e-08
4.445996e-05 -1.738079e-05 1.745062e-08
4.445997e-05 -1.737724e-05 1.056159e-08
4.446729e-05 -1.737966e-05 -6.902332e-09
4.375687e-05 -1.708172e-05 4.008358e-08
4.446399e-05 -1.738224e-05 1.469268e-08
4.446399e-05 -1.737864e-05 8.875016e-09
4.446990e-05 -1.738051e-05 -5.239610e-09
4.374612e-05 -1.707806e-05 4.765788e-08
4.446732e-05 -1.738341e-05 1.190392e-08
4.446732e-05 -1.737977e-05 7.169650e-09
4.447178e-05 -1.738108e-05 -3.558896e-09
4.373360e-05 -1.707398e-05 5.514347e-08
4.374421e-05 -1.707154e-05 -6.036232e-08
4.446993e-05 -1.738430e-05 9.084366e-09
4.446993e-05 -1.738063e-05 5.445522e-09
4.447294e-05 -1.738136e-05 -1.860353e-09
4.371933e-05 -1.706941e-05 6.249662e-08
4.372850e-05 -1.706670e-05 -6.778885e-08
4.371098e-05 -1.706133e-05 -7.503397e-08
4.447182e-05 -1.738491e-05 6.234133e-09
4.447336e-05 -1.738135e-05 -1.442489e-10
4.370331e-05 -1.706433e-05 6.967029e-08
4.370299e-05 -1.705768e-05 -3.852709e-08
4.369162e-05 -1.705539e-05 8.206014e-08
4.447298e-05 -1.738523e-05 3.353375e-09
4.447304e-05 -1.738106e-05 1.589006e-09
4.368560e-05 -1.705871e-05 7.661965e-08
4.367069e-05 -1.704893e-05 8.880440e-08
4.447340e-05 -1.738527e-05 4.423527e-10
4.447340e-05 -1.738147e-05 1.618623e-10
4.447197e-05 -1.738047e-05 3.338790e-09
4.366623e-05 -1.705253e-05 8.330570e-08
4.364816e-05 -1.704193e-05 9.524316e-08
4.447308e-05 -1.738501e-05 -2.498507e-09
4.447308e-05 -1.738118e-05 -1.635543e-09
4.447013e-05 -1.737959e-05 5.104193e-09
4.364528e-05 -1.704580e-05 8.969652e-08
4.362412e-05 -1.703440e-05 1.013506e-07
4.447200e-05 -1.738446e-05 -5.468539e-09
4.446754e-05 -1.737841e-05 6.883918e-09
4.362280e-05 -1.703853e-05 9.576728e-08
4.359868e-05 -1.702634e-05 1.071077e-07
4.447017e-05 -1.738362e-05 -8.466749e-09
4.447017e-05 -1.737971e-05 -5.281132e-09
4.446417e-05 -1.737694e-05 8.676168e-09
4.359887e-05 -1.703072e-05 1.014995e-07
4.357190e-05 -1.701780e-05 1.125006e-07
4.357359e-05 -1.702241e-05 1.068800e-07
4.354390e-05 -1.700879e-05 1.175202e-07
4.444940e-05 -1.737080e-05 1.410018e-08
4.446420e-05 -1.737707e-05 -8.986280e-09
4.354704e-05 -1.701361e-05 1.118997e-07
4.351476e-05 -1.699934e-05 1.221603e-07
4.445513e-05 -1.737728e-05 -2.070126e-08
4.445413e-05 -1.737443e-05 -1.121052e-08
4.444292e-05 -1.736819e-05 1.591079e-08
4.351930e-05 -1.700436e-05 1.165529e-07
4.348457e-05 -1.698949e-05 1.264173e-07
4.444943e-05 -1.737496e-05 -2.380269e-08
4.444944e-05 -1.737092e-05 -1.461534e-08
4.443566e-05 -1.736531e-05 1.771444e-08
4.349047e-05 -1.699469e-05 1.208360e-07
4.345344e-05 -1.697928e-05 1.302891e-07
4.444295e-05 -1.737235e-05 -2.691019e-08
4.444295e-05 -1.736831e-05 -1.649543e-08
4.442763e-05 -1.736217e-05 1.950588e-08
4.346065e-05 -1.698464e-05 1.247472e-07
4.342153e-05 -1.696876e-05 -1.337607e-07
4.443568e-05 -1.736946e-05 -3.001601e-08
4.443569e-05 -1.736543e-05 -1.836890e-08
4.441883e-05 -1.735879e-05 2.128066e-08
4.342993e-05 -1.697424e-05 1.282861e-07
4.338872e-05 -1.695789e-05 1.368757e-07
4.442765e-05 -1.736631e-05 -3.311165e-08
4.440928e-05 -1.735517e-05 2.303604e-08
4.339839e-05 -1.696352e-05 1.314527e-07
4.335531e-05 -1.694679e-05 1.395910e-07
4.441885e-05 -1.736289e-05 -3.618858e-08
4.439898e-05 -1.735132e-05 2.477107e-08
4.336614e-05 -1.695252e-05 1.342477e-07
4.335537e-05 -1.694681e-05 -1.395765e-07
4.332133e-05 -1.693546e-05 1.419222e-07
4.440930e-05 -1.735923e-05 -3.923937e-08
4.440931e-05 -1.735529e-05 -2.389999e-08
4.438795e-05 -1.734725e-05 2.648562e-08
4.333327e-05 -1.694128e-05 1.366723e-07
4.332139e-05 -1.693548e-05 -1.419076e-07
4.328687e-05 -1.692394e-05 1.438704e-07
4.439900e-05 -1.735534e-05 -4.225823e-08
4.439902e-05 -1.735144e-05 -2.570400e-08
4.437620e-05 -1.734296e-05 2.817899e-08
4.329988e-05 -1.692983e-05 1.387276e-07
4.325202e-05 -1.691228e-05 1.454368e-07
4.438797e-05 -1.735122e-05 -4.524029e-08
4.438799e-05 -1.734737e-05 -2.748669e-08
4.436373e-05 -1.733844e-05 2.984882e-08
4.326604e-05 -1.691822e-05 1.404147e-07
4.321688e-05 -1.690049e-05 1.466226e-07
4.437621e-05 -1.734686e-05 -4.818004e-08
4.437623e-05 -1.734308e-05 -2.924708e-08
4.435055e-05 -1.733368e-05 3.149095e-08
4.323187e-05 -1.690647e-05 1.417351e-07
4.318153e-05 -1.688863e-05 1.474290e-07
4.436374e-05 -1.734226e-05 -5.107038e-08
4.436376e-05 -1.733855e-05 -3.098252e-08
4.433667e-05 -1.732870e-05 3.310028e-08
4.319744e-05 -1.689462e-05 1.426898e-07
4.314606e-05 -1.687673e-05 1.478571e-07
4.316285e-05 -1.688271e-05 1.432801e-07
4.311057e-05 -1.686481e-05 1.479079e-07
4.429106e-05 -1.731233e-05 3.768193e-08
4.433671e-05 -1.732881e-05 -3.436010e-08
4.312819e-05 -1.687078e-05 1.435071e-07
4.307515e-05 -1.685293e-05 1.475827e-07
4.430690e-05 -1.732145e-05 -6.197384e-08
4.431160e-05 -1.732097e-05 -3.544756e-08
4.427458e-05 -1.730640e-05 3.911379e-08
4.309355e-05 -1.685885e-05 1.433717e-07
4.303988e-05 -1.684110e-05 1.468825e-07
4.429105e-05 -1.731563e-05 -6.450013e-08
4.429109e-05 -1.731243e-05 -3.911623e-08
4.425751e-05 -1.730026e-05 4.049330e-08
4.305902e-05 -1.684697e-05 1.428751e-07
4.300485e-05 -1.682937e-05 1.458084e-07
4.427457e-05 -1.730959e-05 -6.693675e-08
4.427461e-05 -1.730650e-05 -4.060192e-08
4.423987e-05 -1.729389e-05 4.181867e-08
4.302468e-05 -1.683517e-05 1.420182e-07
4.425749e-05 -1.730331e-05 -6.928080e-08
4.425754e-05 -1.730035e-05 -4.203306e-08
4.422168e-05 -1.728731e-05 4.308865e-08
4.299063e-05 -1.682348e-05 1.408021e-07
4.423985e-05 -1.729682e-05 -7.153028e-08
4.423990e-05 -1.729398e-05 -4.340788e-08
4.420296e-05 -1.728053e-05 4.430239e-08
4.295696e-05 -1.681194e-05 1.392280e-07
4.422165e-05 -1.729011e-05 -7.368383e-08
4.422171e-05 -1.728740e-05 -4.472513e-08
4.418375e-05 -1.727356e-05 4.545937e-08
4.292374e-05 -1.680058e-05 1.372977e-07
4.286891e-05 -1.678409e-05 -1.377933e-07
4.420293e-05 -1.728320e-05 -7.574063e-08
4.416406e-05 -1.726640e-05 4.655925e-08
4.289106e-05 -1.678943e-05 1.350131e-07
4.283634e-05 -1.677331e-05 1.348964e-07
4.418371e-05 -1.727609e-05 -7.770019e-08
4.414392e-05 -1.725906e-05 4.760190e-08
4.285901e-05 -1.677852e-05 1.323773e-07
4.280456e-05 -1.676283e-05 1.316300e-07
4.416402e-05 -1.726880e-05 -7.956230e-08
4.416409e-05 -1.726647e-05 -4.832459e-08
4.412336e-05 -1.725156e-05 4.858725e-08
4.282768e-05 -1.676788e-05 1.293943e-07
4.280460e-05 -1.676284e-05 -1.316155e-07
4.277362e-05 -1.675265e-05 1.280174e-07
4.414388e-05 -1.726133e-05 -8.132691e-08
4.414395e-05 -1.725914e-05 -4.940589e-08
4.410239e-05 -1.724391e-05 4.951534e-08
4.279713e-05 -1.675753e-05 1.260702e-07
4.277366e-05 -1.675267e-05 -1.280031e-07
4.274360e-05 -1.674281e-05 1.240703e-07
4.412331e-05 -1.725370e-05 -8.299408e-08
4.412338e-05 -1.725163e-05 -5.042777e-08
4.408106e-05 -1.723610e-05 5.038623e-08
4.276745e-05 -1.674751e-05 1.224129e-07
4.271457e-05 -1.673331e-05 1.198043e-07
4.410235e-05 -1.724591e-05 -8.456398e-08
4.410242e-05 -1.724397e-05 -5.139024e-08
4.405937e-05 -1.722816e-05 5.120002e-08
4.273872e-05 -1.673783e-05 1.184336e-07
4.268661e-05 -1.672417e-05 1.152398e-07
4.271099e-05 -1.672851e-05 1.141473e-07
4.265980e-05 -1.671540e-05 1.104031e-07
4.399247e-05 -1.720362e-05 5.330007e-08
4.405940e-05 -1.722822e-05 -5.313737e-08
4.268434e-05 -1.671956e-05 1.095734e-07
4.263419e-05 -1.670699e-05 1.053261e-07
4.401500e-05 -1.721340e-05 -8.987479e-08
4.402489e-05 -1.721611e-05 -5.217672e-08
4.396964e-05 -1.719523e-05 5.388673e-08
4.265883e-05 -1.671097e-05 1.047368e-07
4.260985e-05 -1.669893e-05 1.000466e-07
4.399241e-05 -1.720497e-05 -9.096148e-08
4.399250e-05 -1.720367e-05 -5.531556e-08
4.394658e-05 -1.718675e-05 5.441693e-08
4.263449e-05 -1.670275e-05 9.966727e-08
4.258682e-05 -1.669121e-05 9.460536e-08
4.396958e-05 -1.719645e-05 -9.195219e-08
4.396967e-05 -1.719527e-05 -5.592403e-08
4.392332e-05 -1.717820e-05 5.489080e-08
4.261136e-05 -1.669488e-05 9.439943e-08
4.256514e-05 -1.668379e-05 8.904228e-08
4.394652e-05 -1.718785e-05 -9.284713e-08
4.389989e-05 -1.716957e-05 5.530846e-08
4.258948e-05 -1.668733e-05 8.896999e-08
4.254486e-05 -1.667667e-05 -8.338461e-08
4.392326e-05 -1.717916e-05 -9.364657e-08
4.387630e-05 -1.716089e-05 5.567003e-08
4.256886e-05 -1.668007e-05 8.341422e-08
4.252591e-05 -1.666979e-05 7.766169e-08
4.389982e-05 -1.717041e-05 -9.435070e-08
4.389991e-05 -1.716960e-05 -5.739873e-08
4.385259e-05 -1.715215e-05 5.597564e-08
4.254950e-05 -1.667308e-05 7.776173e-08
4.250838e-05 -1.666317e-05 7.186630e-08
4.387623e-05 -1.716159e-05 -9.495976e-08
4.387632e-05 -1.716091e-05 -5.777382e-08
4.382877e-05 -1.714338e-05 5.622539e-08
4.253142e-05 -1.666633e-05 7.203531e-08
4.249226e-05 -1.665682e-05 6.600923e-08
4.385251e-05 -1.715273e-05 -9.547395e-08
4.385261e-05 -1.715217e-05 -5.809088e-08
4.380486e-05 -1.713457e-05 5.641941e-08
4.251463e-05 -1.665982e-05 6.625505e-08
4.247756e-05 -1.665079e-05 6.010986e-08
4.382869e-05 -1.714382e-05 -9.589350e-08
4.382879e-05 -1.714340e-05 -5.835002e-08
4.378091e-05 -1.712574e-05 5.655779e-08
4.249915e-05 -1.665361e-05 6.044474e-08
4.246430e-05 -1.664510e-05 5.420135e-08
4.380479e-05 -1.713489e-05 -9.621859e-08
4.380489e-05 -1.713458e-05 -5.855136e-08
4.375692e-05 -1.711690e-05 5.664062e-08
4.248500e-05 -1.664772e-05 5.463494e-08
4.246432e-05 -1.664510e-05 -5.420549e-08
4.245246e-05 -1.663979e-05 4.832351e-08
4.378083e-05 -1.712593e-05 -9.644943e-08
4.378093e-05 -1.712575e-05 -5.869499e-08
4.373292e-05 -1.710805e-05 5.666798e-08
4.247219e-05 -1.664219e-05 4.886098e-08
4.245248e-05 -1.663980e-05 -4.832900e-08
4.244202e-05 -1.663490e-05 4.251600e-08
4.246072e-05 -1.663707e-05 4.315863e-08
4.243294e-05 -1.663044e-05 3.681442e-08
4.366110e-05 -1.708159e-05 5.641789e-08
4.373294e-05 -1.710806e-05 -5.880959e-08
4.245058e-05 -1.663238e-05 3.756066e-08
4.242521e-05 -1.662642e-05 3.124860e-08
4.368491e-05 -1.709007e-05 -9.643387e-08
4.369713e-05 -1.709479e-05 -5.639369e-08
4.363730e-05 -1.707282e-05 5.622385e-08
4.244175e-05 -1.662814e-05 3.209501e-08
4.241876e-05 -1.662286e-05 2.584229e-08
4.366103e-05 -1.708114e-05 -9.619600e-08
4.366112e-05 -1.708158e-05 -5.855091e-08
4.361361e-05 -1.706410e-05 5.597443e-08
4.243421e-05 -1.662434e-05 2.678422e-08
4.241356e-05 -1.661973e-05 2.061374e-08
4.363723e-05 -1.707225e-05 -9.586467e-08
4.363732e-05 -1.707281e-05 -5.834987e-08
4.359004e-05 -1.705543e-05 5.566953e-08
4.242791e-05 -1.662099e-05 2.164566e-08
4.240956e-05 -1.661705e-05 1.557646e-08
4.361353e-05 -1.706340e-05 -9.543988e-08
4.361363e-05 -1.706408e-05 -5.809143e-08
4.356664e-05 -1.704682e-05 5.530907e-08
4.242283e-05 -1.661810e-05 1.669222e-08
4.240671e-05 -1.661481e-05 1.074015e-08
4.358997e-05 -1.705460e-05 -9.492159e-08
4.354341e-05 -1.703828e-05 5.489290e-08
4.241892e-05 -1.661564e-05 1.193316e-08
4.356656e-05 -1.704587e-05 -9.430969e-08
4.352038e-05 -1.702982e-05 5.442094e-08
4.241613e-05 -1.661361e-05 7.374833e-09
4.240431e-05 -1.661156e-05 -1.705190e-09
4.354333e-05 -1.703720e-05 -9.360403e-08
4.354343e-05 -1.703825e-05 -5.697069e-08
4.349757e-05 -1.702146e-05 5.389313e-08
4.241442e-05 -1.661199e-05 3.021437e-09
4.240458e-05 -1.661051e-05 -2.506347e-09
4.352031e-05 -1.702862e-05 -9.280442e-08
4.352040e-05 -1.702979e-05 -5.648159e-08
4.347501e-05 -1.701319e-05 5.330951e-08
4.241373e-05 -1.661077e-05 -1.124422e-09
4.240584e-05 -1.660984e-05 -6.491079e-09
4.349750e-05 -1.702012e-05 -9.191072e-08
4.349759e-05 -1.702142e-05 -5.593458e-08
4.345272e-05 -1.700503e-05 5.267017e-08
4.241403e-05 -1.660993e-05 -5.061260e-09
4.240801e-05 -1.660952e-05 -1.025822e-08
4.347495e-05 -1.701173e-05 -9.092283e-08
4.347503e-05 -1.701315e-05 -5.532970e-08
4.343073e-05 -1.699699e-05 5.197520e-08
4.241526e-05 -1.660945e-05 -8.788358e-09
4.241102e-05 -1.660954e-05 -1.380742e-08
4.345266e-05 -1.700344e-05 -8.984072e-08
4.345274e-05 -1.700499e-05 -5.466703e-08
4.340905e-05 -1.698907e-05 5.122462e-08
4.241736e-05 -1.660931e-05 -1.230548e-08
4.241484e-05 -1.660987e-05 -1.713862e-08
4.343067e-05 -1.699527e-05 -8.866435e-08
4.343075e-05 -1.699695e-05 -5.394665e-08
4.338771e-05 -1.698129e-05 5.041839e-08
4.242029e-05 -1.660950e-05 -1.561270e-08
4.241941e-05 -1.661050e-05 -2.025194e-08
4.242400e-05 -1.660999e-05 -1.871022e-08
4.241945e-05 -1.661051e-05 2.024179e-08
4.242468e-05 -1.661140e-05 -2.314759e-08
4.332596e-05 -1.695885e-05 4.766449e-08
4.338773e-05 -1.698125e-05 -5.233281e-08
4.242844e-05 -1.661077e-05 -2.159833e-08
4.242472e-05 -1.661142e-05 2.313744e-08
4.243060e-05 -1.661256e-05 -2.582576e-08
4.334609e-05 -1.696394e-05 -8.301338e-08
4.335822e-05 -1.696979e-05 -4.895433e-08
4.330621e-05 -1.695170e-05 4.663432e-08
4.243356e-05 -1.661181e-05 -2.427731e-08
4.243712e-05 -1.661395e-05 -2.828663e-08
4.332591e-05 -1.695649e-05 -8.136335e-08
4.332598e-05 -1.695879e-05 -4.947764e-08
4.328691e-05 -1.694472e-05 4.554789e-08
4.243930e-05 -1.661310e-05 -2.674736e-08
4.244420e-05 -1.661556e-05 -3.053031e-08
4.330616e-05 -1.694921e-05 -7.961804e-08
4.326808e-05 -1.693793e-05 4.440511e-08
4.244562e-05 -1.661461e-05 -2.900866e-08
4.245177e-05 -1.661736e-05 -3.255687e-08
4.328686e-05 -1.694210e-05 -7.777739e-08
4.328693e-05 -1.694466e-05 -4.728289e-08
4.324976e-05 -1.693134e-05 4.320594e-08
4.245246e-05 -1.661633e-05 -3.106130e-08
4.245979e-05 -1.661934e-05 -3.436630e-08
4.326804e-05 -1.693518e-05 -7.584136e-08
4.323196e-05 -1.692495e-05 4.195036e-08
4.245978e-05 -1.661824e-05 -3.290528e-08
4.246822e-05 -1.662148e-05 -3.595857e-08
4.324972e-05 -1.692846e-05 -7.380995e-08
4.324978e-05 -1.693127e-05 -4.485441e-08
4.321471e-05 -1.691878e-05 4.063836e-08
4.246752e-05 -1.662031e-05 -3.454055e-08
4.247704e-05 -1.662377e-05 3.732353e-08
4.323192e-05 -1.692194e-05 -7.168315e-08
4.323198e-05 -1.692487e-05 -4.355241e-08
4.319802e-05 -1.691283e-05 3.926992e-08
4.247564e-05 -1.662253e-05 -3.596702e-08
4.248607e-05 -1.662614e-05 -3.849157e-08
4.321467e-05 -1.691564e-05 -6.946100e-08
4.321472e-05 -1.691870e-05 -4.219189e-08
4.318192e-05 -1.690711e-05 3.784505e-08
4.248409e-05 -1.662487e-05 -3.718461e-08
4.249539e-05 -1.662863e-05 -3.943246e-08
4.319799e-05 -1.690956e-05 -6.714350e-08
4.319804e-05 -1.691274e-05 -4.077283e-08
4.316644e-05 -1.690163e-05 3.636372e-08
4.249280e-05 -1.662733e-05 -3.819325e-08
4.250491e-05 -1.663120e-05 -4.015669e-08
4.318190e-05 -1.690371e-05 -6.473067e-08
4.318194e-05 -1.690702e-05 -3.929523e-08
4.315160e-05 -1.689640e-05 3.482591e-08
4.250174e-05 -1.662987e-05 -3.899303e-08
4.251458e-05 -1.663382e-05 -4.066501e-08
4.316642e-05 -1.689810e-05 -6.222252e-08
4.316646e-05 -1.690153e-05 -3.775907e-08
4.313742e-05 -1.689142e-05 3.323160e-08
4.251085e-05 -1.663248e-05 -3.958424e-08
4.252434e-05 -1.663649e-05 -4.095868e-08
4.315158e-05 -1.689274e-05 -5.961905e-08
4.315162e-05 -1.689630e-05 -3.616434e-08
4.312392e-05 -1.688672e-05 3.158072e-08
4.252009e-05 -1.663514e-05 -3.996752e-08
4.253416e-05 -1.663919e-05 -4.103979e-08
4.252939e-05 -1.663783e-05 -4.014403e-08
4.254397e-05 -1.664189e-05 -4.091147e-08
4.308774e-05 -1.687430e-05 2.628794e-08
4.312393e-05 -1.688662e-05 -3.279909e-08
4.253873e-05 -1.664054e-05 -4.011572e-08
4.255373e-05 -1.664458e-05 -4.057835e-08
4.309905e-05 -1.687397e-05 -4.825067e-08
4.310853e-05 -1.687996e-05 -2.905164e-08
4.307720e-05 -1.687076e-05 2.440991e-08
4.254803e-05 -1.664324e-05 -3.988556e-08
4.255379e-05 -1.664460e-05 4.056877e-08
4.256339e-05 -1.664725e-05 -4.004690e-08
4.308774e-05 -1.686999e-05 -4.516943e-08
4.308776e-05 -1.687419e-05 -2.731037e-08
4.306746e-05 -1.686752e-05 2.247476e-08
4.255727e-05 -1.664593e-05 -3.945799e-08
4.256345e-05 -1.664728e-05 4.003758e-08
4.257290e-05 -1.664989e-05 -3.932598e-08
4.307720e-05 -1.686631e-05 -4.199212e-08
4.307722e-05 -1.687064e-05 -2.536278e-08
4.305854e-05 -1.686461e-05 2.048230e-08
4.256639e-05 -1.664860e-05 -3.883921e-08
4.258221e-05 -1.665250e-05 -3.842726e-08
4.306746e-05 -1.686295e-05 -3.871852e-08
4.305047e-05 -1.686204e-05 1.843236e-08
4.257535e-05 -1.665122e-05 -3.803767e-08
4.305855e-05 -1.685991e-05 -3.534831e-08
4.304326e-05 -1.685980e-05 1.632478e-08
4.258411e-05 -1.665380e-05 -3.706449e-08
4.305047e-05 -1.685720e-05 -3.188117e-08
4.305049e-05 -1.686191e-05 -1.916391e-08
4.303695e-05 -1.685791e-05 1.415944e-08
4.259264e-05 -1.665633e-05 -3.593362e-08
4.304327e-05 -1.685483e-05 -2.831673e-08
4.304328e-05 -1.685967e-05 -1.697828e-08
4.303155e-05 -1.685638e-05 1.193632e-08
4.260091e-05 -1.665882e-05 -3.466173e-08
4.261677e-05 -1.666251e-05 3.338723e-08
4.303696e-05 -1.685280e-05 -2.465465e-08
4.303696e-05 -1.685777e-05 -1.473273e-08
4.302708e-05 -1.685522e-05 9.655535e-09
4.260889e-05 -1.666127e-05 -3.326741e-08
4.262446e-05 -1.666490e-05 -3.187392e-08
4.303156e-05 -1.685114e-05 -2.089464e-08
4.303156e-05 -1.685624e-05 -1.242721e-08
4.302358e-05 -1.685443e-05 7.317458e-09
4.261656e-05 -1.666369e-05 -3.176959e-08
4.263184e-05 -1.666732e-05 -3.028305e-08
4.302710e-05 -1.684984e-05 -1.703654e-08
4.302710e-05 -1.685507e-05 -1.006182e-08
4.302107e-05 -1.685402e-05 4.922839e-09
4.262390e-05 -1.666610e-05 -3.018528e-08
4.263882e-05 -1.666972e-05 -2.862529e-08
4.302360e-05 -1.684892e-05 -1.308042e-08
4.302360e-05 -1.685428e-05 -7.636893e-09
4.301956e-05 -1.685401e-05 2.472951e-09
4.263092e-05 -1.666851e-05 -2.852798e-08
4.264538e-05 -1.667211e-05 -2.690302e-08
4.302108e-05 -1.684838e-05 -9.026718e-09
4.302109e-05 -1.685387e-05 -5.153156e-09
4.301909e-05 -1.685438e-05 -3.017498e-11
4.263758e-05 -1.667092e-05 -2.680854e-08
4.265151e-05 -1.667447e-05 -2.512309e-08
4.264388e-05 -1.667331e-05 -2.503827e-08
4.265719e-05 -1.667677e-05 -2.330011e-08
4.302404e-05 -1.685790e-05 -7.821416e-09
4.301910e-05 -1.685422e-05 -1.503502e-11
4.264979e-05 -1.667565e-05 -2.323173e-08
4.266242e-05 -1.667899e-05 -2.145414e-08
4.302132e-05 -1.685018e-05 8.128470e-09
4.302788e-05 -1.685986e-05 -1.049175e-08
4.302131e-05 -1.685633e-05 -5.182604e-09
4.265529e-05 -1.667793e-05 -2.140676e-08
4.266719e-05 -1.668111e-05 -1.960666e-08
4.302406e-05 -1.685164e-05 1.263182e-08
4.303284e-05 -1.686220e-05 -1.318303e-08
4.266039e-05 -1.668012e-05 -1.958254e-08
4.267152e-05 -1.668312e-05 -1.777778e-08
4.302789e-05 -1.685351e-05 1.720541e-08
4.302790e-05 -1.685969e-05 1.084561e-08
4.303892e-05 -1.686490e-05 -1.588214e-08
4.266507e-05 -1.668219e-05 -1.777746e-08
4.267159e-05 -1.668315e-05 1.777915e-08
4.267542e-05 -1.668501e-05 -1.598487e-08
4.303285e-05 -1.685577e-05 2.183606e-08
4.303285e-05 -1.686202e-05 1.364238e-08
4.304611e-05 -1.686793e-05 -1.857371e-08
4.266933e-05 -1.668415e-05 -1.600771e-08
4.267548e-05 -1.668503e-05 1.598666e-08
4.267889e-05 -1.668676e-05 -1.424211e-08
4.303892e-05 -1.685842e-05 2.650670e-08
4.303893e-05 -1.686472e-05 1.644899e-08
4.305442e-05 -1.687128e-05 -2.124095e-08
4.267318e-05 -1.668597e-05 -1.428668e-08
4.268195e-05 -1.668838e-05 -1.256061e-08
4.304611e-05 -1.686144e-05 3.119611e-08
4.304612e-05 -1.686775e-05 1.924972e-08
4.306383e-05 -1.687490e-05 -2.386751e-08
4.267663e-05 -1.668766e-05 -1.262498e-08
4.268469e-05 -1.668988e-05 1.095131e-08
4.305442e-05 -1.686480e-05 3.587942e-08
4.305443e-05 -1.687110e-05 2.202729e-08
4.307432e-05 -1.687876e-05 -2.644014e-08
4.267968e-05 -1.668921e-05 -1.103066e-08
4.268693e-05 -1.669121e-05 -9.412783e-09
4.306382e-05 -1.686848e-05 4.052956e-08
4.306384e-05 -1.687472e-05 2.476471e-08
4.308585e-05 -1.688282e-05 -2.895115e-08
4.268237e-05 -1.669063e-05 -9.509644e-09
4.268888e-05 -1.669243e-05 -7.957020e-09
4.307430e-05 -1.687243e-05 4.512001e-08
4.307432e-05 -1.687858e-05 2.744793e-08
4.309839e-05 -1.688707e-05 -3.139832e-08
4.268469e-05 -1.669191e-05 -8.066145e-09
4.269051e-05 -1.669352e-05 -6.584521e-09
4.308583e-05 -1.687662e-05 4.962800e-08
4.308585e-05 -1.688265e-05 3.006841e-08
4.311193e-05 -1.689150e-05 -3.378164e-08
4.268667e-05 -1.669306e-05 -6.703043e-09
4.269182e-05 -1.669450e-05 -5.297307e-09
4.309837e-05 -1.688102e-05 5.403590e-08
4.309840e-05 -1.688691e-05 3.262307e-08
4.312643e-05 -1.689610e-05 -3.609883e-08
4.268834e-05 -1.669409e-05 -5.422243e-09
4.269284e-05 -1.669536e-05 -4.096652e-09
4.268970e-05 -1.669501e-05 -4.224939e-09
4.269358e-05 -1.669612e-05 -2.983317e-09
4.317551e-05 -1.691111e-05 -4.255016e-08
4.312644e-05 -1.689595e-05 3.752921e-08
4.269078e-05 -1.669581e-05 -3.111811e-09
4.269408e-05 -1.669678e-05 -1.957715e-09
4.315821e-05 -1.690072e-05 7.031220e-08
4.315469e-05 -1.690314e-05 3.991208e-08
4.319360e-05 -1.691655e-05 -4.448115e-08
4.269160e-05 -1.669652e-05 -2.083215e-09
4.269435e-05 -1.669735e-05 -1.020017e-09
4.317546e-05 -1.690625e-05 7.392243e-08
4.317552e-05 -1.691097e-05 4.425379e-08
4.321248e-05 -1.692222e-05 -4.627529e-08
4.269217e-05 -1.669712e-05 -1.139286e-09
4.269441e-05 -1.669783e-05 -1.702612e-10
4.319355e-05 -1.691203e-05 7.729669e-08
4.323209e-05 -1.692812e-05 -4.791905e-08
4.269253e-05 -1.669765e-05 -2.800155e-10
4.269428e-05 -1.669825e-05 5.915983e-10
4.321242e-05 -1.691807e-05 8.041300e-08
4.325235e-05 -1.693423e-05 -4.940138e-08
4.269268e-05 -1.669809e-05 4.946668e-10
4.269398e-05 -1.669859e-05 1.265645e-09
4.323202e-05 -1.692436e-05 8.325351e-08
4.323210e-05 -1.692802e-05 4.983852e-08
4.327322e-05 -1.694055e-05 -5.071362e-08
4.269266e-05 -1.669846e-05 1.184864e-09
4.325229e-05 -1.693089e-05 8.580425e-08
4.325237e-05 -1.693415e-05 5.137866e-08
4.329460e-05 -1.694706e-05 -5.184917e-08
4.269248e-05 -1.669877e-05 1.790693e-09
4.269359e-05 -1.669890e-05 -1.849187e-09
4.327315e-05 -1.693762e-05 8.805461e-08
4.327324e-05 -1.694048e-05 5.274149e-08
4.331644e-05 -1.695372e-05 -5.280316e-08
4.269216e-05 -1.669903e-05 2.312251e-09
4.269302e-05 -1.669914e-05 -2.347891e-09
4.329453e-05 -1.694455e-05 8.999678e-08
4.329462e-05 -1.694699e-05 5.392038e-08
4.333865e-05 -1.696052e-05 -5.357203e-08
4.269172e-05 -1.669924e-05 2.749623e-09
4.269147e-05 -1.669858e-05 -1.457437e-09
4.269157e-05 -1.669949e-05 -3.082681e-09
4.331637e-05 -1.695165e-05 9.162514e-08
4.331646e-05 -1.695367e-05 5.491046e-08
4.336115e-05 -1.696743e-05 -5.415326e-08
4.269119e-05 -1.669941e-05 3.102866e-09
4.269067e-05 -1.669961e-05 3.321664e-09
4.333858e-05 -1.695889e-05 9.293570e-08
4.333867e-05 -1.696048e-05 5.570818e-08
4.338388e-05 -1.697443e-05 -5.454505e-08
4.269058e-05 -1.669956e-05 3.372019e-09
4.268979e-05 -1.669973e-05 3.470455e-09
4.336108e-05 -1.696624e-05 9.392569e-08
4.336118e-05 -1.696741e-05 5.631104e-08
4.340674e-05 -1.698148e-05 -5.474615e-08
4.268992e-05 -1.669968e-05 3.557113e-09
4.268889e-05 -1.669983e-05 3.531899e-09
4.338380e-05 -1.697368e-05 9.459315e-08
4.338390e-05 -1.697442e-05 5.671725e-08
4.342965e-05 -1.698855e-05 -5.475567e-08
4.268922e-05 -1.669979e-05 3.658164e-09
4.268798e-05 -1.669994e-05 3.506084e-09
4.268850e-05 -1.669989e-05 3.675202e-09
4.268709e-05 -1.670005e-05 3.393170e-09
4.349794e-05 -1.700958e-05 -5.362908e-08
4.340676e-05 -1.698148e-05 5.692561e-08
4.268779e-05 -1.669999e-05 3.608297e-09
4.268623e-05 -1.670018e-05 3.193426e-09
4.347527e-05 -1.700366e-05 9.401545e-08
4.352028e-05 -1.701643e-05 -5.286706e-08
4.347534e-05 -1.700263e-05 -5.419761e-08
4.268711e-05 -1.670011e-05 3.457572e-09
4.268543e-05 -1.670033e-05 2.907291e-09
4.349788e-05 -1.701106e-05 9.305552e-08
4.349797e-05 -1.700963e-05 5.576623e-08
4.354227e-05 -1.702313e-05 -5.191117e-08
4.268648e-05 -1.670024e-05 3.223265e-09
4.268471e-05 -1.670050e-05 2.535451e-09
4.352022e-05 -1.701835e-05 9.176812e-08
4.352031e-05 -1.701649e-05 5.497572e-08
4.356383e-05 -1.702967e-05 -5.076105e-08
4.268591e-05 -1.670039e-05 2.905777e-09
4.268408e-05 -1.670071e-05 2.078945e-09
4.354221e-05 -1.702551e-05 9.015267e-08
4.354230e-05 -1.702321e-05 5.398421e-08
4.358487e-05 -1.703601e-05 -4.941631e-08
4.268542e-05 -1.670058e-05 2.505747e-09
4.268357e-05 -1.670097e-05 1.539274e-09
4.356377e-05 -1.703250e-05 8.820855e-08
4.356386e-05 -1.702976e-05 5.279132e-08
4.360531e-05 -1.704212e-05 -4.787659e-08
4.268505e-05 -1.670081e-05 2.024155e-09
4.268320e-05 -1.670127e-05 9.185657e-10
4.358482e-05 -1.703928e-05 8.593506e-08
4.358490e-05 -1.703611e-05 5.139665e-08
4.362507e-05 -1.704795e-05 -4.614153e-08
4.268480e-05 -1.670108e-05 1.462436e-09
4.268298e-05 -1.670162e-05 2.197372e-10
4.360527e-05 -1.704584e-05 8.333148e-08
4.360535e-05 -1.704223e-05 4.979981e-08
4.364407e-05 -1.705349e-05 -4.421085e-08
4.268469e-05 -1.670141e-05 8.226235e-10
4.268294e-05 -1.670203e-05 -5.533323e-10
4.362504e-05 -1.705213e-05 8.039710e-08
4.362511e-05 -1.704808e-05 4.800042e-08
4.366222e-05 -1.705869e-05 -4.208437e-08
4.268475e-05 -1.670179e-05 1.075121e-10
4.268300e-05 -1.670205e-05 5.556179e-10
4.268310e-05 -1.670250e-05 -1.395651e-09
4.364404e-05 -1.705811e-05 7.713122e-08
4.364411e-05 -1.705363e-05 4.599818e-08
4.367943e-05 -1.706353e-05 -3.976216e-08
4.268498e-05 -1.670223e-05 -6.791980e-10
4.268315e-05 -1.670252e-05 1.397745e-09
4.268346e-05 -1.670303e-05 -2.301046e-09
4.366220e-05 -1.706377e-05 7.353325e-08
4.366226e-05 -1.705884e-05 4.379289e-08
4.369563e-05 -1.706797e-05 -3.724461e-08
4.268541e-05 -1.670273e-05 -1.532774e-09
4.268405e-05 -1.670362e-05 -3.262272e-09
4.367942e-05 -1.706906e-05 6.960277e-08
4.367947e-05 -1.706369e-05 4.138457e-08
4.371073e-05 -1.707198e-05 -3.453262e-08
4.268604e-05 -1.670329e-05 -2.447456e-09
4.268488e-05 -1.670427e-05 -4.271449e-09
4.369562e-05 -1.707396e-05 6.533975e-08
4.369567e-05 -1.706815e-05 3.877356e-08
4.372464e-05 -1.707554e-05 -3.162788e-08
4.268690e-05 -1.670391e-05 -3.416590e-09
4.268596e-05 -1.670498e-05 -5.320981e-09
4.371073e-05 -1.707842e-05 6.074465e-08
4.371077e-05 -1.707217e-05 3.596073e-08
4.373729e-05 -1.707861e-05 -2.853312e-08
4.268798e-05 -1.670460e-05 -4.433111e-09
4.268730e-05 -1.670574e-05 -6.404992e-09
4.268929e-05 -1.670533e-05 -5.490278e-09
4.268891e-05 -1.670654e-05 -7.520457e-09
4.376683e-05 -1.708468e-05 -1.816191e-08
4.373733e-05 -1.707883e-05 2.973733e-08
4.269085e-05 -1.670611e-05 -6.582469e-09
4.269079e-05 -1.670740e-05 -8.666398e-09
4.375849e-05 -1.709140e-05 3.909187e-08
4.377364e-05 -1.708560e-05 -1.437262e-08
4.375846e-05 -1.708319e-05 -2.179261e-08
4.269266e-05 -1.670694e-05 -7.705332e-09
4.269295e-05 -1.670832e-05 -9.841330e-09
4.376687e-05 -1.709329e-05 3.288986e-08
4.376689e-05 -1.708493e-05 1.897339e-08
4.377880e-05 -1.708596e-05 -1.044070e-08
4.269472e-05 -1.670783e-05 -8.854937e-09
4.269540e-05 -1.670930e-05 -1.104118e-08
4.377368e-05 -1.709461e-05 2.639508e-08
4.378227e-05 -1.708577e-05 -6.386424e-09
4.269704e-05 -1.670877e-05 -1.002652e-08
4.269814e-05 -1.671036e-05 -1.225924e-08
4.377885e-05 -1.709533e-05 1.962728e-08
4.377886e-05 -1.708624e-05 1.095280e-08
4.378401e-05 -1.708504e-05 -2.234388e-09
4.269964e-05 -1.670978e-05 -1.121399e-08
4.270118e-05 -1.671150e-05 -1.348769e-08
4.378233e-05 -1.709546e-05 1.261259e-08
4.378234e-05 -1.708606e-05 6.738089e-09
4.378396e-05 -1.708380e-05 1.987387e-09
4.270252e-05 -1.671087e-05 -1.241038e-08
4.378407e-05 -1.709501e-05 5.384203e-09
4.378407e-05 -1.708534e-05 2.418987e-09
4.378213e-05 -1.708210e-05 6.249754e-09
4.270568e-05 -1.671205e-05 -1.360872e-08
4.378403e-05 -1.709399e-05 -2.017689e-09
4.378403e-05 -1.708411e-05 -1.975787e-09
4.377849e-05 -1.707996e-05 1.052643e-08
4.270912e-05 -1.671333e-05 -1.480263e-08
4.378220e-05 -1.709243e-05 -9.547505e-09
4.378220e-05 -1.708241e-05 -6.416110e-09
4.377307e-05 -1.707745e-05 1.479892e-08
4.271285e-05 -1.671470e-05 -1.598672e-08
4.271632e-05 -1.671702e-05 1.836314e-08
4.377856e-05 -1.709038e-05 -1.715799e-08
4.377856e-05 -1.708028e-05 -1.087446e-08
4.376586e-05 -1.707458e-05 1.905891e-08
4.271686e-05 -1.671617e-05 -1.715666e-08
4.272075e-05 -1.671863e-05 -1.954927e-08
4.377313e-05 -1.708789e-05 -2.480583e-08
4.377313e-05 -1.707776e-05 -1.533092e-08
4.375688e-05 -1.707138e-05 2.330500e-08
4.272115e-05 -1.671775e-05 -1.830908e-08
4.272081e-05 -1.671865e-05 1.954739e-08
4.272551e-05 -1.672037e-05 -2.071296e-08
4.376592e-05 -1.708501e-05 -3.245621e-08
4.376593e-05 -1.707489e-05 -1.977573e-08
4.374614e-05 -1.706782e-05 2.753542e-08
4.272572e-05 -1.671943e-05 -1.944151e-08
4.272557e-05 -1.672039e-05 2.071102e-08
4.273055e-05 -1.672220e-05 -2.185414e-08
4.375693e-05 -1.708175e-05 -4.008151e-08
4.375695e-05 -1.707169e-05 -2.420605e-08
4.373364e-05 -1.706390e-05 3.174102e-08
4.273056e-05 -1.672121e-05 -2.055215e-08
4.273585e-05 -1.672414e-05 -2.297151e-08
4.273567e-05 -1.672310e-05 -2.163975e-08
4.274142e-05 -1.672618e-05 -2.406419e-08
4.368567e-05 -1.704948e-05 4.398464e-08
4.274104e-05 -1.672509e-05 -2.270350e-08
4.274723e-05 -1.672831e-05 -2.513162e-08
4.370338e-05 -1.706436e-05 -6.966059e-08
4.370343e-05 -1.705505e-05 -4.159738e-08
4.366632e-05 -1.704370e-05 4.784882e-08
4.274668e-05 -1.672718e-05 -2.374287e-08
4.275330e-05 -1.673055e-05 -2.617345e-08
4.368566e-05 -1.705874e-05 -7.660858e-08
4.368573e-05 -1.704976e-05 -4.574975e-08
4.364537e-05 -1.703739e-05 5.156206e-08
4.275256e-05 -1.672937e-05 -2.475754e-08
4.275961e-05 -1.673288e-05 -2.718951e-08
4.366629e-05 -1.705256e-05 -8.329357e-08
4.366637e-05 -1.704396e-05 -4.976730e-08
4.362290e-05 -1.703058e-05 5.510482e-08
4.275869e-05 -1.673165e-05 -2.574736e-08
4.276615e-05 -1.673530e-05 -2.817970e-08
4.364533e-05 -1.704583e-05 -8.968354e-08
4.364542e-05 -1.703765e-05 -5.362576e-08
4.359899e-05 -1.702325e-05 5.846187e-08
4.276506e-05 -1.673403e-05 -2.671226e-08
4.277299e-05 -1.673783e-05 2.914198e-08
4.362285e-05 -1.703855e-05 -9.575368e-08
4.362295e-05 -1.703081e-05 -5.730540e-08
4.357372e-05 -1.701542e-05 6.162182e-08
4.277166e-05 -1.673649e-05 -2.765223e-08
4.277993e-05 -1.674041e-05 -3.008243e-08
4.359893e-05 -1.703075e-05 -1.014855e-07
4.359904e-05 -1.702347e-05 -6.079087e-08
4.354718e-05 -1.700713e-05 6.457647e-08
4.277849e-05 -1.673905e-05 -2.856730e-08
4.278721e-05 -1.674312e-05 3.099298e-08
4.357364e-05 -1.702243e-05 -1.068657e-07
4.357377e-05 -1.701563e-05 -6.407074e-08
4.351946e-05 -1.699839e-05 6.732012e-08
4.278555e-05 -1.674170e-05 -2.945750e-08
4.279459e-05 -1.674587e-05 -3.188178e-08
4.354709e-05 -1.701363e-05 -1.118852e-07
4.354722e-05 -1.700732e-05 -6.713682e-08
4.349064e-05 -1.698923e-05 6.984904e-08
4.279282e-05 -1.674443e-05 -3.032290e-08
4.280223e-05 -1.674872e-05 -3.274278e-08
4.351935e-05 -1.700438e-05 -1.165382e-07
4.351950e-05 -1.699856e-05 -6.998345e-08
4.346083e-05 -1.697968e-05 7.216093e-08
4.280030e-05 -1.674724e-05 -3.116352e-08
4.349052e-05 -1.699472e-05 -1.208213e-07
4.349068e-05 -1.698939e-05 -7.260697e-08
4.343012e-05 -1.696979e-05 7.425454e-08
4.280799e-05 -1.675013e-05 -3.197940e-08
4.346070e-05 -1.698466e-05 -1.247325e-07
4.346087e-05 -1.697983e-05 -7.500513e-08
4.339859e-05 -1.695958e-05 7.612933e-08
4.281587e-05 -1.675310e-05 -3.277056e-08
4.342997e-05 -1.697426e-05 -1.282713e-07
4.343015e-05 -1.696993e-05 -7.717672e-08
4.336635e-05 -1.694909e-05 7.778526e-08
4.282395e-05 -1.675615e-05 -3.353702e-08
4.282640e-05 -1.675776e-05 3.516937e-08
4.283475e-05 -1.676089e-05 -3.592953e-08
4.283221e-05 -1.675927e-05 -3.427880e-08
4.283481e-05 -1.676091e-05 3.592749e-08
4.284334e-05 -1.676411e-05 -3.666196e-08
4.326627e-05 -1.691631e-05 8.144379e-08
4.284065e-05 -1.676245e-05 -3.499589e-08
4.283730e-05 -1.676181e-05 2.023209e-08
4.285210e-05 -1.676740e-05 -3.736873e-08
4.329992e-05 -1.692985e-05 -1.387127e-07
4.331444e-05 -1.693307e-05 -8.037656e-08
4.323210e-05 -1.690506e-05 8.222876e-08
4.284927e-05 -1.676571e-05 -3.568828e-08
4.286102e-05 -1.677075e-05 -3.804983e-08
4.326608e-05 -1.691823e-05 -1.403999e-07
4.326630e-05 -1.691637e-05 -8.463410e-08
4.319767e-05 -1.689372e-05 8.279753e-08
4.285806e-05 -1.676903e-05 -3.635597e-08
4.287011e-05 -1.677417e-05 -3.870534e-08
4.323190e-05 -1.690648e-05 -1.417203e-07
4.323212e-05 -1.690511e-05 -8.544852e-08
4.316308e-05 -1.688231e-05 8.315073e-08
4.286701e-05 -1.677242e-05 -3.699900e-08
4.287935e-05 -1.677765e-05 -3.933532e-08
4.319747e-05 -1.689464e-05 -1.426749e-07
4.319770e-05 -1.689375e-05 -8.603876e-08
4.312843e-05 -1.687087e-05 8.328898e-08
4.287612e-05 -1.677587e-05 -3.761739e-08
4.288874e-05 -1.678118e-05 -3.993993e-08
4.316288e-05 -1.688273e-05 -1.432652e-07
4.316311e-05 -1.688233e-05 -8.640549e-08
4.309379e-05 -1.685945e-05 8.321290e-08
4.288537e-05 -1.677938e-05 -3.821122e-08
4.289827e-05 -1.678478e-05 -4.051941e-08
4.312822e-05 -1.687079e-05 -1.434921e-07
4.312845e-05 -1.687088e-05 -8.654934e-08
4.305925e-05 -1.684806e-05 8.292311e-08
4.289478e-05 -1.678294e-05 -3.878062e-08
4.290800e-05 -1.678844e-05 4.107211e-08
4.309358e-05 -1.685887e-05 -1.433567e-07
4.309381e-05 -1.685943e-05 -8.647093e-08
4.302492e-05 -1.683675e-05 8.242033e-08
4.290432e-05 -1.678656e-05 -3.932582e-08
4.291774e-05 -1.679212e-05 -4.160454e-08
4.305905e-05 -1.684699e-05 -1.428600e-07
4.305927e-05 -1.684804e-05 -8.617091e-08
4.299086e-05 -1.682556e-05 8.170536e-08
4.291399e-05 -1.679024e-05 -3.984715e-08
4.292766e-05 -1.679587e-05 -4.211144e-08
4.302471e-05 -1.683519e-05 -1.420031e-07
4.302494e-05 -1.683671e-05 -8.564996e-08
4.295718e-05 -1.681451e-05 8.077926e-08
4.292380e-05 -1.679396e-05 -4.034510e-08
4.299066e-05 -1.682350e-05 -1.407869e-07
4.292396e-05 -1.680363e-05 7.964341e-08
4.293373e-05 -1.679774e-05 -4.082038e-08
4.295699e-05 -1.681195e-05 -1.392128e-07
4.289127e-05 -1.679297e-05 7.829975e-08
4.294377e-05 -1.680156e-05 -4.127393e-08
4.295818e-05 -1.680744e-05 4.350070e-08
4.292377e-05 -1.680059e-05 -1.372824e-07
4.292397e-05 -1.680355e-05 -8.277091e-08
4.285922e-05 -1.678254e-05 7.675093e-08
4.295393e-05 -1.680543e-05 -4.170702e-08
4.296849e-05 -1.681136e-05 -4.392852e-08
4.289109e-05 -1.678944e-05 -1.349979e-07
4.289129e-05 -1.679287e-05 -8.137724e-08
4.282787e-05 -1.677238e-05 7.500071e-08
4.296420e-05 -1.680935e-05 -4.212120e-08
4.297895e-05 -1.681535e-05 -4.433929e-08
4.297457e-05 -1.681332e-05 -4.251834e-08
4.298952e-05 -1.681939e-05 -4.473718e-08
4.273888e-05 -1.674369e-05 6.860317e-08
4.282789e-05 -1.677225e-05 -7.795430e-08
4.298505e-05 -1.681734e-05 -4.290052e-08
4.298958e-05 -1.681941e-05 4.473562e-08
4.300017e-05 -1.682348e-05 -4.512425e-08
4.276747e-05 -1.674752e-05 -1.223983e-07
4.278676e-05 -1.675742e-05 -7.250264e-08
4.271115e-05 -1.673479e-05 6.612002e-08
4.299562e-05 -1.682140e-05 -4.326987e-08
4.300024e-05 -1.682350e-05 4.512278e-08
4.301092e-05 -1.682762e-05 -4.550183e-08
4.273873e-05 -1.673784e-05 -1.184195e-07
4.273889e-05 -1.674353e-05 -7.131057e-08
4.268448e-05 -1.672622e-05 6.348454e-08
4.300629e-05 -1.682552e-05 -4.362825e-08
4.302175e-05 -1.683182e-05 -4.587041e-08
4.271101e-05 -1.672852e-05 -1.141338e-07
4.271115e-05 -1.673461e-05 -6.872937e-08
4.265895e-05 -1.671798e-05 6.071531e-08
4.301706e-05 -1.682969e-05 -4.397711e-08
4.303268e-05 -1.683606e-05 -4.623029e-08
4.268436e-05 -1.671956e-05 -1.095608e-07
4.268449e-05 -1.672603e-05 -6.598816e-08
4.263460e-05 -1.671006e-05 5.783372e-08
4.302793e-05 -1.683391e-05 -4.431767e-08
4.304368e-05 -1.684035e-05 -4.658231e-08
4.265884e-05 -1.671098e-05 -1.047253e-07
4.265896e-05 -1.671778e-05 -6.310585e-08
4.261147e-05 -1.670245e-05 5.486259e-08
4.303888e-05 -1.683818e-05 -4.465122e-08
4.305477e-05 -1.684469e-05 -4.692818e-08
4.263450e-05 -1.670275e-05 -9.965708e-08
4.263461e-05 -1.670986e-05 -6.010431e-08
4.258957e-05 -1.669510e-05 5.182364e-08
4.304993e-05 -1.684249e-05 -4.497942e-08
4.261137e-05 -1.669488e-05 -9.439077e-08
4.261147e-05 -1.670223e-05 -5.700707e-08
4.256894e-05 -1.668800e-05 4.873386e-08
4.306106e-05 -1.684686e-05 -4.530429e-08
4.258949e-05 -1.668733e-05 -8.896302e-08
4.258958e-05 -1.669488e-05 -5.383674e-08
4.254957e-05 -1.668112e-05 4.560260e-08
4.307228e-05 -1.685126e-05 -4.562796e-08
4.256887e-05 -1.668008e-05 -8.340901e-08
4.256894e-05 -1.668778e-05 -5.061138e-08
4.253148e-05 -1.667445e-05 4.243218e-08
4.308359e-05 -1.685570e-05 -4.595248e-08
4.310002e-05 -1.686247e-05 4.829503e-08
4.254951e-05 -1.667308e-05 -7.775831e-08
4.251468e-05 -1.666801e-05 3.922253e-08
4.309498e-05 -1.686018e-05 -4.627960e-08
4.311146e-05 -1.686698e-05 -4.864380e-08
4.253143e-05 -1.666633e-05 -7.203369e-08
4.249919e-05 -1.666180e-05 3.597696e-08
4.310646e-05 -1.686470e-05 -4.661078e-08
4.312305e-05 -1.687155e-05 -4.899716e-08
4.251464e-05 -1.665983e-05 -6.625523e-08
4.251468e-05 -1.666778e-05 -4.067943e-08
4.248503e-05 -1.665588e-05 3.270615e-08
4.311802e-05 -1.686925e-05 -4.694715e-08
4.313473e-05 -1.687616e-05 -4.935675e-08
4.312967e-05 -1.687384e-05 -4.728958e-08
4.314649e-05 -1.688080e-05 -4.972324e-08
4.245059e-05 -1.664015e-05 2.293689e-08
4.248504e-05 -1.665565e-05 -3.388243e-08
4.314141e-05 -1.687846e-05 -4.763870e-08
4.315835e-05 -1.688548e-05 -5.009709e-08
4.246073e-05 -1.663708e-05 -4.316510e-08
4.247340e-05 -1.664723e-05 -2.694442e-08
4.244176e-05 -1.663569e-05 1.976652e-08
4.315324e-05 -1.688312e-05 -4.799495e-08
4.317031e-05 -1.689020e-05 -5.047863e-08
4.245059e-05 -1.663239e-05 -3.756827e-08
4.245060e-05 -1.663993e-05 -2.371212e-08
4.243421e-05 -1.663166e-05 1.667038e-08
4.316517e-05 -1.688782e-05 -4.835863e-08
4.318235e-05 -1.689495e-05 -5.086806e-08
4.244176e-05 -1.662814e-05 -3.210348e-08
4.244177e-05 -1.663548e-05 -2.041619e-08
4.242792e-05 -1.662806e-05 1.366249e-08
4.317718e-05 -1.689255e-05 -4.872995e-08
4.318242e-05 -1.689497e-05 5.086741e-08
4.319450e-05 -1.689974e-05 -5.126555e-08
4.243422e-05 -1.662435e-05 -2.679333e-08
4.243423e-05 -1.663146e-05 -1.719921e-08
4.242283e-05 -1.662489e-05 1.075375e-08
4.318930e-05 -1.689732e-05 -4.910906e-08
4.319457e-05 -1.689977e-05 5.126487e-08
4.320674e-05 -1.690457e-05 -5.167116e-08
4.242793e-05 -1.662100e-05 -2.165523e-08
4.242793e-05 -1.662787e-05 -1.407536e-08
4.241892e-05 -1.662215e-05 7.952350e-09
4.320151e-05 -1.690213e-05 -4.949602e-08
4.321909e-05 -1.690944e-05 -5.208496e-08
4.242285e-05 -1.661810e-05 -1.670212e-08
4.242285e-05 -1.662471e-05 -1.105559e-08
4.241613e-05 -1.661983e-05 5.264203e-09
4.321382e-05 -1.690698e-05 -4.989086e-08
4.241894e-05 -1.661565e-05 -1.194328e-08
4.241442e-05 -1.661793e-05 2.693466e-09
4.322624e-05 -1.691187e-05 -5.029364e-08
4.241615e-05 -1.661362e-05 -7.385084e-09
4.241615e-05 -1.661967e-05 -5.358746e-09
4.241373e-05 -1.661641e-05 2.429452e-10
4.323875e-05 -1.691680e-05 -5.070439e-08
4.241444e-05 -1.661200e-05 -3.031763e-09
4.241444e-05 -1.661777e-05 -2.691692e-09
4.241403e-05 -1.661528e-05 -2.085549e-09
4.325138e-05 -1.692178e-05 -5.112310e-08
4.326959e-05 -1.692936e-05 5.382212e-08
4.241376e-05 -1.661078e-05 1.114059e-09
4.241526e-05 -1.661451e-05 -4.290922e-09
4.326411e-05 -1.692679e-05 -5.154982e-08
4.328240e-05 -1.693441e-05 -5.427808e-08
4.241405e-05 -1.660994e-05 5.050887e-09
4.241736e-05 -1.661408e-05 -6.372568e-09
4.327696e-05 -1.693185e-05 -5.198457e-08
4.329540e-05 -1.693954e-05 -5.474177e-08
4.241528e-05 -1.660946e-05 8.777989e-09
4.241528e-05 -1.661437e-05 4.552864e-09
4.242030e-05 -1.661397e-05 -8.330206e-09
4.328991e-05 -1.693695e-05 -5.242739e-08
4.330851e-05 -1.694471e-05 -5.521393e-08
4.241738e-05 -1.660932e-05 1.229512e-08
4.241739e-05 -1.661395e-05 6.711778e-09
4.242401e-05 -1.661417e-05 -1.016376e-08
4.330298e-05 -1.694210e-05 -5.287834e-08
4.332173e-05 -1.694992e-05 -5.569463e-08
4.331617e-05 -1.694729e-05 -5.333747e-08
4.333508e-05 -1.695519e-05 -5.618391e-08
4.243931e-05 -1.661641e-05 -1.492046e-08
4.242403e-05 -1.661406e-05 1.064348e-08
4.332948e-05 -1.695253e-05 -5.380486e-08
4.334855e-05 -1.696050e-05 -5.668184e-08
4.243358e-05 -1.661182e-05 2.426700e-08
4.243416e-05 -1.661481e-05 1.334517e-08
4.244563e-05 -1.661763e-05 -1.625835e-08
4.334290e-05 -1.695781e-05 -5.428058e-08
4.336215e-05 -1.696586e-05 -5.718844e-08
4.243933e-05 -1.661311e-05 2.673707e-08
4.243934e-05 -1.661632e-05 1.557656e-08
4.245247e-05 -1.661906e-05 -1.747252e-08
4.335645e-05 -1.696315e-05 -5.476469e-08
4.337586e-05 -1.697127e-05 -5.770369e-08
4.244565e-05 -1.661463e-05 2.899839e-08
4.244566e-05 -1.661755e-05 1.696407e-08
4.245979e-05 -1.662067e-05 -1.856301e-08
4.337013e-05 -1.696853e-05 -5.525723e-08
4.338971e-05 -1.697673e-05 -5.822749e-08
4.245249e-05 -1.661635e-05 3.105102e-08
4.245250e-05 -1.661899e-05 1.822326e-08
4.246754e-05 -1.662245e-05 -1.952984e-08
4.338393e-05 -1.697397e-05 -5.575819e-08
4.340369e-05 -1.698224e-05 -5.875961e-08
4.245981e-05 -1.661825e-05 3.289500e-08
4.245982e-05 -1.662062e-05 1.935419e-08
4.247566e-05 -1.662438e-05 -2.037303e-08
4.339786e-05 -1.697945e-05 -5.626749e-08
4.340376e-05 -1.698226e-05 5.875893e-08
4.246756e-05 -1.662032e-05 3.453027e-08
4.246757e-05 -1.662241e-05 2.035687e-08
4.248410e-05 -1.662644e-05 -2.109264e-08
4.341193e-05 -1.698498e-05 -5.678496e-08
4.341787e-05 -1.698782e-05 5.929890e-08
4.343204e-05 -1.699341e-05 -5.984680e-08
4.247568e-05 -1.662254e-05 3.595673e-08
4.247569e-05 -1.662434e-05 2.123132e-08
4.249282e-05 -1.662860e-05 -2.168881e-08
4.342613e-05 -1.699057e-05 -5.731018e-08
4.341969e-05 -1.698849e-05 3.334686e-08
4.248412e-05 -1.662489e-05 3.717431e-08
4.250176e-05 -1.663085e-05 -2.216181e-08
4.344046e-05 -1.699621e-05 -5.784245e-08
4.249284e-05 -1.662734e-05 3.818296e-08
4.251087e-05 -1.663317e-05 -2.251213e-08
4.345493e-05 -1.700189e-05 -5.838076e-08
4.347567e-05 -1.701056e-05 6.151648e-08
4.250178e-05 -1.662988e-05 3.898274e-08
4.250179e-05 -1.663083e-05 2.308618e-08
4.252011e-05 -1.663554e-05 -2.274061e-08
4.346953e-05 -1.700763e-05 -5.892351e-08
4.349040e-05 -1.701634e-05 -6.207584e-08
4.251089e-05 -1.663249e-05 3.957396e-08
4.251091e-05 -1.663316e-05 2.344923e-08
4.252941e-05 -1.663794e-05 -2.284854e-08
4.348427e-05 -1.701342e-05 -5.946840e-08
4.350534e-05 -1.702219e-05 -6.262856e-08
4.252012e-05 -1.663515e-05 3.995727e-08
4.252014e-05 -1.663554e-05 2.368574e-08
4.253875e-05 -1.664037e-05 -2.283788e-08
4.349915e-05 -1.701925e-05 -6.001225e-08
4.352042e-05 -1.702807e-05 -6.316978e-08
4.252943e-05 -1.663785e-05 4.013384e-08
4.252945e-05 -1.663795e-05 2.379700e-08
4.254805e-05 -1.664279e-05 -2.271145e-08
4.351417e-05 -1.702511e-05 -6.055080e-08
4.353564e-05 -1.703399e-05 -6.369230e-08
4.352931e-05 -1.703102e-05 -6.107854e-08
4.355099e-05 -1.703992e-05 -6.418761e-08
4.257537e-05 -1.664998e-05 -2.168390e-08
4.254809e-05 -1.664282e-05 2.365237e-08
4.354457e-05 -1.703695e-05 -6.158870e-08
4.356647e-05 -1.704587e-05 -6.464641e-08
4.256643e-05 -1.664862e-05 3.882976e-08
4.256110e-05 -1.664646e-05 2.280828e-08
4.258413e-05 -1.665233e-05 -2.114842e-08
4.355996e-05 -1.704290e-05 -6.207344e-08
4.358208e-05 -1.705181e-05 -6.505974e-08
4.257539e-05 -1.665124e-05 3.802865e-08
4.257541e-05 -1.665003e-05 2.257810e-08
4.259266e-05 -1.665465e-05 -2.053223e-08
4.357544e-05 -1.704885e-05 -6.252441e-08
4.359779e-05 -1.705774e-05 -6.542079e-08
4.258416e-05 -1.665382e-05 3.705599e-08
4.260092e-05 -1.665695e-05 -1.984683e-08
4.359102e-05 -1.705480e-05 -6.293364e-08
4.361360e-05 -1.706364e-05 -6.572611e-08
4.259269e-05 -1.665635e-05 3.592576e-08
4.260890e-05 -1.665924e-05 -1.910391e-08
4.360668e-05 -1.706072e-05 -6.329452e-08
4.362956e-05 -1.706953e-05 6.597068e-08
4.260095e-05 -1.665884e-05 3.465462e-08
4.260097e-05 -1.665702e-05 2.065407e-08
4.261657e-05 -1.666153e-05 -1.831366e-08
4.362240e-05 -1.706661e-05 -6.360190e-08
4.364545e-05 -1.707535e-05 -6.616372e-08
4.260893e-05 -1.666129e-05 3.326114e-08
4.260895e-05 -1.665931e-05 1.987448e-08
4.262392e-05 -1.666382e-05 -1.748288e-08
4.363817e-05 -1.707246e-05 -6.385100e-08
4.261660e-05 -1.666371e-05 3.176421e-08
4.261662e-05 -1.666160e-05 1.904450e-08
4.263093e-05 -1.666614e-05 -1.661433e-08
4.365398e-05 -1.707828e-05 -6.403590e-08
4.262395e-05 -1.666613e-05 3.018082e-08
4.262396e-05 -1.666391e-05 1.817152e-08
4.263759e-05 -1.666847e-05 -1.570821e-08
4.366981e-05 -1.708407e-05 -6.414912e-08
4.367758e-05 -1.708695e-05 6.633583e-08
4.263097e-05 -1.666854e-05 2.852443e-08
4.263097e-05 -1.666622e-05 1.725887e-08
4.264388e-05 -1.667080e-05 -1.476518e-08
4.368565e-05 -1.708983e-05 -6.418228e-08
4.369365e-05 -1.709270e-05 6.630543e-08
4.370964e-05 -1.709839e-05 -6.618909e-08
4.263763e-05 -1.667094e-05 2.680591e-08
4.263764e-05 -1.666855e-05 1.630735e-08
4.264979e-05 -1.667311e-05 -1.378905e-08
4.370148e-05 -1.709556e-05 -6.412706e-08
4.372567e-05 -1.710407e-05 -6.596835e-08
4.264392e-05 -1.667333e-05 2.503655e-08
4.264393e-05 -1.667088e-05 1.531819e-08
4.265530e-05 -1.667538e-05 -1.278774e-08
4.371729e-05 -1.710126e-05 -6.397597e-08
4.374165e-05 -1.710972e-05 -6.564169e-08
4.264983e-05 -1.667568e-05 2.323088e-08
4.264984e-05 -1.667319e-05 1.429578e-08
4.266039e-05 -1.667758e-05 -1.177211e-08
4.373304e-05 -1.710693e-05 -6.372277e-08
4.375754e-05 -1.711532e-05 -6.520388e-08
4.265534e-05 -1.667795e-05 2.140673e-08
4.265535e-05 -1.667546e-05 1.324863e-08
4.266507e-05 -1.667970e-05 -1.075404e-08
4.374871e-05 -1.711256e-05 -6.336248e-08
4.377332e-05 -1.712087e-05 -6.465093e-08
4.376429e-05 -1.711814e-05 -6.289124e-08
4.378895e-05 -1.712636e-05 -6.397989e-08
4.267663e-05 -1.668540e-05 -7.791669e-09
4.266512e-05 -1.667979e-05 1.112651e-08
4.377973e-05 -1.712367e-05 -6.230620e-08
4.380442e-05 -1.713179e-05 -6.318861e-08
4.267322e-05 -1.668599e-05 1.428881e-08
4.266922e-05 -1.668281e-05 8.876370e-09
4.267968e-05 -1.668705e-05 -6.862453e-09
4.379502e-05 -1.712913e-05 -6.160529e-08
4.381969e-05 -1.713713e-05 -6.227559e-08
4.267667e-05 -1.668768e-05 1.262739e-08
4.267667e-05 -1.668548e-05 8.043752e-09
4.268237e-05 -1.668857e-05 -5.972058e-09
4.381012e-05 -1.713452e-05 -6.078707e-08
4.383472e-05 -1.714238e-05 -6.123979e-08
4.267973e-05 -1.668923e-05 1.103326e-08
4.267973e-05 -1.668712e-05 7.078233e-09
4.268469e-05 -1.668996e-05 -5.124207e-09
4.382501e-05 -1.713982e-05 -5.985053e-08
4.384958e-05 -1.714755e-05 6.007462e-08
4.268241e-05 -1.669065e-05 9.512372e-09
4.268667e-05 -1.669123e-05 -4.321571e-09
4.383965e-05 -1.714503e-05 -5.879502e-08
4.386399e-05 -1.715256e-05 -5.879724e-08
4.268473e-05 -1.669193e-05 8.068947e-09
4.268834e-05 -1.669238e-05 -3.566014e-09
4.385402e-05 -1.715013e-05 -5.762008e-08
4.268672e-05 -1.669308e-05 6.705891e-09
4.268672e-05 -1.669130e-05 4.440437e-09
4.268970e-05 -1.669341e-05 -2.858787e-09
4.386808e-05 -1.715510e-05 -5.632545e-08
4.268838e-05 -1.669411e-05 5.425114e-09
4.268838e-05 -1.669244e-05 3.656528e-09
4.269078e-05 -1.669433e-05 -2.200686e-09
4.388180e-05 -1.715995e-05 -5.491094e-08
4.390548e-05 -1.716689e-05 5.419533e-08
4.268974e-05 -1.669503e-05 4.227814e-09
4.268974e-05 -1.669347e-05 2.922888e-09
4.269160e-05 -1.669515e-05 -1.592195e-09
4.389516e-05 -1.716466e-05 -5.337643e-08
4.391842e-05 -1.717132e-05 -5.241988e-08
4.269082e-05 -1.669583e-05 3.114685e-09
4.269082e-05 -1.669439e-05 2.240298e-09
4.269217e-05 -1.669588e-05 -1.033588e-09
4.390812e-05 -1.716921e-05 -5.172182e-08
4.393099e-05 -1.717560e-05 -5.051378e-08
4.269164e-05 -1.669653e-05 2.086084e-09
4.269164e-05 -1.669520e-05 1.609222e-09
4.269253e-05 -1.669652e-05 -5.249803e-10
4.392066e-05 -1.717359e-05 -4.994703e-08
4.393108e-05 -1.717563e-05 5.050795e-08
4.394310e-05 -1.717971e-05 -4.848278e-08
4.269221e-05 -1.669714e-05 1.142143e-09
4.269221e-05 -1.669593e-05 1.029909e-09
4.269268e-05 -1.669708e-05 -6.640952e-11
4.393273e-05 -1.717779e-05 -4.805201e-08
4.394319e-05 -1.717974e-05 4.847694e-08
4.395470e-05 -1.718361e-05 -4.632679e-08
4.269257e-05 -1.669767e-05 2.828634e-10
4.269257e-05 -1.669656e-05 5.024727e-10
4.269266e-05 -1.669757e-05 3.421373e-10
4.394432e-05 -1.718180e-05 -4.603665e-08
4.396577e-05 -1.718731e-05 -4.404570e-08
4.269273e-05 -1.669811e-05 -4.918254e-10
4.269273e-05 -1.669712e-05 2.693729e-11
4.269248e-05 -1.669800e-05 7.007056e-10
4.395539e-05 -1.718561e-05 -4.390085e-08
4.397627e-05 -1.719078e-05 -4.163940e-08
4.396591e-05 -1.718921e-05 -4.164451e-08
4.398617e-05 -1.719402e-05 -3.910779e-08
4.269119e-05 -1.669899e-05 1.477025e-09
4.269270e-05 -1.669761e-05 -3.967189e-10
4.397585e-05 -1.719257e-05 -3.926752e-08
4.399545e-05 -1.719702e-05 -3.645077e-08
4.269176e-05 -1.669926e-05 -2.746798e-09
4.269177e-05 -1.669872e-05 -1.356940e-09
4.269058e-05 -1.669925e-05 1.636146e-09
4.398517e-05 -1.719570e-05 -3.676975e-08
4.400407e-05 -1.719976e-05 -3.366830e-08
4.269123e-05 -1.669943e-05 -3.100040e-09
4.269123e-05 -1.669901e-05 -1.573610e-09
4.268992e-05 -1.669948e-05 1.745510e-09
4.399386e-05 -1.719857e-05 -3.415109e-08
4.401210e-05 -1.720226e-05 3.075460e-08
4.269062e-05 -1.669958e-05 -3.369195e-09
4.269062e-05 -1.669927e-05 -1.738636e-09
4.268922e-05 -1.669971e-05 1.805160e-09
4.400187e-05 -1.720118e-05 -3.141150e-08
4.401922e-05 -1.720441e-05 -2.772729e-08
4.268996e-05 -1.669970e-05 -3.554285e-09
4.268996e-05 -1.669950e-05 -1.852056e-09
4.268850e-05 -1.669993e-05 1.815161e-09
4.400918e-05 -1.720352e-05 -2.855097e-08
4.268926e-05 -1.669980e-05 -3.655331e-09
4.268926e-05 -1.669972e-05 -1.913917e-09
4.268779e-05 -1.670015e-05 1.775627e-09
4.401575e-05 -1.720557e-05 -2.556967e-08
4.268854e-05 -1.669991e-05 -3.672369e-09
4.268854e-05 -1.669994e-05 -1.924280e-09
4.268711e-05 -1.670038e-05 1.686731e-09
4.402156e-05 -1.720732e-05 -2.246796e-08
4.403634e-05 -1.720920e-05 1.787681e-08
4.268783e-05 -1.670001e-05 -3.605460e-09
4.268783e-05 -1.670015e-05 -1.883247e-09
4.268648e-05 -1.670062e-05 1.548755e-09
4.402657e-05 -1.720876e-05 -1.924655e-08
4.404028e-05 -1.721012e-05 -1.435693e-08
4.268715e-05 -1.670012e-05 -3.454739e-09
4.268715e-05 -1.670038e-05 -1.790993e-09
4.268591e-05 -1.670089e-05 1.362126e-09
4.403075e-05 -1.720988e-05 -1.590665e-08
4.404344e-05 -1.721074e-05 -1.071354e-08
4.268651e-05 -1.670025e-05 -3.220438e-09
4.268651e-05 -1.670062e-05 -1.647784e-09
4.268542e-05 -1.670120e-05 1.127485e-09
4.403409e-05 -1.721067e-05 -1.245018e-08
4.404571e-05 -1.721102e-05 -6.956719e-09
4.268594e-05 -1.670041e-05 -2.902964e-09
4.268594e-05 -1.670089e-05 -1.454047e-09
4.268505e-05 -1.670154e-05 8.457549e-10
4.403654e-05 -1.721112e-05 -8.880032e-09
4.404705e-05 -1.721095e-05 -3.092614e-09
4.268546e-05 -1.670060e-05 -2.502962e-09
4.268546e-05 -1.670119e-05 -1.210413e-09
4.268480e-05 -1.670192e-05 5.182224e-10
4.403808e-05 -1.721122e-05 -5.200439e-09
4.404743e-05 -1.721053e-05 8.704145e-10
4.268509e-05 -1.670083e-05 -2.021410e-09
4.268509e-05 -1.670153e-05 -9.177949e-10
4.268469e-05 -1.670235e-05 1.466364e-10
4.403869e-05 -1.721098e-05 -1.417344e-09
4.404683e-05 -1.720975e-05 4.921306e-09
4.268484e-05 -1.670110e-05 -1.459755e-09
4.268484e-05 -1.670191e-05 -5.774830e-10
4.268475e-05 -1.670284e-05 -2.666970e-10
4.403834e-05 -1.721038e-05 2.461169e-09
4.404693e-05 -1.720979e-05 -4.925751e-09
4.404523e-05 -1.720863e-05 9.045990e-09
4.403702e-05 -1.720943e-05 6.424496e-09
4.404533e-05 -1.720867e-05 -9.049939e-09
4.404260e-05 -1.720717e-05 1.322738e-08
4.268604e-05 -1.670461e-05 -1.724797e-09
4.268473e-05 -1.670234e-05 -1.912376e-10
4.403471e-05 -1.720813e-05 1.045929e-08
4.403893e-05 -1.720538e-05 1.744602e-08
4.268544e-05 -1.670274e-05 1.534840e-09
4.268690e-05 -1.670531e-05 -2.270102e-09
4.268541e-05 -1.670397e-05 -1.206252e-09
4.403139e-05 -1.720649e-05 1.454961e-08
4.403432e-05 -1.720330e-05 -2.168383e-08
4.268608e-05 -1.670331e-05 2.449256e-09
4.268608e-05 -1.670458e-05 1.757061e-09
4.268798e-05 -1.670605e-05 -2.838041e-09
4.402708e-05 -1.720452e-05 1.867774e-08
4.402846e-05 -1.720086e-05 2.591749e-08
4.268693e-05 -1.670393e-05 3.418097e-09
4.268693e-05 -1.670528e-05 2.325718e-09
4.268929e-05 -1.670684e-05 -3.425440e-09
4.402176e-05 -1.720225e-05 2.282581e-08
4.268801e-05 -1.670461e-05 4.434296e-09
4.268801e-05 -1.670602e-05 2.918361e-09
4.269085e-05 -1.670767e-05 -4.030618e-09
4.401544e-05 -1.719970e-05 2.697804e-08
4.268933e-05 -1.670535e-05 5.491124e-09
4.268933e-05 -1.670681e-05 3.531611e-09
4.269266e-05 -1.670854e-05 -4.653189e-09
4.400813e-05 -1.719687e-05 3.112205e-08
4.400501e-05 -1.719202e-05 -3.854119e-08
4.269089e-05 -1.670613e-05 6.582975e-09
4.269089e-05 -1.670763e-05 4.163573e-09
4.269472e-05 -1.670945e-05 -5.293135e-09
4.399983e-05 -1.719378e-05 3.524765e-08
4.399499e-05 -1.718846e-05 4.270692e-08
4.269269e-05 -1.670696e-05 7.705495e-09
4.269269e-05 -1.670850e-05 4.813639e-09
4.269705e-05 -1.671042e-05 -5.949682e-09
4.399056e-05 -1.719041e-05 3.934357e-08
4.398404e-05 -1.718464e-05 4.682990e-08
4.269475e-05 -1.670784e-05 8.854756e-09
4.269475e-05 -1.670942e-05 5.481581e-09
4.269964e-05 -1.671145e-05 -6.620584e-09
4.398030e-05 -1.718675e-05 4.339526e-08
4.397208e-05 -1.718051e-05 5.089178e-08
4.269708e-05 -1.670878e-05 1.002600e-08
4.269708e-05 -1.671038e-05 6.166403e-09
4.270252e-05 -1.671254e-05 -7.302232e-09
4.396906e-05 -1.718279e-05 4.738546e-08
4.395914e-05 -1.717605e-05 5.487276e-08
4.269968e-05 -1.670980e-05 1.121316e-08
4.269968e-05 -1.671141e-05 6.865644e-09
4.270568e-05 -1.671372e-05 -7.990338e-09
4.395686e-05 -1.717850e-05 5.129629e-08
4.394523e-05 -1.717127e-05 5.875496e-08
4.270255e-05 -1.671089e-05 1.240927e-08
4.270255e-05 -1.671251e-05 7.575499e-09
4.270912e-05 -1.671498e-05 -8.680572e-09
4.394371e-05 -1.717389e-05 5.511121e-08
4.393040e-05 -1.716617e-05 6.252342e-08
4.270571e-05 -1.671207e-05 1.360735e-08
4.271285e-05 -1.671634e-05 -9.369003e-09
4.392964e-05 -1.716895e-05 5.881609e-08
4.391466e-05 -1.716073e-05 6.616623e-08
4.270915e-05 -1.671334e-05 1.480106e-08
4.271686e-05 -1.671779e-05 -1.005229e-08
4.391466e-05 -1.716368e-05 6.239957e-08
4.389807e-05 -1.715498e-05 6.967434e-08
4.271288e-05 -1.671471e-05 1.598500e-08
4.271288e-05 -1.671630e-05 9.724623e-09
4.272115e-05 -1.671934e-05 -1.072774e-08
4.389882e-05 -1.715808e-05 6.585291e-08
4.388065e-05 -1.714892e-05 7.304109e-08
4.388213e-05 -1.715217e-05 6.916969e-08
4.273568e-05 -1.672460e-05 -1.268872e-08
4.272119e-05 -1.671931e-05 1.113558e-08
4.386465e-05 -1.714595e-05 7.234532e-08
4.384348e-05 -1.713591e-05 7.933315e-08
4.273060e-05 -1.672123e-05 2.055011e-08
4.272947e-05 -1.672178e-05 1.167487e-08
4.274105e-05 -1.672655e-05 -1.331671e-08
4.384639e-05 -1.713944e-05 7.537671e-08
4.384357e-05 -1.713594e-05 -7.932800e-08
4.273571e-05 -1.672312e-05 2.163770e-08
4.273571e-05 -1.672457e-05 1.317052e-08
4.274668e-05 -1.672861e-05 -1.393074e-08
4.382740e-05 -1.713264e-05 7.826188e-08
4.382389e-05 -1.712901e-05 -8.224795e-08
4.274108e-05 -1.672511e-05 2.270144e-08
4.274109e-05 -1.672653e-05 1.382195e-08
4.275257e-05 -1.673076e-05 -1.453045e-08
4.380771e-05 -1.712557e-05 8.099963e-08
4.381457e-05 -1.712570e-05 -4.650722e-08
4.378255e-05 -1.711438e-05 -8.762929e-08
4.274671e-05 -1.672720e-05 2.374080e-08
4.274672e-05 -1.672858e-05 1.445883e-08
4.275870e-05 -1.673301e-05 -1.511562e-08
4.378737e-05 -1.711825e-05 8.358928e-08
4.376087e-05 -1.710668e-05 9.009495e-08
4.275260e-05 -1.672938e-05 2.475548e-08
4.275260e-05 -1.673074e-05 1.508082e-08
4.276507e-05 -1.673535e-05 -1.568614e-08
4.376641e-05 -1.711068e-05 8.603063e-08
4.373871e-05 -1.709878e-05 9.240173e-08
4.275873e-05 -1.673167e-05 2.574530e-08
4.275873e-05 -1.673298e-05 1.568770e-08
4.277167e-05 -1.673779e-05 -1.624194e-08
4.374486e-05 -1.710289e-05 8.832372e-08
4.371603e-05 -1.709069e-05 9.455502e-08
4.276510e-05 -1.673404e-05 2.671020e-08
4.276510e-05 -1.673533e-05 1.627936e-08
4.277850e-05 -1.674031e-05 -1.678300e-08
4.372277e-05 -1.709488e-05 9.046870e-08
4.369287e-05 -1.708240e-05 9.655508e-08
4.277170e-05 -1.673651e-05 2.765017e-08
4.278556e-05 -1.674292e-05 -1.730932e-08
4.370018e-05 -1.708668e-05 9.246586e-08
4.366925e-05 -1.707393e-05 9.840223e-08
4.277853e-05 -1.673907e-05 2.856524e-08
4.277854e-05 -1.674029e-05 1.741686e-08
4.279283e-05 -1.674562e-05 -1.782093e-08
4.367711e-05 -1.707829e-05 9.431553e-08
4.364522e-05 -1.706530e-05 1.000968e-07
4.278559e-05 -1.674172e-05 2.945545e-08
4.280031e-05 -1.674839e-05 -1.831783e-08
4.365361e-05 -1.706973e-05 9.601805e-08
4.362082e-05 -1.705653e-05 1.016391e-07
4.279286e-05 -1.674445e-05 3.032084e-08
4.280800e-05 -1.675125e-05 -1.880006e-08
4.362972e-05 -1.706102e-05 9.757378e-08
4.359608e-05 -1.704762e-05 1.030295e-07
4.280034e-05 -1.674726e-05 3.116146e-08
4.281588e-05 -1.675419e-05 -1.926762e-08
4.360547e-05 -1.705217e-05 9.898306e-08
4.357104e-05 -1.703860e-05 1.042683e-07
4.280803e-05 -1.675015e-05 3.197734e-08
4.280804e-05 -1.675123e-05 1.950861e-08
4.282396e-05 -1.675720e-05 -1.972053e-08
4.358091e-05 -1.704320e-05 1.002462e-07
4.354582e-05 -1.702950e-05 -1.053504e-07
4.355606e-05 -1.703411e-05 1.013635e-07
4.352021e-05 -1.702026e-05 1.062923e-07
4.284929e-05 -1.676666e-05 -2.099146e-08
4.281592e-05 -1.675417e-05 1.999347e-08
4.353096e-05 -1.702493e-05 1.023353e-07
4.284069e-05 -1.676247e-05 3.499380e-08
4.284071e-05 -1.676343e-05 2.135703e-08
4.285807e-05 -1.676995e-05 -2.138588e-08
4.350566e-05 -1.701567e-05 1.031619e-07
4.284931e-05 -1.676573e-05 3.568620e-08
4.284933e-05 -1.676665e-05 2.178121e-08
4.286702e-05 -1.677331e-05 -2.176574e-08
4.348018e-05 -1.700634e-05 1.038435e-07
4.344269e-05 -1.699225e-05 -1.081939e-07
4.285810e-05 -1.676905e-05 3.635391e-08
4.285811e-05 -1.676994e-05 2.219023e-08
4.287613e-05 -1.677672e-05 -2.213110e-08
4.345457e-05 -1.699696e-05 1.043805e-07
4.341653e-05 -1.698280e-05 1.085356e-07
4.286705e-05 -1.677244e-05 3.699693e-08
4.286706e-05 -1.677329e-05 2.258414e-08
4.288539e-05 -1.678019e-05 -2.248205e-08
4.342885e-05 -1.698754e-05 1.047733e-07
4.341662e-05 -1.698283e-05 -1.085302e-07
4.339041e-05 -1.697335e-05 1.087232e-07
4.287616e-05 -1.677589e-05 3.761532e-08
4.287617e-05 -1.677671e-05 2.296300e-08
4.289479e-05 -1.678373e-05 -2.281874e-08
4.340308e-05 -1.697809e-05 1.050225e-07
4.339049e-05 -1.697338e-05 -1.087178e-07
4.336428e-05 -1.696390e-05 1.087631e-07
4.288541e-05 -1.677940e-05 3.820916e-08
4.288543e-05 -1.678019e-05 2.332690e-08
4.290434e-05 -1.678731e-05 -2.314138e-08
4.337727e-05 -1.696863e-05 1.051285e-07
4.333817e-05 -1.695446e-05 1.086567e-07
4.289482e-05 -1.678296e-05 3.877856e-08
4.291401e-05 -1.679095e-05 -2.345030e-08
4.335147e-05 -1.695918e-05 1.050924e-07
4.331211e-05 -1.694503e-05 1.084058e-07
4.290436e-05 -1.678658e-05 3.932377e-08
4.292382e-05 -1.679465e-05 -2.374593e-08
4.332571e-05 -1.694973e-05 1.049155e-07
4.328616e-05 -1.693564e-05 1.080130e-07
4.291404e-05 -1.679026e-05 3.984511e-08
4.293374e-05 -1.679839e-05 -2.402887e-08
4.330003e-05 -1.694032e-05 1.045995e-07
4.326033e-05 -1.692629e-05 1.074817e-07
4.292384e-05 -1.679398e-05 4.034309e-08
4.294379e-05 -1.680219e-05 -2.429990e-08
4.327445e-05 -1.693094e-05 1.041469e-07
4.323466e-05 -1.691698e-05 1.068168e-07
4.293377e-05 -1.679776e-05 4.081839e-08
4.293379e-05 -1.679839e-05 2.493011e-08
4.295395e-05 -1.680603e-05 -2.455998e-08
4.324902e-05 -1.692161e-05 1.035612e-07
4.320918e-05 -1.690774e-05 1.060243e-07
4.294381e-05 -1.680158e-05 4.127199e-08
4.294383e-05 -1.680218e-05 2.521075e-08
4.296422e-05 -1.680993e-05 -2.481026e-08
4.322375e-05 -1.691233e-05 1.028467e-07
4.318393e-05 -1.689856e-05 1.051120e-07
4.295397e-05 -1.680545e-05 4.170513e-08
4.297459e-05 -1.681387e-05 -2.505204e-08
4.319869e-05 -1.690312e-05 1.020094e-07
4.296424e-05 -1.680937e-05 4.211938e-08
4.298507e-05 -1.681787e-05 -2.528661e-08
4.317385e-05 -1.689397e-05 1.010567e-07
4.314926e-05 -1.688490e-05 9.999723e-08
4.301708e-05 -1.683017e-05 -2.595625e-08
4.298511e-05 -1.681787e-05 2.623083e-08
4.312494e-05 -1.687589e-05 9.884115e-08
4.308578e-05 -1.686254e-05 -1.004672e-07
4.300634e-05 -1.682554e-05 4.362677e-08
4.300139e-05 -1.682394e-05 2.538558e-08
4.302795e-05 -1.683438e-05 -2.616920e-08
4.310091e-05 -1.686695e-05 9.759887e-08
4.306196e-05 -1.685367e-05 9.911444e-08
4.301711e-05 -1.682971e-05 4.397576e-08
4.301713e-05 -1.683017e-05 2.692157e-08
4.303891e-05 -1.683865e-05 -2.637718e-08
4.307718e-05 -1.685807e-05 9.628015e-08
4.303856e-05 -1.684488e-05 9.769378e-08
4.302797e-05 -1.683393e-05 4.431643e-08
4.302799e-05 -1.683438e-05 2.714110e-08
4.304995e-05 -1.684296e-05 -2.658065e-08
4.305377e-05 -1.684925e-05 9.489291e-08
4.301553e-05 -1.683615e-05 9.620956e-08
4.303893e-05 -1.683820e-05 4.465008e-08
4.303895e-05 -1.683865e-05 2.735553e-08
4.306109e-05 -1.684732e-05 -2.678053e-08
4.303068e-05 -1.684048e-05 9.344335e-08
4.299289e-05 -1.682750e-05 9.466461e-08
4.304997e-05 -1.684251e-05 4.497837e-08
4.307231e-05 -1.685172e-05 -2.697808e-08
4.300795e-05 -1.683178e-05 9.193741e-08
4.297064e-05 -1.681894e-05 9.306575e-08
4.306111e-05 -1.684688e-05 4.530332e-08
4.306113e-05 -1.684732e-05 2.777175e-08
4.308361e-05 -1.685616e-05 -2.717460e-08
4.298557e-05 -1.682317e-05 9.038242e-08
4.294880e-05 -1.681048e-05 9.142320e-08
4.307233e-05 -1.685128e-05 4.562707e-08
4.309500e-05 -1.686065e-05 -2.737136e-08
4.296357e-05 -1.681465e-05 8.878759e-08
4.294887e-05 -1.681051e-05 -9.142299e-08
4.292738e-05 -1.680215e-05 8.974838e-08
4.308363e-05 -1.685572e-05 4.595165e-08
4.308365e-05 -1.685616e-05 2.817898e-08
4.310648e-05 -1.686517e-05 -2.756945e-08
4.294196e-05 -1.680624e-05 8.716313e-08
4.292745e-05 -1.680217e-05 -8.974849e-08
4.290637e-05 -1.679394e-05 8.805220e-08
4.309502e-05 -1.686020e-05 4.627882e-08
4.311804e-05 -1.686973e-05 -2.776976e-08
4.292074e-05 -1.679796e-05 8.551898e-08
4.293341e-05 -1.680433e-05 -5.046156e-08
4.288578e-05 -1.678587e-05 8.634418e-08
4.310650e-05 -1.686472e-05 4.661004e-08
4.312970e-05 -1.687433e-05 -2.797301e-08
4.289993e-05 -1.678982e-05 8.386394e-08
4.286561e-05 -1.677794e-05 8.463214e-08
4.311806e-05 -1.686927e-05 4.694643e-08
4.311809e-05 -1.686973e-05 2.879502e-08
4.314144e-05 -1.687896e-05 -2.817971e-08
4.287953e-05 -1.678181e-05 8.220545e-08
4.312972e-05 -1.687386e-05 4.728888e-08
4.312974e-05 -1.687433e-05 2.900558e-08
4.315327e-05 -1.688363e-05 -2.839029e-08
4.285954e-05 -1.677396e-05 8.054937e-08
4.314146e-05 -1.687848e-05 4.763801e-08
4.314148e-05 -1.687896e-05 2.921978e-08
4.316519e-05 -1.688834e-05 -2.860500e-08
4.283996e-05 -1.676625e-05 7.890013e-08
4.315329e-05 -1.688314e-05 4.799426e-08
4.315331e-05 -1.688363e-05 2.943803e-08
4.317721e-05 -1.689309e-05 -2.882406e-08
4.282079e-05 -1.675871e-05 7.726095e-08
4.280202e-05 -1.675131e-05 7.563415e-08
4.278912e-05 -1.674778e-05 -7.784664e-08
4.277092e-05 -1.674059e-05 7.617901e-08
4.321385e-05 -1.690755e-05 -2.950846e-08
4.317725e-05 -1.689309e-05 2.988771e-08
4.278366e-05 -1.674407e-05 7.402129e-08
4.277099e-05 -1.674062e-05 -7.618025e-08
4.275319e-05 -1.673358e-05 7.452781e-08
4.320155e-05 -1.690215e-05 4.949530e-08
4.319590e-05 -1.690026e-05 2.881483e-08
4.322626e-05 -1.691245e-05 -2.974587e-08
4.276569e-05 -1.673698e-05 7.242335e-08
4.275327e-05 -1.673361e-05 -7.452907e-08
4.273586e-05 -1.672672e-05 7.289246e-08
4.321387e-05 -1.690700e-05 4.989017e-08
4.323878e-05 -1.691739e-05 -2.998799e-08
4.274812e-05 -1.673005e-05 7.084092e-08
4.273593e-05 -1.672675e-05 -7.289373e-08
4.271891e-05 -1.672002e-05 7.127332e-08
4.322628e-05 -1.691189e-05 5.029297e-08
4.322631e-05 -1.691245e-05 3.084358e-08
4.325141e-05 -1.692238e-05 -3.023481e-08
4.273095e-05 -1.672327e-05 6.927433e-08
4.271899e-05 -1.672005e-05 -7.127460e-08
4.270235e-05 -1.671347e-05 6.967055e-08
4.323880e-05 -1.691682e-05 5.070370e-08
4.326414e-05 -1.692740e-05 -3.048639e-08
4.271416e-05 -1.671665e-05 6.772371e-08
4.270243e-05 -1.671349e-05 -6.967183e-08
4.268617e-05 -1.670706e-05 6.808418e-08
4.325142e-05 -1.692180e-05 5.112242e-08
4.325145e-05 -1.692237e-05 3.135055e-08
4.327698e-05 -1.693247e-05 -3.074272e-08
4.269775e-05 -1.671017e-05 6.618907e-08
4.268625e-05 -1.670709e-05 -6.808546e-08
4.267037e-05 -1.670081e-05 6.651416e-08
4.326416e-05 -1.692681e-05 5.154913e-08
4.328994e-05 -1.693758e-05 -3.100386e-08
4.268173e-05 -1.670384e-05 6.467032e-08
4.267044e-05 -1.670083e-05 -6.651544e-08
4.265494e-05 -1.669470e-05 6.496039e-08
4.327700e-05 -1.693187e-05 5.198388e-08
4.330301e-05 -1.694274e-05 -3.126982e-08
4.266607e-05 -1.669765e-05 6.316737e-08
4.265501e-05 -1.669472e-05 -6.496168e-08
4.263988e-05 -1.668873e-05 6.342277e-08
4.328996e-05 -1.693697e-05 5.242670e-08
4.328998e-05 -1.693758e-05 3.214794e-08
4.331620e-05 -1.694794e-05 -3.154064e-08
4.265079e-05 -1.669162e-05 6.168008e-08
4.263995e-05 -1.668876e-05 -6.342406e-08
4.262518e-05 -1.668291e-05 6.190116e-08
4.330303e-05 -1.694212e-05 5.287765e-08
4.330306e-05 -1.694274e-05 3.242370e-08
4.332951e-05 -1.695320e-05 -3.181635e-08
4.263588e-05 -1.668572e-05 6.020831e-08
4.262525e-05 -1.668293e-05 -6.190245e-08
4.261084e-05 -1.667722e-05 6.039544e-08
4.331621e-05 -1.694731e-05 5.333678e-08
4.331624e-05 -1.694794e-05 3.270449e-08
4.334293e-05 -1.695849e-05 -3.209699e-08
4.262133e-05 -1.667997e-05 5.875194e-08
4.261092e-05 -1.667725e-05 -6.039673e-08
4.332952e-05 -1.695255e-05 5.380418e-08
4.332955e-05 -1.695319e-05 3.299036e-08
4.335649e-05 -1.696384e-05 -3.238255e-08
4.260714e-05 -1.667436e-05 5.731084e-08
4.259693e-05 -1.667171e-05 -5.890679e-08
4.334295e-05 -1.695783e-05 5.427990e-08
4.334298e-05 -1.695849e-05 3.328133e-08
4.337016e-05 -1.696924e-05 -3.267303e-08
4.259330e-05 -1.666889e-05 5.588491e-08
4.258330e-05 -1.666630e-05 -5.743251e-08
4.335650e-05 -1.696317e-05 5.476401e-08
4.335653e-05 -1.696384e-05 3.357741e-08
4.338397e-05 -1.697468e-05 -3.296835e-08
4.257981e-05 -1.666355e-05 5.447405e-08
4.257002e-05 -1.666103e-05 -5.597382e-08
4.255701e-05 -1.665587e-05 5.452931e-08
4.337017e-05 -1.696855e-05 5.525655e-08
4.337020e-05 -1.696923e-05 3.387859e-08
4.339790e-05 -1.698018e-05 -3.326835e-08
4.256667e-05 -1.665835e-05 5.307817e-08
4.255709e-05 -1.665590e-05 -5.453061e-08
4.254441e-05 -1.665087e-05 5.310151e-08
4.255387e-05 -1.665328e-05 5.169719e-08
4.254449e-05 -1.665089e-05 -5.310281e-08
4.253215e-05 -1.664600e-05 5.168903e-08
4.344049e-05 -1.699697e-05 -3.419289e-08
4.340555e-05 -1.698292e-05 3.304141e-08
4.254141e-05 -1.664835e-05 5.033105e-08
4.253223e-05 -1.664602e-05 -5.169034e-08
4.252023e-05 -1.664126e-05 5.029179e-08
4.342617e-05 -1.699059e-05 5.730943e-08
4.342620e-05 -1.699131e-05 3.513173e-08
4.345496e-05 -1.700266e-05 -3.450687e-08
4.252928e-05 -1.664354e-05 4.897967e-08
4.252030e-05 -1.664128e-05 -5.029310e-08
4.250863e-05 -1.663665e-05 4.890969e-08
4.344050e-05 -1.699623e-05 5.784171e-08
4.344054e-05 -1.699696e-05 3.545525e-08
4.346957e-05 -1.700840e-05 -3.482172e-08
4.251748e-05 -1.663887e-05 4.764297e-08
4.250870e-05 -1.663667e-05 -4.891100e-08
4.249735e-05 -1.663216e-05 4.754261e-08
4.345497e-05 -1.700191e-05 5.837999e-08
4.345501e-05 -1.700265e-05 3.578127e-08
4.348431e-05 -1.701419e-05 -3.513544e-08
4.250601e-05 -1.663432e-05 4.632086e-08
4.249743e-05 -1.663219e-05 -4.754393e-08
4.248640e-05 -1.662781e-05 4.619039e-08
4.346958e-05 -1.700765e-05 5.892266e-08
4.349919e-05 -1.702002e-05 -3.544539e-08
4.249487e-05 -1.662990e-05 4.501323e-08
4.248648e-05 -1.662783e-05 -4.619171e-08
4.247576e-05 -1.662357e-05 4.485283e-08
4.348432e-05 -1.701344e-05 5.946744e-08
4.351420e-05 -1.702588e-05 -3.574820e-08
4.248404e-05 -1.662561e-05 4.371993e-08
4.247584e-05 -1.662360e-05 -4.485414e-08
4.246544e-05 -1.661946e-05 4.352963e-08
4.349920e-05 -1.701927e-05 6.001115e-08
4.349923e-05 -1.702001e-05 3.675733e-08
4.352935e-05 -1.703176e-05 -3.603971e-08
4.247353e-05 -1.662143e-05 4.244077e-08
4.246552e-05 -1.661949e-05 -4.353094e-08
4.245543e-05 -1.661547e-05 4.222043e-08
4.351421e-05 -1.702514e-05 6.054950e-08
4.351425e-05 -1.702587e-05 3.707307e-08
4.354462e-05 -1.703767e-05 -3.631510e-08
4.246333e-05 -1.661739e-05 4.117546e-08
4.245551e-05 -1.661550e-05 -4.222173e-08
4.244573e-05 -1.661161e-05 4.092472e-08
4.352935e-05 -1.703104e-05 6.107700e-08
4.352939e-05 -1.703176e-05 3.737761e-08
4.356000e-05 -1.704358e-05 -3.656920e-08
4.245344e-05 -1.661346e-05 3.992366e-08
4.244580e-05 -1.661163e-05 -4.092600e-08
4.354462e-05 -1.703697e-05 6.158687e-08
4.354466e-05 -1.703766e-05 3.766602e-08
4.357549e-05 -1.704948e-05 -3.679716e-08
4.244386e-05 -1.660965e-05 3.868488e-08
4.243640e-05 -1.660789e-05 -3.964310e-08
4.356000e-05 -1.704292e-05 6.207128e-08
4.356004e-05 -1.704357e-05 3.793299e-08
4.359107e-05 -1.705537e-05 -3.699526e-08
4.243458e-05 -1.660597e-05 3.745849e-08
4.242730e-05 -1.660426e-05 -3.837219e-08
4.357549e-05 -1.704887e-05 6.252188e-08
4.357553e-05 -1.704948e-05 3.817343e-08
4.360672e-05 -1.706122e-05 -3.716158e-08
4.242559e-05 -1.660240e-05 3.624370e-08
4.241849e-05 -1.660075e-05 -3.711224e-08
4.240991e-05 -1.659734e-05 3.586087e-08
4.359107e-05 -1.705482e-05 6.293073e-08
4.359111e-05 -1.705536e-05 3.838340e-08
4.362245e-05 -1.706703e-05 -3.729567e-08
4.241691e-05 -1.659895e-05 3.503953e-08
4.240998e-05 -1.659737e-05 -3.586203e-08
4.240169e-05 -1.659407e-05 3.461912e-08
4.360673e-05 -1.706074e-05 6.329123e-08
4.363822e-05 -1.707280e-05 -3.739740e-08
4.240852e-05 -1.659563e-05 3.384488e-08
4.240176e-05 -1.659410e-05 -3.462023e-08
4.239376e-05 -1.659092e-05 3.338442e-08
4.362245e-05 -1.706663e-05 6.359823e-08
4.365402e-05 -1.707853e-05 -3.746560e-08
4.240042e-05 -1.659242e-05 3.265851e-08
4.239383e-05 -1.659095e-05 -3.338549e-08
4.238611e-05 -1.658790e-05 3.215567e-08
4.363822e-05 -1.707248e-05 6.384694e-08
4.363826e-05 -1.707281e-05 3.881478e-08
4.366985e-05 -1.708421e-05 -3.749732e-08
4.239262e-05 -1.658933e-05 3.147925e-08
4.238619e-05 -1.658792e-05 -3.215668e-08
4.237876e-05 -1.658499e-05 3.093220e-08
4.238510e-05 -1.658636e-05 3.030604e-08
4.237883e-05 -1.658502e-05 -3.093316e-08
4.237168e-05 -1.658220e-05 2.971375e-08
4.371733e-05 -1.710103e-05 -3.732600e-08
4.365407e-05 -1.707854e-05 3.888976e-08
4.237788e-05 -1.658352e-05 2.913810e-08
4.237176e-05 -1.658223e-05 -2.971466e-08
4.236489e-05 -1.657954e-05 2.850013e-08
4.370153e-05 -1.709558e-05 6.412168e-08
4.373308e-05 -1.710655e-05 -3.716345e-08
4.370153e-05 -1.709546e-05 -3.743269e-08
4.237094e-05 -1.658079e-05 2.797472e-08
4.236497e-05 -1.657957e-05 -2.850099e-08
4.235839e-05 -1.657699e-05 2.729074e-08
4.371733e-05 -1.710128e-05 6.397042e-08
4.371738e-05 -1.710105e-05 3.875627e-08
4.374876e-05 -1.711203e-05 -3.694120e-08
4.236429e-05 -1.657818e-05 2.681514e-08
4.235847e-05 -1.657702e-05 -2.729155e-08
4.235216e-05 -1.657456e-05 2.608456e-08
4.373309e-05 -1.710695e-05 6.371709e-08
4.373313e-05 -1.710658e-05 3.858912e-08
4.376433e-05 -1.711746e-05 -3.665617e-08
4.235792e-05 -1.657570e-05 2.565837e-08
4.235224e-05 -1.657459e-05 -2.608532e-08
4.234622e-05 -1.657225e-05 2.488026e-08
4.374876e-05 -1.711258e-05 6.335667e-08
4.374881e-05 -1.711206e-05 3.835966e-08
4.377978e-05 -1.712283e-05 -3.630601e-08
4.235184e-05 -1.657333e-05 2.450323e-08
4.234630e-05 -1.657227e-05 -2.488098e-08
4.234055e-05 -1.657005e-05 2.367650e-08
4.376434e-05 -1.711816e-05 6.288535e-08
4.376438e-05 -1.711750e-05 3.806480e-08
4.379506e-05 -1.712814e-05 -3.588894e-08
4.234604e-05 -1.657107e-05 2.334852e-08
4.234063e-05 -1.657007e-05 -2.367719e-08
4.377978e-05 -1.712369e-05 6.230026e-08
4.377982e-05 -1.712287e-05 3.770214e-08
4.381016e-05 -1.713337e-05 -3.540367e-08
4.234052e-05 -1.656893e-05 2.219310e-08
4.233525e-05 -1.656799e-05 -2.247272e-08
4.379507e-05 -1.712916e-05 6.159932e-08
4.379511e-05 -1.712818e-05 3.726992e-08
4.382505e-05 -1.713851e-05 -3.484930e-08
4.233529e-05 -1.656690e-05 2.103600e-08
4.233015e-05 -1.656601e-05 -2.126651e-08
4.381017e-05 -1.713454e-05 6.078109e-08
4.381021e-05 -1.713341e-05 3.676685e-08
4.383969e-05 -1.714355e-05 -3.422519e-08
4.233034e-05 -1.656498e-05 1.987641e-08
4.232532e-05 -1.656415e-05 -2.005773e-08
4.232071e-05 -1.656237e-05 1.884508e-08
4.382506e-05 -1.713985e-05 5.984455e-08
4.385405e-05 -1.714849e-05 -3.353091e-08
4.232567e-05 -1.656317e-05 1.871367e-08
4.232079e-05 -1.656240e-05 -1.884568e-08
4.231645e-05 -1.656074e-05 1.762928e-08
4.383970e-05 -1.714505e-05 5.878904e-08
4.386811e-05 -1.715330e-05 -3.276619e-08
4.232128e-05 -1.656148e-05 1.754732e-08
4.231653e-05 -1.656076e-05 -1.762988e-08
4.231248e-05 -1.655921e-05 1.640933e-08
4.385407e-05 -1.715015e-05 5.761411e-08
4.385410e-05 -1.714855e-05 3.482483e-08
4.388183e-05 -1.715799e-05 -3.193082e-08
4.231718e-05 -1.655990e-05 1.637698e-08
4.231256e-05 -1.655924e-05 -1.640993e-08
4.230880e-05 -1.655779e-05 1.518497e-08
4.386813e-05 -1.715513e-05 5.631949e-08
4.386816e-05 -1.715337e-05 3.403174e-08
4.389519e-05 -1.716253e-05 -3.102469e-08
4.231336e-05 -1.655843e-05 1.520240e-08
4.230887e-05 -1.655782e-05 -1.518556e-08
4.230540e-05 -1.655649e-05 1.395597e-08
4.388185e-05 -1.715998e-05 5.490499e-08
4.388189e-05 -1.715806e-05 3.316540e-08
4.390815e-05 -1.716692e-05 -3.004771e-08
4.230983e-05 -1.655707e-05 1.402337e-08
4.230548e-05 -1.655652e-05 -1.395657e-08
4.230228e-05 -1.655530e-05 1.272222e-08
4.389521e-05 -1.716468e-05 5.337048e-08
4.392068e-05 -1.717113e-05 -2.899981e-08
4.230659e-05 -1.655582e-05 1.283978e-08
4.230236e-05 -1.655533e-05 -1.272281e-08
4.229946e-05 -1.655422e-05 1.148359e-08
4.230363e-05 -1.655469e-05 1.165152e-08
4.229954e-05 -1.655425e-05 -1.148419e-08
4.229693e-05 -1.655326e-05 1.024001e-08
4.395541e-05 -1.718267e-05 -2.543002e-08
4.392074e-05 -1.717122e-05 3.012580e-08
4.230096e-05 -1.655367e-05 1.045852e-08
4.229700e-05 -1.655329e-05 -1.024061e-08
4.229468e-05 -1.655241e-05 8.991422e-09
4.394438e-05 -1.718183e-05 4.603071e-08
4.393632e-05 -1.717729e-05 2.747059e-08
4.396593e-05 -1.718610e-05 -2.409786e-08
4.229858e-05 -1.655276e-05 9.260729e-09
4.229476e-05 -1.655244e-05 -8.992027e-09
4.229273e-05 -1.655167e-05 7.737764e-09
4.395545e-05 -1.718564e-05 4.389494e-08
4.395547e-05 -1.718277e-05 2.642388e-08
4.397587e-05 -1.718930e-05 -2.269449e-08
4.229649e-05 -1.655197e-05 8.058099e-09
4.229281e-05 -1.655170e-05 -7.738374e-09
4.229107e-05 -1.655105e-05 6.478988e-09
4.396597e-05 -1.718923e-05 4.163861e-08
4.396598e-05 -1.718621e-05 2.504241e-08
4.398519e-05 -1.719227e-05 -2.121985e-08
4.229470e-05 -1.655129e-05 6.850585e-09
4.229115e-05 -1.655108e-05 -6.479599e-09
4.397590e-05 -1.719260e-05 3.926161e-08
4.397592e-05 -1.718941e-05 2.358712e-08
4.399387e-05 -1.719498e-05 -1.967393e-08
4.229320e-05 -1.655072e-05 5.638136e-09
4.228978e-05 -1.655057e-05 -5.215645e-09
4.398523e-05 -1.719572e-05 3.676384e-08
4.398525e-05 -1.719238e-05 2.205795e-08
4.400188e-05 -1.719743e-05 -1.805676e-08
4.229199e-05 -1.655027e-05 4.420699e-09
4.228871e-05 -1.655018e-05 -3.946450e-09
4.399392e-05 -1.719860e-05 3.414518e-08
4.400919e-05 -1.719960e-05 -1.636845e-08
4.229108e-05 -1.654994e-05 3.198210e-09
4.228793e-05 -1.654991e-05 -2.671944e-09
4.228737e-05 -1.654972e-05 1.391430e-09
4.400193e-05 -1.720121e-05 3.140559e-08
4.401576e-05 -1.720148e-05 -1.460926e-08
4.229046e-05 -1.654972e-05 1.970598e-09
4.228745e-05 -1.654975e-05 -1.392048e-09
4.228719e-05 -1.654968e-05 1.060610e-10
4.400924e-05 -1.720355e-05 2.854506e-08
4.400924e-05 -1.719973e-05 1.702710e-08
4.402156e-05 -1.720307e-05 -1.277967e-08
4.229014e-05 -1.654962e-05 7.377781e-10
4.228727e-05 -1.654971e-05 -1.066764e-10
4.228731e-05 -1.654975e-05 -1.184868e-09
4.401581e-05 -1.720560e-05 2.556376e-08
4.401582e-05 -1.720162e-05 1.520278e-08
4.402657e-05 -1.720435e-05 -1.088046e-08
4.229013e-05 -1.654964e-05 -5.003381e-10
4.228739e-05 -1.654978e-05 1.184249e-09
4.228774e-05 -1.654995e-05 -2.481426e-09
4.402162e-05 -1.720735e-05 2.246206e-08
4.402162e-05 -1.720321e-05 1.330537e-08
4.403076e-05 -1.720531e-05 -8.912829e-09
4.229041e-05 -1.654977e-05 -1.743840e-09
4.228781e-05 -1.654998e-05 2.480808e-09
4.228846e-05 -1.655026e-05 -3.783672e-09
4.402663e-05 -1.720879e-05 1.924068e-08
4.403409e-05 -1.720594e-05 -6.878615e-09
4.229099e-05 -1.655002e-05 -2.992817e-09
4.228854e-05 -1.655029e-05 3.783055e-09
4.228948e-05 -1.655069e-05 -5.091620e-09
4.403082e-05 -1.720991e-05 1.590083e-08
4.403654e-05 -1.720624e-05 -4.780438e-09
4.229188e-05 -1.655039e-05 -4.247338e-09
4.228956e-05 -1.655072e-05 5.091000e-09
4.229082e-05 -1.655124e-05 -6.405208e-09
4.403415e-05 -1.721069e-05 1.244443e-08
4.403415e-05 -1.720609e-05 7.184552e-09
4.403808e-05 -1.720620e-05 -2.621964e-09
4.229307e-05 -1.655089e-05 -5.507432e-09
4.229089e-05 -1.655127e-05 6.404582e-09
4.229245e-05 -1.655191e-05 -7.724261e-09
4.403660e-05 -1.721115e-05 8.874408e-09
4.403660e-05 -1.720640e-05 5.007646e-09
4.403869e-05 -1.720582e-05 -4.081539e-10
4.229457e-05 -1.655149e-05 -6.773064e-09
4.229253e-05 -1.655194e-05 7.723624e-09
4.229440e-05 -1.655270e-05 -9.048431e-09
4.403814e-05 -1.721125e-05 5.194998e-09
4.403814e-05 -1.720636e-05 2.767706e-09
4.403834e-05 -1.720510e-05 1.854505e-09
4.229638e-05 -1.655222e-05 -8.044087e-09
4.229448e-05 -1.655273e-05 9.047780e-09
4.229665e-05 -1.655361e-05 -1.037712e-08
4.229849e-05 -1.655307e-05 -9.320193e-09
4.229673e-05 -1.655363e-05 1.037644e-08
4.229921e-05 -1.655463e-05 -1.170937e-08
4.403139e-05 -1.720094e-05 8.846490e-09
4.403840e-05 -1.720526e-05 -1.879677e-09
4.230091e-05 -1.655404e-05 -1.060082e-08
4.229929e-05 -1.655466e-05 1.170865e-08
4.403477e-05 -1.720816e-05 -1.046311e-08
4.403128e-05 -1.720367e-05 -4.966035e-09
4.402708e-05 -1.719894e-05 1.120986e-08
4.230364e-05 -1.655513e-05 -1.188508e-08
4.230216e-05 -1.655580e-05 1.304295e-08
4.403146e-05 -1.720652e-05 -1.455277e-08
4.402176e-05 -1.719665e-05 1.357284e-08
4.230669e-05 -1.655633e-05 -1.317159e-08
4.230535e-05 -1.655706e-05 1.437724e-08
4.402714e-05 -1.720456e-05 -1.868018e-08
4.401545e-05 -1.719410e-05 1.592940e-08
4.231004e-05 -1.655765e-05 -1.445835e-08
4.230884e-05 -1.655844e-05 1.570857e-08
4.231257e-05 -1.655989e-05 -1.703408e-08
4.402182e-05 -1.720229e-05 -2.282747e-08
4.402183e-05 -1.719683e-05 -1.406484e-08
4.400814e-05 -1.719129e-05 1.827730e-08
4.231369e-05 -1.655908e-05 -1.574255e-08
4.231265e-05 -1.655992e-05 1.703293e-08
4.231669e-05 -1.656148e-05 -1.834642e-08
4.401551e-05 -1.719973e-05 -2.697890e-08
4.401551e-05 -1.719428e-05 -1.651852e-08
4.399985e-05 -1.718823e-05 2.061628e-08
4.231766e-05 -1.656062e-05 -1.702035e-08
4.231677e-05 -1.656151e-05 1.834505e-08
4.232112e-05 -1.656317e-05 -1.963987e-08
4.400820e-05 -1.719690e-05 -3.112212e-08
4.400821e-05 -1.719147e-05 -1.896359e-08
4.399057e-05 -1.718492e-05 2.294511e-08
4.232192e-05 -1.656227e-05 -1.828675e-08
4.232120e-05 -1.656320e-05 1.963824e-08
4.232585e-05 -1.656495e-05 -2.090628e-08
4.399990e-05 -1.719381e-05 -3.524693e-08
4.398032e-05 -1.718133e-05 2.525924e-08
4.232648e-05 -1.656401e-05 -1.953544e-08
4.232593e-05 -1.656498e-05 2.090435e-08
4.233088e-05 -1.656681e-05 -2.213630e-08
4.399062e-05 -1.719044e-05 -3.934205e-08
4.396909e-05 -1.717747e-05 2.755036e-08
4.233133e-05 -1.656583e-05 -2.075884e-08
4.233096e-05 -1.656683e-05 2.213401e-08
4.233621e-05 -1.656873e-05 -2.332003e-08
4.398036e-05 -1.718678e-05 -4.339298e-08
4.398038e-05 -1.718151e-05 -2.623188e-08
4.395689e-05 -1.717330e-05 2.980787e-08
4.233646e-05 -1.656774e-05 -2.194843e-08
4.233629e-05 -1.656876e-05 2.331735e-08
4.234182e-05 -1.657071e-05 -2.444839e-08
4.396913e-05 -1.718282e-05 -4.738249e-08
4.396915e-05 -1.717764e-05 -2.861492e-08
4.394375e-05 -1.716883e-05 3.202078e-08
4.234185e-05 -1.656970e-05 -2.309537e-08
4.234190e-05 -1.657074e-05 2.444531e-08
4.234769e-05 -1.657273e-05 -2.551498e-08
4.395693e-05 -1.717853e-05 -5.129271e-08
4.395695e-05 -1.717347e-05 -3.096182e-08
4.392968e-05 -1.716405e-05 3.417896e-08
4.234749e-05 -1.657171e-05 -2.419156e-08
4.234778e-05 -1.657276e-05 2.551148e-08
4.235382e-05 -1.657478e-05 -2.651693e-08
4.394378e-05 -1.717392e-05 -5.510713e-08
4.394381e-05 -1.716900e-05 -3.326124e-08
4.391471e-05 -1.715895e-05 3.627376e-08
4.235336e-05 -1.657375e-05 -2.523044e-08
4.235390e-05 -1.657481e-05 2.651302e-08
4.392970e-05 -1.716898e-05 -5.881163e-08
4.392974e-05 -1.716421e-05 -3.550282e-08
4.389887e-05 -1.715354e-05 3.829822e-08
4.235945e-05 -1.657581e-05 -2.620683e-08
4.236027e-05 -1.657688e-05 2.744884e-08
4.236677e-05 -1.657895e-05 -2.832105e-08
4.391473e-05 -1.716370e-05 -6.239481e-08
4.391477e-05 -1.715911e-05 -3.767779e-08
4.388219e-05 -1.714782e-05 4.024700e-08
4.236574e-05 -1.657789e-05 -2.711562e-08
4.236685e-05 -1.657897e-05 2.831633e-08
4.237356e-05 -1.658106e-05 -2.911450e-08
4.389888e-05 -1.715811e-05 -6.584794e-08
4.389893e-05 -1.715369e-05 -3.977909e-08
4.386470e-05 -1.714180e-05 4.211611e-08
4.237222e-05 -1.658000e-05 -2.795040e-08
4.237365e-05 -1.658109e-05 2.910939e-08
4.238054e-05 -1.658321e-05 -2.982451e-08
4.388220e-05 -1.715220e-05 -6.916456e-08
4.384645e-05 -1.713548e-05 4.390271e-08
4.237887e-05 -1.658213e-05 -2.870310e-08
4.238063e-05 -1.658324e-05 2.981905e-08
4.238568e-05 -1.658428e-05 -2.936486e-08
4.238777e-05 -1.658540e-05 3.043534e-08
4.378745e-05 -1.711490e-05 4.875109e-08
4.239263e-05 -1.658646e-05 -2.992696e-08
4.239506e-05 -1.658760e-05 3.094867e-08
4.380777e-05 -1.712560e-05 -8.099424e-08
4.380784e-05 -1.712214e-05 -4.903601e-08
4.376649e-05 -1.710753e-05 5.019396e-08
4.239969e-05 -1.658867e-05 -3.038159e-08
4.240246e-05 -1.658982e-05 3.135060e-08
4.240986e-05 -1.659202e-05 -3.164051e-08
4.378743e-05 -1.711827e-05 -8.358391e-08
4.374495e-05 -1.709994e-05 5.154966e-08
4.240684e-05 -1.659090e-05 -3.072215e-08
4.240994e-05 -1.659205e-05 3.163410e-08
4.241740e-05 -1.659426e-05 -3.180007e-08
4.376647e-05 -1.711071e-05 -8.602529e-08
4.372286e-05 -1.709214e-05 5.281814e-08
4.241406e-05 -1.659314e-05 -3.094331e-08
4.241748e-05 -1.659429e-05 3.179354e-08
4.242496e-05 -1.659650e-05 -3.183113e-08
4.374492e-05 -1.710291e-05 -8.831836e-08
4.374500e-05 -1.710004e-05 -5.352513e-08
4.370027e-05 -1.708414e-05 5.399949e-08
4.242131e-05 -1.659539e-05 -3.104091e-08
4.242505e-05 -1.659653e-05 3.182451e-08
4.243252e-05 -1.659873e-05 -3.173033e-08
4.372283e-05 -1.709491e-05 -9.046334e-08
4.372292e-05 -1.709223e-05 -5.484066e-08
4.367721e-05 -1.707595e-05 5.509383e-08
4.242857e-05 -1.659763e-05 -3.101177e-08
4.243261e-05 -1.659876e-05 3.172364e-08
4.244004e-05 -1.660095e-05 -3.149511e-08
4.370023e-05 -1.708670e-05 -9.246050e-08
4.370032e-05 -1.708422e-05 -5.606584e-08
4.365371e-05 -1.706759e-05 5.610133e-08
4.243580e-05 -1.659986e-05 -3.085348e-08
4.244013e-05 -1.660098e-05 3.148837e-08
4.244749e-05 -1.660313e-05 -3.112350e-08
4.367717e-05 -1.707831e-05 -9.431016e-08
4.367726e-05 -1.707603e-05 -5.720080e-08
4.362983e-05 -1.705908e-05 5.702217e-08
4.244298e-05 -1.660207e-05 -3.056424e-08
4.244758e-05 -1.660316e-05 3.111672e-08
4.365367e-05 -1.706976e-05 -9.601268e-08
4.365377e-05 -1.706767e-05 -5.824572e-08
4.360558e-05 -1.705043e-05 5.785654e-08
4.245008e-05 -1.660424e-05 -3.014262e-08
4.245494e-05 -1.660530e-05 3.060713e-08
4.246206e-05 -1.660736e-05 -2.996519e-08
4.362978e-05 -1.706105e-05 -9.756840e-08
4.362988e-05 -1.705915e-05 -5.920080e-08
4.358102e-05 -1.704165e-05 5.860461e-08
4.245705e-05 -1.660636e-05 -2.958749e-08
4.246215e-05 -1.660739e-05 2.995834e-08
4.246911e-05 -1.660938e-05 -2.917612e-08
4.360553e-05 -1.705220e-05 -9.897767e-08
4.360563e-05 -1.705049e-05 -6.006621e-08
4.355617e-05 -1.703277e-05 5.926657e-08
4.246388e-05 -1.660842e-05 -2.889787e-08
4.246921e-05 -1.660941e-05 2.916925e-08
4.247596e-05 -1.661131e-05 -2.824576e-08
4.358096e-05 -1.704322e-05 -1.002408e-07
4.353108e-05 -1.702379e-05 5.984260e-08
4.247052e-05 -1.661041e-05 -2.807284e-08
4.247606e-05 -1.661135e-05 2.823886e-08
4.248259e-05 -1.661316e-05 -2.717317e-08
4.355611e-05 -1.703414e-05 -1.013581e-07
4.350578e-05 -1.701472e-05 6.033288e-08
4.247694e-05 -1.661231e-05 -2.711152e-08
4.248268e-05 -1.661319e-05 2.716623e-08
4.353102e-05 -1.702495e-05 -1.023299e-07
4.353113e-05 -1.702383e-05 -6.212635e-08
4.348030e-05 -1.700559e-05 6.073762e-08
4.248311e-05 -1.661411e-05 -2.601301e-08
4.248904e-05 -1.661493e-05 2.595053e-08
4.350571e-05 -1.701569e-05 -1.031564e-07
4.350582e-05 -1.701476e-05 -6.263497e-08
4.345469e-05 -1.699641e-05 6.105706e-08
4.248900e-05 -1.661580e-05 -2.477647e-08
4.249510e-05 -1.661655e-05 2.459106e-08
4.348023e-05 -1.700636e-05 -1.038381e-07
4.348035e-05 -1.700563e-05 -6.305487e-08
4.342898e-05 -1.698718e-05 6.129151e-08
4.249458e-05 -1.661736e-05 -2.340112e-08
4.250083e-05 -1.661804e-05 2.308742e-08
4.250610e-05 -1.661935e-05 -2.144678e-08
4.249980e-05 -1.661879e-05 -2.188644e-08
4.250620e-05 -1.661939e-05 2.143973e-08
4.251107e-05 -1.662054e-05 -1.965598e-08
4.335160e-05 -1.695941e-05 6.149011e-08
4.250464e-05 -1.662006e-05 -2.023235e-08
4.251117e-05 -1.662058e-05 1.964895e-08
4.251561e-05 -1.662157e-05 -1.772438e-08
4.337732e-05 -1.696866e-05 -1.051229e-07
4.339020e-05 -1.697332e-05 -6.137559e-08
4.332584e-05 -1.695016e-05 6.139084e-08
4.250906e-05 -1.662118e-05 -1.843956e-08
4.251571e-05 -1.662161e-05 1.771742e-08
4.251969e-05 -1.662243e-05 -1.565636e-08
4.335152e-05 -1.695920e-05 -1.050869e-07
4.335164e-05 -1.695942e-05 -6.383576e-08
4.330015e-05 -1.694093e-05 6.121109e-08
4.251304e-05 -1.662212e-05 -1.651010e-08
4.251979e-05 -1.662246e-05 1.564956e-08
4.252328e-05 -1.662310e-05 -1.345929e-08
4.332576e-05 -1.694976e-05 -1.049100e-07
4.332588e-05 -1.695016e-05 -6.373256e-08
4.327457e-05 -1.693174e-05 6.095296e-08
4.251653e-05 -1.662289e-05 -1.444794e-08
4.252338e-05 -1.662314e-05 1.345279e-08
4.252635e-05 -1.662360e-05 -1.114485e-08
4.330008e-05 -1.694034e-05 -1.045941e-07
4.330019e-05 -1.694093e-05 -6.354569e-08
4.324914e-05 -1.692259e-05 6.061923e-08
4.251952e-05 -1.662347e-05 -1.226001e-08
4.252645e-05 -1.662364e-05 1.113882e-08
4.327450e-05 -1.693096e-05 -1.041416e-07
4.327462e-05 -1.693173e-05 -6.327725e-08
4.322387e-05 -1.691348e-05 6.021352e-08
4.252198e-05 -1.662388e-05 -9.957384e-09
4.252897e-05 -1.662397e-05 8.725282e-09
4.253079e-05 -1.662410e-05 -6.242122e-09
4.324907e-05 -1.692163e-05 -1.035560e-07
4.324918e-05 -1.692257e-05 -6.293005e-08
4.319880e-05 -1.690444e-05 5.974034e-08
4.252389e-05 -1.662411e-05 -7.556984e-09
4.253090e-05 -1.662414e-05 6.237839e-09
4.253213e-05 -1.662414e-05 -3.715528e-09
4.322380e-05 -1.691235e-05 -1.028417e-07
4.322391e-05 -1.691346e-05 -6.250773e-08
4.317396e-05 -1.689544e-05 5.920514e-08
4.252524e-05 -1.662419e-05 -5.083590e-09
4.253224e-05 -1.662418e-05 3.712678e-09
4.253284e-05 -1.662406e-05 -1.200494e-09
4.319873e-05 -1.690314e-05 -1.020047e-07
4.314937e-05 -1.688651e-05 5.861409e-08
4.252603e-05 -1.662413e-05 -2.572403e-09
4.253295e-05 -1.662411e-05 1.199526e-09
4.253293e-05 -1.662394e-05 1.236404e-09
4.317389e-05 -1.689399e-05 -1.010522e-07
4.317400e-05 -1.689541e-05 -6.145700e-08
4.312505e-05 -1.687763e-05 5.797368e-08
4.252626e-05 -1.662398e-05 -7.196638e-11
4.253304e-05 -1.662399e-05 -1.235047e-09
4.314930e-05 -1.688492e-05 -9.999314e-08
4.310101e-05 -1.686880e-05 5.728983e-08
4.252598e-05 -1.662379e-05 2.352589e-09
4.253250e-05 -1.662388e-05 -3.504307e-09
4.312498e-05 -1.687591e-05 -9.883748e-08
4.312509e-05 -1.687759e-05 -6.017196e-08
4.307728e-05 -1.686002e-05 5.656693e-08
4.252524e-05 -1.662365e-05 4.616459e-09
4.253134e-05 -1.662388e-05 -5.498626e-09
4.310095e-05 -1.686697e-05 -9.759566e-08
4.305386e-05 -1.685129e-05 5.580712e-08
4.252411e-05 -1.662366e-05 6.612925e-09
4.252961e-05 -1.662411e-05 -7.084591e-09
4.252723e-05 -1.662466e-05 8.114236e-09
4.307722e-05 -1.685809e-05 -9.627741e-08
4.303078e-05 -1.684260e-05 5.501083e-08
4.252272e-05 -1.662394e-05 8.213522e-09
4.252735e-05 -1.662471e-05 -8.107879e-09
4.252456e-05 -1.662581e-05 8.403298e-09
4.305381e-05 -1.684927e-05 -9.489065e-08
4.305390e-05 -1.685124e-05 -5.790827e-08
4.300804e-05 -1.683397e-05 5.417826e-08
4.252122e-05 -1.662468e-05 9.273202e-09
4.252468e-05 -1.662587e-05 -8.402697e-09
4.252163e-05 -1.662773e-05 7.802832e-09
4.303073e-05 -1.684050e-05 -9.344157e-08
4.303082e-05 -1.684255e-05 -5.707637e-08
4.298566e-05 -1.682542e-05 5.331097e-08
4.251983e-05 -1.662608e-05 9.645609e-09
4.252175e-05 -1.662777e-05 -7.813633e-09
4.252489e-05 -1.664665e-05 5.131497e-10
4.300799e-05 -1.683180e-05 -9.193611e-08
4.300808e-05 -1.683393e-05 -5.620709e-08
4.296366e-05 -1.681694e-05 5.241268e-08
4.251880e-05 -1.662840e-05 9.230904e-09
4.251508e-05 -1.663541e-05 2.966800e-09
4.251878e-05 -1.663064e-05 -6.253363e-09
4.251858e-05 -1.663187e-05 7.796456e-09
4.251669e-05 -1.663976e-05 1.130613e-09
4.290001e-05 -1.679217e-05 4.958997e-08
4.296370e-05 -1.681689e-05 -5.436615e-08
4.292079e-05 -1.679798e-05 -8.551927e-08
4.292086e-05 -1.680025e-05 -5.242338e-08
4.287961e-05 -1.678416e-05 4.862636e-08
4.289998e-05 -1.678984e-05 -8.386457e-08
4.290005e-05 -1.679211e-05 -5.142948e-08
4.285961e-05 -1.677630e-05 4.765971e-08
4.287958e-05 -1.678183e-05 -8.220631e-08
4.284003e-05 -1.676858e-05 4.669365e-08
4.285959e-05 -1.677398e-05 -8.055037e-08
4.285965e-05 -1.677624e-05 -4.942442e-08
4.282085e-05 -1.676101e-05 4.573092e-08
4.284001e-05 -1.676628e-05 -7.890123e-08
4.280208e-05 -1.675360e-05 4.477358e-08
4.252256e-05 -1.664680e-05 4.603255e-10
4.252004e-05 -1.663648e-05 -3.209982e-09
4.251974e-05 -1.663765e-05 -5.323959e-09
4.251880e-05 -1.662933e-05 2.280487e-09
4.251835e-05 -1.663174e-05 -7.795497e-09
4.251983e-05 -1.662589e-05 3.191198e-09
4.251795e-05 -1.663410e-05 7.121802e-10
4.251885e-05 -1.662841e-05 -9.209698e-09
4.252123e-05 -1.662347e-05 3.628429e-09
4.251990e-05 -1.662612e-05 -9.646872e-09
4.251880e-05 -1.662423e-05 -5.339528e-09
4.252272e-05 -1.662190e-05 3.583173e-09
4.252130e-05 -1.662473e-05 -9.269853e-09
4.251962e-05 -1.662236e-05 -4.992511e-09
4.252411e-05 -1.662099e-05 3.120172e-09
4.252281e-05 -1.662399e-05 -8.206965e-09
4.252062e-05 -1.662124e-05 -4.279102e-09
4.252524e-05 -1.662055e-05 2.325078e-09
4.252420e-05 -1.662370e-05 -6.606754e-09
4.252160e-05 -1.662067e-05 -3.277279e-09
4.252598e-05 -1.662042e-05 1.283767e-09
4.252533e-05 -1.662369e-05 -4.612400e-09
4.252626e-05 -1.662047e-05 7.303173e-11
4.252607e-05 -1.662384e-05 -2.351121e-09
4.252603e-05 -1.662058e-05 -1.242810e-09
4.252635e-05 -1.662402e-05 7.100466e-11
4.252524e-05 -1.662067e-05 -2.612207e-09
4.252611e-05 -1.662417e-05 2.569424e-09
4.252248e-05 -1.662077e-05 2.165555e-09
4.252389e-05 -1.662069e-05 -3.995235e-09
4.252531e-05 -1.662422e-05 5.079072e-09
4.252153e-05 -1.662085e-05 3.620641e-09
4.252198e-05 -1.662058e-05 -5.361834e-09
4.252396e-05 -1.662415e-05 7.551358e-09
4.251952e-05 -1.662033e-05 -6.689991e-09
4.252205e-05 -1.662391e-05 9.951013e-09
4.251801e-05 -1.662065e-05 6.423391e-09
4.251653e-05 -1.661992e-05 -7.963997e-09
4.251959e-05 -1.662351e-05 1.225316e-08
4.251546e-05 -1.662032e-05 7.739210e-09
4.251304e-05 -1.661934e-05 -9.172981e-09
4.251660e-05 -1.662292e-05 1.444082e-08
4.250907e-05 -1.661859e-05 -1.030966e-08
4.251310e-05 -1.662215e-05 1.650284e-08
4.250464e-05 -1.661767e-05 -1.136939e-08
4.250913e-05 -1.662121e-05 1.843226e-08
4.250480e-05 -1.661830e-05 1.124565e-08
4.249981e-05 -1.661659e-05 -1.234936e-08
4.250470e-05 -1.662009e-05 2.022505e-08
4.250033e-05 -1.661729e-05 1.225551e-08
4.249458e-05 -1.661536e-05 -1.324804e-08
4.249986e-05 -1.661882e-05 2.187919e-08
4.249547e-05 -1.661612e-05 1.318361e-08
4.248901e-05 -1.661399e-05 -1.406477e-08
4.249464e-05 -1.661739e-05 2.339393e-08
4.249024e-05 -1.661481e-05 1.402979e-08
4.248312e-05 -1.661249e-05 -1.479942e-08
4.248907e-05 -1.661583e-05 2.476933e-08
4.247695e-05 -1.661089e-05 -1.545221e-08
4.248317e-05 -1.661414e-05 2.600593e-08
4.247053e-05 -1.660918e-05 -1.602354e-08
4.247700e-05 -1.661234e-05 2.710448e-08
4.246389e-05 -1.660738e-05 -1.651396e-08
4.247058e-05 -1.661044e-05 2.806584e-08
4.246629e-05 -1.660837e-05 1.660227e-08
4.245706e-05 -1.660550e-05 -1.692410e-08
4.246393e-05 -1.660845e-05 2.889090e-08
4.245972e-05 -1.660652e-05 1.704499e-08
4.245009e-05 -1.660357e-05 -1.725466e-08
4.245711e-05 -1.660639e-05 2.958055e-08
4.244299e-05 -1.660159e-05 -1.750646e-08
4.245013e-05 -1.660426e-05 3.013570e-08
4.244610e-05 -1.660263e-05 1.769393e-08
4.243581e-05 -1.659956e-05 -1.768052e-08
4.244304e-05 -1.660209e-05 3.055735e-08
4.243911e-05 -1.660062e-05 1.790141e-08
4.242858e-05 -1.659752e-05 -1.777807e-08
4.243586e-05 -1.659989e-05 3.084663e-08
4.242132e-05 -1.659545e-05 -1.780071e-08
4.242862e-05 -1.659766e-05 3.100496e-08
4.241407e-05 -1.659338e-05 -1.775051e-08
4.242136e-05 -1.659541e-05 3.103417e-08
4.241787e-05 -1.659443e-05 1.806632e-08
4.240685e-05 -1.659131e-05 -1.763012e-08
4.241411e-05 -1.659317e-05 3.093667e-08
4.241078e-05 -1.659235e-05 1.797326e-08
4.239970e-05 -1.658925e-05 -1.744290e-08
4.240689e-05 -1.659092e-05 3.071565e-08
4.240375e-05 -1.659027e-05 1.780953e-08
4.239264e-05 -1.658719e-05 -1.719296e-08
4.239974e-05 -1.658870e-05 3.037528e-08
4.239678e-05 -1.658821e-05 1.757804e-08
4.238569e-05 -1.658516e-05 -1.688517e-08
4.239268e-05 -1.658649e-05 2.992089e-08
4.237888e-05 -1.658314e-05 -1.652494e-08
4.238573e-05 -1.658431e-05 2.935908e-08
4.237223e-05 -1.658113e-05 -1.611779e-08
4.237892e-05 -1.658215e-05 2.869768e-08
4.236575e-05 -1.657914e-05 -1.566856e-08
4.237227e-05 -1.658002e-05 2.794536e-08
4.237010e-05 -1.658011e-05 1.605657e-08
4.235945e-05 -1.657716e-05 -1.518060e-08
4.236579e-05 -1.657792e-05 2.711100e-08
4.235337e-05 -1.657518e-05 -1.465535e-08
4.235950e-05 -1.657583e-05 2.620263e-08
4.235770e-05 -1.657614e-05 1.500512e-08
4.234749e-05 -1.657323e-05 -1.409297e-08
4.235341e-05 -1.657377e-05 2.522668e-08
4.235180e-05 -1.657417e-05 1.442095e-08
4.234185e-05 -1.657129e-05 -1.349369e-08
4.234754e-05 -1.657173e-05 2.418824e-08
4.233646e-05 -1.656939e-05 -1.285912e-08
4.234190e-05 -1.656972e-05 2.309248e-08
4.233134e-05 -1.656754e-05 -1.219272e-08
4.233651e-05 -1.656776e-05 2.194595e-08
4.233541e-05 -1.656841e-05 1.247147e-08
4.232649e-05 -1.656575e-05 -1.149938e-08
4.233138e-05 -1.656586e-05 2.075676e-08
4.233045e-05 -1.656658e-05 1.176938e-08
4.232193e-05 -1.656404e-05 -1.078458e-08
4.232653e-05 -1.656403e-05 1.953370e-08
4.232576e-05 -1.656482e-05 1.104925e-08
4.231766e-05 -1.656242e-05 -1.005358e-08
4.232197e-05 -1.656229e-05 1.828531e-08
4.232136e-05 -1.656315e-05 1.031586e-08
4.231370e-05 -1.656089e-05 -9.311086e-09
4.231771e-05 -1.656065e-05 1.701915e-08
4.231725e-05 -1.656156e-05 9.573383e-09
4.231004e-05 -1.655946e-05 -8.560995e-09
4.231374e-05 -1.655911e-05 1.574153e-08
4.231343e-05 -1.656008e-05 8.825279e-09
4.230669e-05 -1.655814e-05 -7.806436e-09
4.231009e-05 -1.655767e-05 1.445747e-08
4.230993e-05 -1.655871e-05 8.074262e-09
4.230365e-05 -1.655693e-05 -7.049797e-09
4.230674e-05 -1.655635e-05 1.317081e-08
4.230091e-05 -1.655584e-05 -6.292860e-09
4.230370e-05 -1.655515e-05 1.188436e-08
4.230383e-05 -1.655629e-05 6.571128e-09
4.229849e-05 -1.655487e-05 -5.536910e-09
4.230096e-05 -1.655406e-05 1.060015e-08
4.229638e-05 -1.655401e-05 -4.782832e-09
4.229854e-05 -1.655310e-05 9.319546e-09
4.229897e-05 -1.655434e-05 5.074371e-09
4.229457e-05 -1.655327e-05 -4.031226e-09
4.229643e-05 -1.655225e-05 8.043457e-09
4.229308e-05 -1.655266e-05 -3.282469e-09
4.229462e-05 -1.655152e-05 6.772441e-09
4.229188e-05 -1.655216e-05 -2.536787e-09
4.229313e-05 -1.655091e-05 5.506812e-09
4.229400e-05 -1.655231e-05 2.850759e-09
4.229099e-05 -1.655178e-05 -1.794298e-09
4.229193e-05 -1.655042e-05 4.246717e-09
4.229295e-05 -1.655187e-05 2.116041e-09
4.229041e-05 -1.655152e-05 -1.055044e-09
4.229104e-05 -1.655005e-05 2.992196e-09
4.229220e-05 -1.655155e-05 1.384616e-09
4.229013e-05 -1.655138e-05 -3.190305e-10
4.229046e-05 -1.654979e-05 1.743216e-09
4.229176e-05 -1.655135e-05 6.564469e-10
4.229014e-05 -1.655135e-05 4.137732e-10
4.229018e-05 -1.654966e-05 4.997123e-10
4.229163e-05 -1.655127e-05 -6.851513e-11
4.229046e-05 -1.655145e-05 1.143407e-09
4.229019e-05 -1.654964e-05 -7.384032e-10
4.229179e-05 -1.655131e-05 -7.903255e-10
4.229108e-05 -1.655166e-05 1.869916e-09
4.229051e-05 -1.654974e-05 -1.971223e-09
4.229225e-05 -1.655146e-05 -1.509049e-09
4.229199e-05 -1.655198e-05 2.593350e-09
4.229113e-05 -1.654996e-05 -3.198834e-09
4.229300e-05 -1.655173e-05 -2.224735e-09
4.229320e-05 -1.655243e-05 3.313754e-09
4.229204e-05 -1.655030e-05 -4.421321e-09
4.229470e-05 -1.655298e-05 4.031169e-09
4.229325e-05 -1.655074e-05 -5.638757e-09
4.229541e-05 -1.655261e-05 -3.647182e-09
4.229649e-05 -1.655366e-05 4.745632e-09
4.229475e-05 -1.655131e-05 -6.851203e-09
4.229858e-05 -1.655444e-05 5.457182e-09
4.229654e-05 -1.655199e-05 -8.058713e-09
4.229899e-05 -1.655396e-05 -5.057994e-09
4.230096e-05 -1.655534e-05 6.165854e-09
4.229863e-05 -1.655278e-05 -9.261339e-09
4.230363e-05 -1.655636e-05 6.871694e-09
4.230101e-05 -1.655369e-05 -1.045913e-08
4.230659e-05 -1.655748e-05 7.574748e-09
4.230368e-05 -1.655471e-05 -1.165212e-08
4.230654e-05 -1.655683e-05 -7.152922e-09
4.230983e-05 -1.655872e-05 8.275082e-09
4.230664e-05 -1.655584e-05 -1.284038e-08
4.230963e-05 -1.655802e-05 -7.845682e-09
4.231336e-05 -1.656008e-05 8.972792e-09
4.230988e-05 -1.655709e-05 -1.402397e-08
4.231302e-05 -1.655931e-05 -8.535742e-09
4.231718e-05 -1.656154e-05 9.667994e-09
4.231341e-05 -1.655845e-05 -1.520300e-08
4.231669e-05 -1.656072e-05 -9.223171e-09
4.232128e-05 -1.656312e-05 1.036086e-08
4.231723e-05 -1.655992e-05 -1.637758e-08
4.232064e-05 -1.656224e-05 -9.908071e-09
4.232567e-05 -1.656481e-05 1.105162e-08
4.232133e-05 -1.656150e-05 -1.754792e-08
4.232488e-05 -1.656387e-05 -1.059058e-08
4.233034e-05 -1.656661e-05 1.174058e-08
4.232572e-05 -1.656320e-05 -1.871428e-08
4.232940e-05 -1.656562e-05 -1.127089e-08
4.233529e-05 -1.656852e-05 1.242814e-08
4.233039e-05 -1.656500e-05 -1.987703e-08
4.233421e-05 -1.656748e-05 -1.194927e-08
4.234053e-05 -1.657055e-05 1.311479e-08
4.233534e-05 -1.656692e-05 -2.103664e-08
4.234605e-05 -1.657269e-05 1.380114e-08
4.234057e-05 -1.656895e-05 -2.219377e-08
4.234467e-05 -1.657153e-05 -1.330171e-08
4.235185e-05 -1.657495e-05 1.448790e-08
4.234609e-05 -1.657109e-05 -2.334922e-08
4.235793e-05 -1.657732e-05 1.517582e-08
4.235189e-05 -1.657335e-05 -2.450397e-08
4.235627e-05 -1.657604e-05 -1.465182e-08
4.236430e-05 -1.657981e-05 1.586559e-08
4.235797e-05 -1.657572e-05 -2.565915e-08
4.237095e-05 -1.658242e-05 1.655780e-08
4.236434e-05 -1.657821e-05 -2.681598e-08
4.237789e-05 -1.658515e-05 1.725275e-08
4.237099e-05 -1.658081e-05 -2.797561e-08
4.237580e-05 -1.658369e-05 -1.668395e-08
4.238511e-05 -1.658800e-05 1.795054e-08
4.237793e-05 -1.658354e-05 -2.913904e-08
4.238289e-05 -1.658648e-05 -1.736559e-08
4.239263e-05 -1.659098e-05 1.865119e-08
4.238515e-05 -1.658638e-05 -3.030704e-08
4.239026e-05 -1.658940e-05 -1.805011e-08
4.240043e-05 -1.659408e-05 1.935483e-08
4.239267e-05 -1.658935e-05 -3.148030e-08
4.239793e-05 -1.659243e-05 -1.873792e-08
4.240853e-05 -1.659730e-05 2.006183e-08
4.240047e-05 -1.659244e-05 -3.265962e-08
4.240589e-05 -1.659559e-05 -1.942952e-08
4.241692e-05 -1.660064e-05 2.077278e-08
4.240857e-05 -1.659565e-05 -3.384603e-08
4.241415e-05 -1.659887e-05 -2.012553e-08
4.242561e-05 -1.660410e-05 2.148842e-08
4.241696e-05 -1.659898e-05 -3.504073e-08
4.242270e-05 -1.660227e-05 -2.082666e-08
4.243459e-05 -1.660768e-05 2.220950e-08
4.242564e-05 -1.660242e-05 -3.624494e-08
4.243155e-05 -1.660580e-05 -2.153357e-08
4.244387e-05 -1.661139e-05 2.293673e-08
4.243462e-05 -1.660599e-05 -3.745976e-08
4.245346e-05 -1.661521e-05 2.367068e-08
4.244391e-05 -1.660968e-05 -3.868618e-08
4.245014e-05 -1.661320e-05 -2.296719e-08
4.246335e-05 -1.661916e-05 2.441187e-08
4.245349e-05 -1.661348e-05 -3.992497e-08
4.247355e-05 -1.662322e-05 2.516066e-08
4.246338e-05 -1.661741e-05 -4.117678e-08
4.246996e-05 -1.662109e-05 -2.443027e-08
4.248406e-05 -1.662741e-05 2.591738e-08
4.247358e-05 -1.662146e-05 -4.244209e-08
4.249489e-05 -1.663173e-05 2.668225e-08
4.248409e-05 -1.662563e-05 -4.372126e-08
4.250604e-05 -1.663617e-05 2.745543e-08
4.249492e-05 -1.662992e-05 -4.501456e-08
4.250202e-05 -1.663385e-05 -2.668513e-08
4.251751e-05 -1.664074e-05 2.823706e-08
4.250606e-05 -1.663434e-05 -4.632219e-08
4.251335e-05 -1.663835e-05 -2.745346e-08
4.252930e-05 -1.664543e-05 2.902723e-08
4.251753e-05 -1.663889e-05 -4.764429e-08
4.252500e-05 -1.664298e-05 -2.823031e-08
4.254143e-05 -1.665026e-05 2.982602e-08
4.252933e-05 -1.664356e-05 -4.898099e-08
4.253698e-05 -1.664774e-05 -2.901573e-08
4.255390e-05 -1.665521e-05 3.063350e-08
4.254145e-05 -1.664837e-05 -5.033237e-08
4.254929e-05 -1.665263e-05 -2.980978e-08
4.256670e-05 -1.666030e-05 3.144971e-08
4.255392e-05 -1.665330e-05 -5.169851e-08
4.256194e-05 -1.665765e-05 -3.061249e-08
4.257984e-05 -1.666552e-05 3.227471e-08
4.256671e-05 -1.665837e-05 -5.307948e-08
4.257493e-05 -1.666280e-05 -3.142392e-08
4.259333e-05 -1.667088e-05 3.310856e-08
4.257986e-05 -1.666357e-05 -5.447535e-08
4.258826e-05 -1.666809e-05 -3.224411e-08
4.260717e-05 -1.667638e-05 3.395130e-08
4.259335e-05 -1.666891e-05 -5.588621e-08
4.262137e-05 -1.668201e-05 3.480301e-08
4.260718e-05 -1.667438e-05 -5.731214e-08
4.261598e-05 -1.667908e-05 -3.391097e-08
4.263592e-05 -1.668779e-05 3.566374e-08
4.262138e-05 -1.667999e-05 -5.875323e-08
4.265084e-05 -1.669370e-05 3.653356e-08
4.263593e-05 -1.668575e-05 -6.020960e-08
4.264512e-05 -1.669063e-05 -3.561357e-08
4.266612e-05 -1.669976e-05 3.741255e-08
4.265084e-05 -1.669164e-05 -6.168137e-08
4.268177e-05 -1.670597e-05 3.830076e-08
4.266612e-05 -1.669768e-05 -6.316867e-08
4.269780e-05 -1.671232e-05 3.919826e-08
4.268177e-05 -1.670386e-05 -6.467162e-08
4.269158e-05 -1.670902e-05 -3.823578e-08
4.271421e-05 -1.671882e-05 4.010504e-08
4.269780e-05 -1.671019e-05 -6.619037e-08
4.270782e-05 -1.671545e-05 -3.912839e-08
4.273100e-05 -1.672547e-05 4.102110e-08
4.271420e-05 -1.671667e-05 -6.772502e-08
4.272443e-05 -1.672202e-05 -4.003039e-08
4.274818e-05 -1.673227e-05 4.194631e-08
4.273099e-05 -1.672329e-05 -6.927563e-08
4.274144e-05 -1.672875e-05 -4.094179e-08
4.276575e-05 -1.673923e-05 4.288045e-08
4.274817e-05 -1.673007e-05 -7.084221e-08
4.275883e-05 -1.673563e-05 -4.186256e-08
4.278371e-05 -1.674634e-05 4.382309e-08
4.276574e-05 -1.673701e-05 -7.242462e-08
4.277662e-05 -1.674266e-05 -4.279250e-08
4.282089e-05 -1.676096e-05 -4.742247e-08
4.282083e-05 -1.675873e-05 -7.726215e-08
4.278370e-05 -1.674409e-05 -7.402256e-08
4.279480e-05 -1.674984e-05 -4.373137e-08
4.280212e-05 -1.675355e-05 -4.642924e-08
4.280207e-05 -1.675133e-05 -7.563543e-08
4.298561e-05 -1.682319e-05 -9.038162e-08
4.298570e-05 -1.682537e-05 -5.530232e-08
4.294200e-05 -1.680626e-05 -8.716315e-08
4.294204e-05 -1.680857e-05 5.148893e-08
4.345462e-05 -1.699698e-05 -1.043751e-07
4.340313e-05 -1.697811e-05 -1.050170e-07
4.342891e-05 -1.698756e-05 -1.047679e-07
4.342902e-05 -1.698721e-05 -6.362959e-08
4.340320e-05 -1.697793e-05 6.144142e-08
4.386471e-05 -1.714598e-05 -7.234010e-08
4.382746e-05 -1.713267e-05 -7.825659e-08
4.384651e-05 -1.713561e-05 -4.559385e-08
4.384645e-05 -1.713946e-05 -7.537148e-08
4.382747e-05 -1.712889e-05 4.560485e-08
4.403875e-05 -1.721101e-05 1.412170e-09
4.403875e-05 -1.720598e-05 4.697453e-10
4.403708e-05 -1.720946e-05 -6.428906e-09
4.403702e-05 -1.720404e-05 4.157859e-09
4.390818e-05 -1.716923e-05 5.171590e-08
4.393279e-05 -1.717782e-05 4.804608e-08
4.393276e-05 -1.717518e-05 -2.788093e-08
4.365402e-05 -1.707830e-05 6.403149e-08
4.367790e-05 -1.708707e-05 3.747928e-08
4.366990e-05 -1.708422e-05 3.892639e-08
4.368570e-05 -1.708985e-05 6.417721e-08
4.338398e-05 -1.697399e-05 5.575752e-08
4.338401e-05 -1.697468e-05 3.418480e-08
4.341197e-05 -1.698500e-05 5.678428e-08
4.339794e-05 -1.698017e-05 3.449592e-08
4.316521e-05 -1.688784e-05 4.835796e-08
4.316523e-05 -1.688834e-05 2.966060e-08
4.318934e-05 -1.689734e-05 4.910838e-08
4.318932e-05 -1.689787e-05 -2.904761e-08
4.297461e-05 -1.681334e-05 4.251661e-08
4.297463e-05 -1.681387e-05 2.598860e-08
4.299566e-05 -1.682142e-05 4.326833e-08
4.299564e-05 -1.682191e-05 -2.551510e-08
4.281591e-05 -1.675312e-05 3.276850e-08
4.283225e-05 -1.675928e-05 3.427675e-08
4.282898e-05 -1.675869e-05 1.980575e-08
4.282400e-05 -1.675718e-05 2.046315e-08
4.282399e-05 -1.675617e-05 3.353498e-08
4.271689e-05 -1.671619e-05 1.715482e-08
4.271690e-05 -1.671776e-05 1.043432e-08
4.272576e-05 -1.671945e-05 1.943953e-08
4.272572e-05 -1.672099e-05 -1.139327e-08
4.268473e-05 -1.670142e-05 -8.200402e-10
4.268584e-05 -1.670306e-05 1.900504e-10
4.268478e-05 -1.670282e-05 2.386188e-10
4.268502e-05 -1.670224e-05 6.814847e-10
4.269270e-05 -1.669848e-05 -1.182029e-09
4.269220e-05 -1.669905e-05 -2.309430e-09
4.269175e-05 -1.669824e-05 -1.177270e-09
4.269252e-05 -1.669879e-05 -1.787865e-09
4.269252e-05 -1.669803e-05 -7.685431e-10
4.266044e-05 -1.668014e-05 1.958324e-08
4.266044e-05 -1.667767e-05 1.218812e-08
4.266937e-05 -1.668417e-05 1.600947e-08
4.266933e-05 -1.668172e-05 -9.744897e-09
4.253876e-05 -1.664055e-05 4.010563e-08
4.253878e-05 -1.664038e-05 2.378493e-08
4.255731e-05 -1.664595e-05 3.944826e-08
4.255729e-05 -1.664521e-05 -2.247318e-08
4.242032e-05 -1.660951e-05 1.560235e-08
4.242032e-05 -1.661385e-05 8.742005e-09
4.242847e-05 -1.661078e-05 2.158804e-08
4.242845e-05 -1.661466e-05 -1.187326e-08
4.249916e-05 -1.665361e-05 -6.044673e-08
4.249920e-05 -1.666157e-05 -3.729279e-08
4.247220e-05 -1.664220e-05 -4.886613e-08
4.247221e-05 -1.665027e-05 2.942797e-08
4.285904e-05 -1.677853e-05 -1.323621e-07
4.285923e-05 -1.678243e-05 -7.977045e-08
4.279715e-05 -1.675754e-05 -1.260553e-07
4.279732e-05 -1.676250e-05 7.305429e-08
4.339844e-05 -1.696354e-05 -1.314379e-07
4.333331e-05 -1.694130e-05 -1.366576e-07
4.336638e-05 -1.694920e-05 -8.083885e-08
4.333349e-05 -1.693836e-05 7.922266e-08
4.374618e-05 -1.707809e-05 -4.765373e-08
4.371939e-05 -1.706944e-05 -6.248866e-08
4.373367e-05 -1.707401e-05 -5.513737e-08
4.373370e-05 -1.706420e-05 -3.300298e-08
4.371937e-05 -1.705955e-05 3.590253e-08
4.372465e-05 -1.708243e-05 5.581883e-08
4.372469e-05 -1.707574e-05 3.294774e-08
4.374861e-05 -1.708894e-05 4.498686e-08
4.374859e-05 -1.708117e-05 -2.525263e-08
4.340666e-05 -1.698117e-05 9.493677e-08
4.344076e-05 -1.699211e-05 5.533368e-08
4.342968e-05 -1.698856e-05 5.693527e-08
4.345248e-05 -1.699619e-05 9.464863e-08
4.311190e-05 -1.688562e-05 5.832847e-08
4.311194e-05 -1.689134e-05 3.511103e-08
4.314185e-05 -1.689545e-05 6.649159e-08
4.314189e-05 -1.690090e-05 -3.834214e-08
4.301958e-05 -1.684823e-05 -4.876463e-09
4.301958e-05 -1.685385e-05 -2.611867e-09
4.301968e-05 -1.684912e-05 3.705080e-09
4.301966e-05 -1.685516e-05 -2.583490e-09
4.313740e-05 -1.688764e-05 -5.692022e-08
4.313743e-05 -1.689132e-05 -3.451102e-08
4.311111e-05 -1.687824e-05 -5.123612e-08
4.311112e-05 -1.688229e-05 2.987322e-08
4.340899e-05 -1.698723e-05 -8.739364e-08
4.340907e-05 -1.698903e-05 -5.316858e-08
4.336668e-05 -1.697156e-05 -8.456836e-08
4.336674e-05 -1.697366e-05 4.955639e-08
4.375684e-05 -1.711696e-05 -9.658624e-08
4.375694e-05 -1.711691e-05 -5.878102e-08
4.370886e-05 -1.709902e-05 -9.657833e-08
4.370893e-05 -1.709921e-05 5.663996e-08
4.408101e-05 -1.723798e-05 -8.603680e-08
4.408108e-05 -1.723616e-05 -5.229340e-08
4.403731e-05 -1.722171e-05 -8.869200e-08
4.403736e-05 -1.722010e-05 5.195684e-08
4.435055e-05 -1.733743e-05 -5.390300e-08
4.435058e-05 -1.733380e-05 -3.268863e-08
4.432212e-05 -1.732702e-05 -5.936191e-08
4.432212e-05 -1.732348e-05 3.467159e-08
4.446757e-05 -1.738248e-05 -1.149166e-08
4.446757e-05 -1.737854e-05 -7.127103e-09
4.446006e-05 -1.737930e-05 -1.761240e-08
4.446002e-05 -1.737518e-05 1.047853e-08
4.443694e-05 -1.737230e-05 2.817365e-08
4.443695e-05 -1.736891e-05 1.711939e-08
4.444982e-05 -1.737708e-05 2.287387e-08
4.444979e-05 -1.737350e-05 -1.337194e-08
4.427606e-05 -1.731118e-05 6.176577e-08
4.427610e-05 -1.730839e-05 3.765012e-08
4.430614e-05 -1.732266e-05 5.736458e-08
4.430615e-05 -1.731968e-05 -3.371066e-08
4.399341e-05 -1.720686e-05 8.528691e-08
4.399349e-05 -1.720599e-05 5.160409e-08
4.403534e-05 -1.722189e-05 8.359743e-08
4.403539e-05 -1.722059e-05 -4.873152e-08
4.370006e-05 -1.710237e-05 7.907811e-08
4.370013e-05 -1.710452e-05 4.780078e-08
4.373968e-05 -1.711639e-05 8.194527e-08
4.373973e-05 -1.711815e-05 -4.771113e-08
4.348660e-05 -1.702924e-05 4.064282e-08
4.348662e-05 -1.703439e-05 2.429087e-08
4.350802e-05 -1.703616e-05 4.808138e-08
4.350804e-05 -1.704104e-05 -2.772779e-08
4.345124e-05 -1.701744e-05 -2.045101e-08
4.345125e-05 -1.702295e-05 -1.180462e-08
4.344387e-05 -1.701606e-05 -1.194809e-08
4.344388e-05 -1.702205e-05 6.545053e-09
4.359058e-05 -1.705522e-05 -5.552963e-08
4.359061e-05 -1.705604e-05 -3.294120e-08
4.356448e-05 -1.704755e-05 -5.375700e-08
4.356450e-05 -1.704916e-05 3.058981e-08
4.374984e-05 -1.710110e-05 -3.921848e-08
4.374986e-05 -1.709700e-05 -2.294370e-08
4.372993e-05 -1.709584e-05 -4.488445e-08
4.372993e-05 -1.709240e-05 2.534246e-08
4.377376e-05 -1.709631e-05 2.865389e-08
4.377376e-05 -1.708853e-05 1.764146e-08
4.378556e-05 -1.710173e-05 1.694049e-08
4.378552e-05 -1.709379e-05 -1.051084e-08
4.354735e-05 -1.702142e-05 9.757870e-08
4.354746e-05 -1.701733e-05 5.857979e-08
4.359310e-05 -1.703659e-05 9.066775e-08
4.359317e-05 -1.703152e-05 -5.227960e-08
4.320338e-05 -1.690482e-05 1.119524e-07
4.320352e-05 -1.690612e-05 6.742333e-08
4.325784e-05 -1.692335e-05 1.131640e-07
4.325797e-05 -1.692384e-05 -6.558488e-08
4.288219e-05 -1.679793e-05 7.004777e-08
4.288225e-05 -1.680450e-05 4.203497e-08
4.291779e-05 -1.680949e-05 7.931504e-08
4.291787e-05 -1.681566e-05 -4.574813e-08
4.276553e-05 -1.675044e-05 -1.737551e-09
4.276553e-05 -1.675650e-05 -1.740584e-10
4.276787e-05 -1.675334e-05 7.646558e-09
4.276788e-05 -1.676013e-05 -5.389698e-09
4.283647e-05 -1.676388e-05 -4.028298e-08
4.282496e-05 -1.676253e-05 -2.208970e-08
4.282732e-05 -1.676361e-05 -2.282502e-08
4.281854e-05 -1.675909e-05 -3.702540e-08
4.296498e-05 -1.679977e-05 -3.756993e-08
4.296499e-05 -1.679737e-05 -2.209408e-08
4.294672e-05 -1.679482e-05 -4.067857e-08
4.294673e-05 -1.679301e-05 2.301689e-08
4.302516e-05 -1.681434e-05 4.513684e-09
4.302554e-05 -1.681430e-05 -2.696607e-09
4.302123e-05 -1.680958e-05 -5.319912e-10
4.302576e-05 -1.681442e-05 8.981319e-10
4.302576e-05 -1.680955e-05 4.926746e-10
4.294421e-05 -1.678906e-05 4.500666e-08
4.294423e-05 -1.678590e-05 2.709541e-08
4.296462e-05 -1.679591e-05 4.002195e-08
4.296462e-05 -1.679230e-05 -2.312285e-08
4.276651e-05 -1.672690e-05 6.495327e-08
4.278211e-05 -1.673132e-05 3.886159e-08
4.279742e-05 -1.673786e-05 6.328030e-08
4.279745e-05 -1.673655e-05 -3.688138e-08
4.254451e-05 -1.664752e-05 6.318102e-08
4.254455e-05 -1.664871e-05 3.840766e-08
4.257528e-05 -1.665866e-05 6.472472e-08
4.257532e-05 -1.665965e-05 -3.783809e-08
4.236860e-05 -1.658089e-05 4.763714e-08
4.239234e-05 -1.659006e-05 5.037582e-08
4.238033e-05 -1.658729e-05 3.002599e-08
4.238031e-05 -1.658541e-05 4.901317e-08
4.239237e-05 -1.659198e-05 -2.974547e-08
4.224796e-05 -1.653431e-05 2.888610e-08
4.226262e-05 -1.653995e-05 3.186886e-08
4.224797e-05 -1.653636e-05 1.768652e-08
4.225511e-05 -1.653706e-05 3.038210e-08
4.225512e-05 -1.653910e-05 1.860465e-08
4.218892e-05 -1.651180e-05 8.582831e-09
4.218892e-05 -1.651400e-05 5.240514e-09
4.219382e-05 -1.651365e-05 1.179960e-08
4.219382e-05 -1.651590e-05 -6.944030e-09
4.219285e-05 -1.651162e-05 -1.073657e-08
4.218859e-05 -1.651063e-05 -8.196634e-09
4.218859e-05 -1.651251e-05 4.569264e-09
4.219057e-05 -1.651108e-05 -9.496992e-09
4.219057e-05 -1.651283e-05 -5.539527e-09
4.224131e-05 -1.652501e-05 -1.920428e-08
4.224132e-05 -1.652507e-05 -1.139866e-08
4.223250e-05 -1.652245e-05 -1.892895e-08
4.223250e-05 -1.652278e-05 1.078049e-08
4.229123e-05 -1.653875e-05 -1.151064e-08
4.229123e-05 -1.653708e-05 -6.671340e-09
4.228551e-05 -1.653741e-05 -1.377179e-08
4.228551e-05 -1.653596e-05 7.722860e-09
4.229323e-05 -1.653573e-05 1.054399e-08
4.229323e-05 -1.653329e-05 6.258910e-09
4.229739e-05 -1.653725e-05 6.884140e-09
4.229737e-05 -1.653456e-05 -4.116636e-09
4.224600e-05 -1.653278e-05 1.739606e-08
4.224601e-05 -1.653458e-05 9.234874e-09
4.225339e-05 -1.653240e-05 1.934393e-08
4.225340e-05 -1.653327e-05 -9.924964e-09
4.226261e-05 -1.656252e-05 -3.236478e-08
4.226262e-05 -1.657171e-05 -2.186310e-08
4.224810e-05 -1.655278e-05 -1.993483e-08
4.224811e-05 -1.656073e-05 1.369951e-08
4.257891e-05 -1.671316e-05 -1.858871e-07
4.249989e-05 -1.668458e-05 -1.563030e-07
4.254382e-05 -1.671551e-05 -9.829551e-08
4.253835e-05 -1.669973e-05 -1.716528e-07
4.253856e-05 -1.672177e-05 -1.067212e-07
4.250043e-05 -1.670776e-05 9.539946e-08
4.219285e-05 -1.651327e-05 -6.275193e-09
4.226263e-05 -1.654203e-05 -1.881420e-08
4.276655e-05 -1.672597e-05 3.933675e-08
4.302551e-05 -1.680933e-05 1.525437e-09
4.281855e-05 -1.676169e-05 2.085762e-08
4.345255e-05 -1.699561e-05 -5.457300e-08
4.374621e-05 -1.706813e-05 -2.861868e-08
4.339862e-05 -1.695970e-05 -7.912127e-08
4.269216e-05 -1.669837e-05 1.009344e-09
4.268498e-05 -1.670337e-05 -7.188506e-10
4.283222e-05 -1.676028e-05 -2.015880e-08
4.341196e-05 -1.698572e-05 -3.357278e-08
4.368570e-05 -1.708986e-05 -3.748809e-08
4.390820e-05 -1.716700e-05 3.121249e-08
4.386476e-05 -1.714193e-05 -4.374053e-08
4.345474e-05 -1.699644e-05 -6.338629e-08
4.279483e-05 -1.675085e-05 -1.765680e-08
4.278376e-05 -1.674629e-05 -4.544330e-08
4.277664e-05 -1.674366e-05 -1.728075e-08
4.276579e-05 -1.673918e-05 -4.446561e-08
4.275885e-05 -1.673662e-05 -1.690775e-08
4.274822e-05 -1.673223e-05 -4.349682e-08
4.274146e-05 -1.672973e-05 -1.653807e-08
4.273104e-05 -1.672542e-05 -4.253731e-08
4.272445e-05 -1.672299e-05 -1.617189e-08
4.271425e-05 -1.671877e-05 -4.158732e-08
4.270784e-05 -1.671641e-05 -1.580930e-08
4.269784e-05 -1.671227e-05 -4.064695e-08
4.269160e-05 -1.670997e-05 -1.545037e-08
4.268182e-05 -1.670592e-05 -3.971624e-08
4.266616e-05 -1.669972e-05 -3.879514e-08
4.267574e-05 -1.670369e-05 -1.509509e-08
4.267572e-05 -1.670275e-05 -3.735249e-08
4.265088e-05 -1.669366e-05 -3.788361e-08
4.266025e-05 -1.669754e-05 -1.474347e-08
4.266024e-05 -1.669661e-05 -3.647845e-08
4.264514e-05 -1.669155e-05 -1.439548e-08
4.263597e-05 -1.668774e-05 -3.698158e-08
4.262141e-05 -1.668197e-05 -3.608898e-08
4.263038e-05 -1.668569e-05 -1.405112e-08
4.263037e-05 -1.668478e-05 -3.475777e-08
4.261599e-05 -1.667998e-05 -1.371034e-08
4.260722e-05 -1.667634e-05 -3.520573e-08
4.259338e-05 -1.667084e-05 -3.433176e-08
4.260196e-05 -1.667441e-05 -1.337312e-08
4.260194e-05 -1.667352e-05 -3.307311e-08
4.258828e-05 -1.666897e-05 -1.303945e-08
4.257989e-05 -1.666549e-05 -3.346701e-08
4.257494e-05 -1.666368e-05 -1.270928e-08
4.256674e-05 -1.666026e-05 -3.261144e-08
4.256195e-05 -1.665851e-05 -1.238262e-08
4.255394e-05 -1.665518e-05 -3.176497e-08
4.254930e-05 -1.665348e-05 -1.205942e-08
4.254148e-05 -1.665022e-05 -3.092756e-08
4.253699e-05 -1.664858e-05 -1.173966e-08
4.252935e-05 -1.664540e-05 -3.009915e-08
4.252501e-05 -1.664382e-05 -1.142333e-08
4.251755e-05 -1.664070e-05 -2.927969e-08
4.251336e-05 -1.663918e-05 -1.111039e-08
4.250608e-05 -1.663614e-05 -2.846909e-08
4.250203e-05 -1.663467e-05 -1.080080e-08
4.249494e-05 -1.663170e-05 -2.766725e-08
4.248411e-05 -1.662738e-05 -2.687407e-08
4.249103e-05 -1.663028e-05 -1.049451e-08
4.249102e-05 -1.662947e-05 -2.592523e-08
4.247360e-05 -1.662319e-05 -2.608935e-08
4.248034e-05 -1.662602e-05 -1.019144e-08
4.248033e-05 -1.662522e-05 -2.517366e-08
4.246997e-05 -1.662188e-05 -9.891507e-09
4.246340e-05 -1.661912e-05 -2.531287e-08
4.245351e-05 -1.661518e-05 -2.454433e-08
4.245991e-05 -1.661787e-05 -9.594584e-09
4.245990e-05 -1.661709e-05 -2.369487e-08
4.245015e-05 -1.661397e-05 -9.300513e-09
4.244392e-05 -1.661135e-05 -2.378333e-08
4.243464e-05 -1.660765e-05 -2.302938e-08
4.244070e-05 -1.661020e-05 -9.009096e-09
4.244070e-05 -1.660944e-05 -2.224691e-08
4.243155e-05 -1.660655e-05 -8.720083e-09
4.242566e-05 -1.660407e-05 -2.228187e-08
4.242271e-05 -1.660303e-05 -8.433196e-09
4.241697e-05 -1.660061e-05 -2.154009e-08
4.241415e-05 -1.659962e-05 -8.148126e-09
4.240858e-05 -1.659727e-05 -2.080326e-08
4.240590e-05 -1.659633e-05 -7.864575e-09
4.240048e-05 -1.659405e-05 -2.007062e-08
4.239794e-05 -1.659317e-05 -7.582290e-09
4.239268e-05 -1.659095e-05 -1.934154e-08
4.239027e-05 -1.659013e-05 -7.301122e-09
4.238516e-05 -1.658797e-05 -1.861561e-08
4.238289e-05 -1.658721e-05 -7.021034e-09
4.237793e-05 -1.658512e-05 -1.789266e-08
4.237580e-05 -1.658442e-05 -6.742068e-09
4.237100e-05 -1.658239e-05 -1.717264e-08
4.236434e-05 -1.657978e-05 -1.645543e-08
4.236900e-05 -1.658174e-05 -6.464261e-09
4.236900e-05 -1.658102e-05 -1.600478e-08
4.235798e-05 -1.657729e-05 -1.574065e-08
4.236249e-05 -1.657919e-05 -6.187600e-09
4.236249e-05 -1.657847e-05 -1.532760e-08
4.235627e-05 -1.657676e-05 -5.911953e-09
4.235190e-05 -1.657492e-05 -1.502773e-08
4.234610e-05 -1.657266e-05 -1.431590e-08
4.235033e-05 -1.657445e-05 -5.637090e-09
4.235033e-05 -1.657373e-05 -1.397675e-08
4.234467e-05 -1.657225e-05 -5.362717e-09
4.234058e-05 -1.657052e-05 -1.360441e-08
4.233534e-05 -1.656849e-05 -1.289253e-08
4.233930e-05 -1.657017e-05 -5.088527e-09
4.233930e-05 -1.656945e-05 -1.262606e-08
4.233421e-05 -1.656820e-05 -4.814238e-09
4.233039e-05 -1.656658e-05 -1.217965e-08
4.232940e-05 -1.656634e-05 -4.539599e-09
4.232572e-05 -1.656478e-05 -1.146525e-08
4.232488e-05 -1.656460e-05 -4.264405e-09
4.232133e-05 -1.656309e-05 -1.074895e-08
4.232064e-05 -1.656297e-05 -3.988498e-09
4.231723e-05 -1.656151e-05 -1.003043e-08
4.231669e-05 -1.656145e-05 -3.711750e-09
4.231341e-05 -1.656005e-05 -9.309462e-09
4.231302e-05 -1.656004e-05 -3.434065e-09
4.230988e-05 -1.655869e-05 -8.585876e-09
4.230963e-05 -1.655875e-05 -3.155377e-09
4.230664e-05 -1.655745e-05 -7.859552e-09
4.230654e-05 -1.655757e-05 -2.875634e-09
4.230368e-05 -1.655633e-05 -7.130401e-09
4.230101e-05 -1.655531e-05 -6.398357e-09
4.230373e-05 -1.655650e-05 -2.594798e-09
4.230373e-05 -1.655576e-05 -6.457411e-09
4.229863e-05 -1.655441e-05 -5.663371e-09
4.230121e-05 -1.655555e-05 -2.312840e-09
4.230121e-05 -1.655480e-05 -5.759112e-09
4.229899e-05 -1.655471e-05 -2.029741e-09
4.229654e-05 -1.655363e-05 -4.925400e-09
4.229475e-05 -1.655295e-05 -4.184409e-09
4.229705e-05 -1.655398e-05 -1.745482e-09
4.229705e-05 -1.655323e-05 -4.354027e-09
4.229541e-05 -1.655337e-05 -1.460046e-09
4.229325e-05 -1.655239e-05 -3.440358e-09
4.229204e-05 -1.655195e-05 -2.693210e-09
4.229406e-05 -1.655287e-05 -1.173416e-09
4.229406e-05 -1.655211e-05 -2.937431e-09
4.229300e-05 -1.655249e-05 -8.855756e-10
4.229113e-05 -1.655163e-05 -1.942923e-09
4.229225e-05 -1.655222e-05 -5.965082e-10
4.229051e-05 -1.655142e-05 -1.189449e-09
4.229179e-05 -1.655207e-05 -3.061936e-10
4.229019e-05 -1.655132e-05 -4.327381e-10
4.229163e-05 -1.655204e-05 -1.461828e-11
4.229018e-05 -1.655135e-05 3.272576e-10
4.229176e-05 -1.655213e-05 2.782370e-10
4.229046e-05 -1.655149e-05 1.090585e-09
4.229220e-05 -1.655233e-05 5.723799e-10
4.229104e-05 -1.655175e-05 1.857276e-09
4.229295e-05 -1.655265e-05 8.678075e-10
4.229193e-05 -1.655213e-05 2.627332e-09
4.229400e-05 -1.655310e-05 1.164500e-09
4.229313e-05 -1.655262e-05 3.400719e-09
4.229462e-05 -1.655324e-05 4.177327e-09
4.229535e-05 -1.655366e-05 1.462405e-09
4.229535e-05 -1.655287e-05 3.588769e-09
4.229643e-05 -1.655398e-05 4.956942e-09
4.229701e-05 -1.655434e-05 1.761428e-09
4.229701e-05 -1.655355e-05 4.330019e-09
4.229897e-05 -1.655514e-05 2.061411e-09
4.229854e-05 -1.655483e-05 5.739192e-09
4.230097e-05 -1.655581e-05 6.523496e-09
4.230125e-05 -1.655605e-05 2.362104e-09
4.230125e-05 -1.655526e-05 5.821557e-09
4.230383e-05 -1.655709e-05 2.663143e-09
4.230370e-05 -1.655690e-05 7.308967e-09
4.230674e-05 -1.655810e-05 8.094334e-09
4.230673e-05 -1.655824e-05 2.963999e-09
4.230673e-05 -1.655744e-05 7.322379e-09
4.230993e-05 -1.655951e-05 3.263940e-09
4.231009e-05 -1.655942e-05 8.877813e-09
4.231344e-05 -1.656088e-05 3.561983e-09
4.231375e-05 -1.656085e-05 9.656997e-09
4.231725e-05 -1.656236e-05 3.856854e-09
4.231771e-05 -1.656238e-05 1.042874e-08
4.232136e-05 -1.656393e-05 4.146952e-09
4.232198e-05 -1.656401e-05 1.118908e-08
4.232576e-05 -1.656560e-05 4.430355e-09
4.232654e-05 -1.656572e-05 1.193322e-08
4.233045e-05 -1.656734e-05 4.704903e-09
4.233139e-05 -1.656751e-05 1.265576e-08
4.233541e-05 -1.656914e-05 4.968361e-09
4.233651e-05 -1.656936e-05 1.335106e-08
4.234190e-05 -1.657126e-05 1.401396e-08
4.234064e-05 -1.657100e-05 5.218707e-09
4.234063e-05 -1.657029e-05 1.315050e-08
4.234754e-05 -1.657320e-05 1.464074e-08
4.234610e-05 -1.657289e-05 5.454507e-09
4.234610e-05 -1.657222e-05 1.380167e-08
4.235180e-05 -1.657481e-05 5.675154e-09
4.235342e-05 -1.657516e-05 1.522952e-08
4.235771e-05 -1.657674e-05 5.880761e-09
4.235950e-05 -1.657713e-05 1.577981e-08
4.236580e-05 -1.657912e-05 1.629118e-08
4.236381e-05 -1.657868e-05 6.071754e-09
4.236381e-05 -1.657812e-05 1.555138e-08
4.237010e-05 -1.658063e-05 6.248298e-09
4.237228e-05 -1.658112e-05 1.676189e-08
4.237893e-05 -1.658313e-05 1.718836e-08
4.237656e-05 -1.658258e-05 6.409850e-09
4.237655e-05 -1.658211e-05 1.651670e-08
4.238574e-05 -1.658515e-05 1.756548e-08
4.238317e-05 -1.658454e-05 6.555026e-09
4.238317e-05 -1.658413e-05 1.692702e-08
4.239269e-05 -1.658719e-05 1.788755e-08
4.238992e-05 -1.658651e-05 6.681827e-09
4.238991e-05 -1.658616e-05 1.728243e-08
4.239679e-05 -1.658849e-05 6.787988e-09
4.239975e-05 -1.658925e-05 1.814901e-08
4.240375e-05 -1.659049e-05 6.871290e-09
4.240690e-05 -1.659131e-05 1.834491e-08
4.241079e-05 -1.659249e-05 6.929732e-09
4.241412e-05 -1.659339e-05 1.847106e-08
4.241787e-05 -1.659449e-05 6.961627e-09
4.242137e-05 -1.659547e-05 1.852407e-08
4.242863e-05 -1.659754e-05 1.850129e-08
4.242497e-05 -1.659649e-05 6.965589e-09
4.242497e-05 -1.659651e-05 1.808645e-08
4.243587e-05 -1.659959e-05 1.840062e-08
4.243207e-05 -1.659847e-05 6.940516e-09
4.243206e-05 -1.659857e-05 1.803191e-08
4.243912e-05 -1.660044e-05 6.885551e-09
4.244305e-05 -1.660162e-05 1.822049e-08
4.244610e-05 -1.660237e-05 6.800024e-09
4.245014e-05 -1.660361e-05 1.795964e-08
4.245712e-05 -1.660555e-05 1.761707e-08
4.245298e-05 -1.660426e-05 6.683399e-09
4.245297e-05 -1.660460e-05 1.740867e-08
4.245972e-05 -1.660609e-05 6.535251e-09
4.246394e-05 -1.660743e-05 1.719196e-08
4.246629e-05 -1.660785e-05 6.355234e-09
4.247059e-05 -1.660923e-05 1.668359e-08
4.247701e-05 -1.661094e-05 1.609131e-08
4.247267e-05 -1.660953e-05 6.143046e-09
4.247266e-05 -1.661013e-05 1.607996e-08
4.248318e-05 -1.661256e-05 1.541457e-08
4.247880e-05 -1.661112e-05 5.898445e-09
4.247880e-05 -1.661180e-05 1.547747e-08
4.248907e-05 -1.661406e-05 1.465292e-08
4.248467e-05 -1.661260e-05 5.621252e-09
4.248467e-05 -1.661337e-05 1.479426e-08
4.249024e-05 -1.661396e-05 5.311379e-09
4.249465e-05 -1.661543e-05 1.380609e-08
4.249547e-05 -1.661518e-05 4.968886e-09
4.249987e-05 -1.661667e-05 1.287414e-08
4.250034e-05 -1.661626e-05 4.594057e-09
4.250471e-05 -1.661776e-05 1.185767e-08
4.250480e-05 -1.661718e-05 4.187536e-09
4.250913e-05 -1.661868e-05 1.075812e-08
4.251310e-05 -1.661944e-05 9.578162e-09
4.250882e-05 -1.661794e-05 3.750493e-09
4.250882e-05 -1.661914e-05 1.015483e-08
4.251660e-05 -1.662003e-05 8.322344e-09
4.251239e-05 -1.661853e-05 3.284852e-09
4.251239e-05 -1.661982e-05 8.984894e-09
4.251546e-05 -1.661896e-05 2.793606e-09
4.251959e-05 -1.662045e-05 6.997812e-09
4.251802e-05 -1.661921e-05 2.281227e-09
4.252205e-05 -1.662070e-05 5.615326e-09
4.252396e-05 -1.662081e-05 4.190503e-09
4.252004e-05 -1.661932e-05 1.754139e-09
4.252004e-05 -1.662082e-05 5.046182e-09
4.252153e-05 -1.661931e-05 1.221342e-09
4.252532e-05 -1.662080e-05 2.745348e-09
4.252248e-05 -1.661921e-05 6.950952e-10
4.252611e-05 -1.662070e-05 1.310013e-09
4.252635e-05 -1.662059e-05 -7.527416e-11
4.252291e-05 -1.661909e-05 1.916625e-10
4.252291e-05 -1.662063e-05 7.071174e-10
4.252607e-05 -1.662055e-05 -1.358371e-09
4.252286e-05 -1.661902e-05 -2.679863e-10
4.252286e-05 -1.662050e-05 -7.192238e-10
4.252533e-05 -1.662067e-05 -2.473904e-09
4.252239e-05 -1.661911e-05 -6.576899e-10
4.252239e-05 -1.662047e-05 -2.066967e-09
4.252160e-05 -1.661948e-05 -9.461958e-10
4.252420e-05 -1.662109e-05 -3.343363e-09
4.252062e-05 -1.662032e-05 -1.098439e-09
4.252281e-05 -1.662199e-05 -3.878166e-09
4.251962e-05 -1.662179e-05 -1.079307e-09
4.252130e-05 -1.662353e-05 -3.988349e-09
4.251879e-05 -1.662410e-05 -8.630318e-10
4.251990e-05 -1.662594e-05 -3.599065e-09
4.251886e-05 -1.662943e-05 -2.684922e-09
4.251835e-05 -1.662742e-05 -4.428575e-10
4.251840e-05 -1.662709e-05 -5.258729e-09
4.252189e-05 -1.664249e-05 -2.035491e-09
4.251849e-05 -1.663210e-05 2.441689e-10
4.251867e-05 -1.663105e-05 -4.662896e-09
4.252464e-05 -1.664673e-05 -1.001968e-10
4.252005e-05 -1.663889e-05 -1.458414e-09
4.251678e-05 -1.664023e-05 -1.674482e-09
4.252001e-05 -1.663911e-05 1.301884e-09
4.281339e-05 -1.675718e-05 -4.467877e-08
4.280471e-05 -1.675455e-05 1.014236e-08
4.284007e-05 -1.676853e-05 -4.842155e-08
4.283238e-05 -1.676467e-05 -4.563394e-08
4.282351e-05 -1.676197e-05 1.036295e-08
4.285177e-05 -1.677231e-05 -4.659556e-08
4.284271e-05 -1.676955e-05 1.058583e-08
4.287965e-05 -1.678411e-05 -5.042827e-08
4.287157e-05 -1.678010e-05 -4.756189e-08
4.286232e-05 -1.677727e-05 1.081097e-08
4.289178e-05 -1.678804e-05 -4.853062e-08
4.288233e-05 -1.678514e-05 1.103808e-08
4.292082e-05 -1.680030e-05 5.054599e-08
4.292356e-05 -1.680129e-05 1.149633e-08
4.295486e-05 -1.681367e-05 -2.067349e-08
4.295482e-05 -1.681265e-05 -5.141465e-08
4.291240e-05 -1.679612e-05 -4.949859e-08
4.290274e-05 -1.679315e-05 1.126666e-08
4.252028e-05 -1.663666e-05 3.121777e-09
4.297661e-05 -1.682109e-05 -5.235256e-08
4.296637e-05 -1.681791e-05 1.195632e-08
4.251921e-05 -1.663471e-05 2.130189e-09
4.251857e-05 -1.663102e-05 4.555952e-09
4.251832e-05 -1.662743e-05 -1.879987e-10
4.299877e-05 -1.682961e-05 -5.326952e-08
4.298834e-05 -1.682637e-05 1.218373e-08
4.251832e-05 -1.662713e-05 5.108164e-09
4.251864e-05 -1.662406e-05 2.100758e-10
4.302128e-05 -1.683821e-05 -5.415988e-08
4.301066e-05 -1.683491e-05 1.240770e-08
4.251864e-05 -1.662425e-05 5.146118e-09
4.304414e-05 -1.684687e-05 -5.501904e-08
4.303333e-05 -1.684351e-05 1.262672e-08
4.307732e-05 -1.685998e-05 -5.870229e-08
4.251850e-05 -1.662269e-05 1.780673e-09
4.251940e-05 -1.662233e-05 4.786269e-09
4.306731e-05 -1.685559e-05 -5.584340e-08
4.305633e-05 -1.685216e-05 1.283897e-08
4.310105e-05 -1.686876e-05 -5.945767e-08
4.251924e-05 -1.662082e-05 1.488779e-09
4.252035e-05 -1.662118e-05 4.085792e-09
4.309080e-05 -1.686435e-05 -5.662967e-08
4.307963e-05 -1.686086e-05 1.304275e-08
4.252011e-05 -1.661969e-05 1.145989e-09
4.252130e-05 -1.662059e-05 3.118819e-09
4.252207e-05 -1.661900e-05 3.933156e-10
4.311458e-05 -1.687315e-05 -5.737396e-08
4.310324e-05 -1.686959e-05 1.323636e-08
4.314941e-05 -1.688648e-05 -6.084047e-08
4.252207e-05 -1.662037e-05 1.959937e-09
4.313864e-05 -1.688201e-05 -5.807141e-08
4.312712e-05 -1.687837e-05 1.341808e-08
4.252153e-05 -1.661891e-05 3.838610e-10
4.252253e-05 -1.662039e-05 6.753144e-10
4.252258e-05 -1.661898e-05 -1.142949e-10
4.316297e-05 -1.689092e-05 -5.871627e-08
4.315128e-05 -1.688720e-05 1.358630e-08
4.319884e-05 -1.690441e-05 -6.201487e-08
4.252258e-05 -1.662051e-05 -6.803112e-10
4.252216e-05 -1.661910e-05 -4.373456e-10
4.318755e-05 -1.689989e-05 -5.930260e-08
4.317569e-05 -1.689607e-05 1.373953e-08
4.252216e-05 -1.662064e-05 -2.063729e-09
4.321236e-05 -1.690891e-05 -5.982479e-08
4.320034e-05 -1.690500e-05 1.387654e-08
4.252097e-05 -1.661917e-05 -7.693190e-10
4.252122e-05 -1.662072e-05 -3.442045e-09
4.251975e-05 -1.661922e-05 -1.139709e-09
4.323737e-05 -1.691800e-05 -6.027796e-08
4.322521e-05 -1.691397e-05 1.399635e-08
4.251975e-05 -1.662070e-05 -4.791002e-09
4.326257e-05 -1.692713e-05 -6.065809e-08
4.325026e-05 -1.692300e-05 1.409824e-08
4.251809e-05 -1.661920e-05 -1.471397e-09
4.251773e-05 -1.662053e-05 -6.093243e-09
4.251519e-05 -1.661886e-05 -1.845813e-09
4.328792e-05 -1.693631e-05 -6.096200e-08
4.327548e-05 -1.693208e-05 1.418167e-08
4.251519e-05 -1.662020e-05 -7.336736e-09
4.331339e-05 -1.694553e-05 -6.118728e-08
4.330084e-05 -1.694120e-05 1.424627e-08
4.251309e-05 -1.661869e-05 -2.097579e-09
4.251214e-05 -1.661971e-05 -8.513456e-09
4.250859e-05 -1.661786e-05 -2.504010e-09
4.333895e-05 -1.695478e-05 -6.133217e-08
4.332630e-05 -1.695034e-05 1.429179e-08
4.337739e-05 -1.696867e-05 6.150735e-08
4.250859e-05 -1.661904e-05 -9.618277e-09
4.250458e-05 -1.661711e-05 -2.806309e-09
4.341588e-05 -1.698247e-05 -2.428008e-08
4.341583e-05 -1.698259e-05 -6.127230e-08
4.336456e-05 -1.696405e-05 -6.139533e-08
4.335184e-05 -1.695951e-05 1.431791e-08
4.337744e-05 -1.696868e-05 -6.385369e-08
4.339026e-05 -1.697329e-05 -2.432447e-08
4.250458e-05 -1.661820e-05 -1.064815e-08
4.250191e-05 -1.661668e-05 -2.886143e-09
4.250013e-05 -1.661720e-05 -1.160143e-08
4.344141e-05 -1.699184e-05 -6.108532e-08
4.342855e-05 -1.698705e-05 1.428072e-08
4.249730e-05 -1.661569e-05 -3.109217e-09
4.249528e-05 -1.661604e-05 -1.247742e-08
4.346691e-05 -1.700106e-05 -6.081433e-08
4.345403e-05 -1.699619e-05 1.422913e-08
4.249230e-05 -1.661454e-05 -3.312855e-09
4.249007e-05 -1.661474e-05 -1.327603e-08
4.248452e-05 -1.661254e-05 -3.802243e-09
4.349229e-05 -1.701023e-05 -6.045885e-08
4.347942e-05 -1.700529e-05 1.415799e-08
4.248451e-05 -1.661330e-05 -1.399748e-08
4.351751e-05 -1.701934e-05 -6.001863e-08
4.350467e-05 -1.701434e-05 1.406743e-08
4.355622e-05 -1.703282e-05 -6.152880e-08
4.248129e-05 -1.661184e-05 -3.662915e-09
4.247866e-05 -1.661174e-05 -1.464222e-08
4.247254e-05 -1.660949e-05 -4.165625e-09
4.354254e-05 -1.702837e-05 -5.949354e-08
4.352974e-05 -1.702333e-05 1.395731e-08
4.358107e-05 -1.704171e-05 -6.084215e-08
4.247254e-05 -1.661007e-05 -1.521076e-08
4.246618e-05 -1.660781e-05 -4.313487e-09
4.356735e-05 -1.703732e-05 -5.888342e-08
4.355461e-05 -1.703223e-05 1.382758e-08
4.246618e-05 -1.660832e-05 -1.570364e-08
4.359189e-05 -1.704616e-05 -5.818810e-08
4.357923e-05 -1.704103e-05 1.367821e-08
4.246271e-05 -1.660696e-05 -4.048289e-09
4.245962e-05 -1.660647e-05 -1.612138e-08
4.245289e-05 -1.660423e-05 -4.542380e-09
4.361613e-05 -1.705489e-05 -5.740740e-08
4.360357e-05 -1.704972e-05 1.350916e-08
4.245289e-05 -1.660456e-05 -1.646453e-08
4.364003e-05 -1.706348e-05 -5.654113e-08
4.362758e-05 -1.705829e-05 1.332038e-08
4.244935e-05 -1.660330e-05 -4.213809e-09
4.244603e-05 -1.660260e-05 -1.673365e-08
4.243906e-05 -1.660042e-05 -4.683937e-09
4.366356e-05 -1.707193e-05 -5.558910e-08
4.365124e-05 -1.706672e-05 1.311183e-08
4.243906e-05 -1.660059e-05 -1.692934e-08
4.368667e-05 -1.708022e-05 -5.455110e-08
4.367451e-05 -1.707500e-05 1.288346e-08
4.243550e-05 -1.659945e-05 -4.307059e-09
4.243202e-05 -1.659855e-05 -1.705233e-08
4.242495e-05 -1.659648e-05 -4.741291e-09
4.370934e-05 -1.708832e-05 -5.342691e-08
4.369734e-05 -1.708310e-05 1.263518e-08
4.242494e-05 -1.659649e-05 -1.710356e-08
4.241786e-05 -1.659449e-05 -4.739866e-09
4.373151e-05 -1.709624e-05 -5.221632e-08
4.371971e-05 -1.709102e-05 1.236695e-08
4.376654e-05 -1.710764e-05 -5.211915e-08
4.241785e-05 -1.659442e-05 -1.708422e-08
4.375316e-05 -1.710395e-05 -5.091916e-08
4.374156e-05 -1.709874e-05 1.207869e-08
4.378750e-05 -1.711501e-05 -5.062274e-08
4.241439e-05 -1.659349e-05 -4.312930e-09
4.241078e-05 -1.659234e-05 -1.699591e-08
4.377424e-05 -1.711144e-05 -4.953533e-08
4.376287e-05 -1.710625e-05 1.177031e-08
4.380779e-05 -1.712202e-05 4.722125e-08
4.240737e-05 -1.659149e-05 -4.279759e-09
4.240376e-05 -1.659028e-05 -1.684073e-08
4.380371e-05 -1.712057e-05 1.109272e-08
4.383376e-05 -1.713073e-05 -1.765658e-08
4.383374e-05 -1.713245e-05 -4.486315e-08
4.379473e-05 -1.711870e-05 -4.806472e-08
4.378360e-05 -1.711353e-05 1.144164e-08
4.240042e-05 -1.658950e-05 -4.229506e-09
4.239681e-05 -1.658822e-05 -1.662137e-08
4.238996e-05 -1.658652e-05 -4.556643e-09
4.238995e-05 -1.658617e-05 -1.634118e-08
4.385219e-05 -1.713892e-05 -4.313335e-08
4.384191e-05 -1.713387e-05 1.033441e-08
4.388225e-05 -1.714796e-05 -4.180134e-08
4.238678e-05 -1.658554e-05 -4.079863e-09
4.238322e-05 -1.658415e-05 -1.600421e-08
4.237662e-05 -1.658260e-05 -4.378702e-09
4.386989e-05 -1.714510e-05 -4.131877e-08
4.385993e-05 -1.714010e-05 9.924400e-09
4.237662e-05 -1.658213e-05 -1.561499e-08
4.388681e-05 -1.715098e-05 -3.942084e-08
4.387718e-05 -1.714604e-05 9.494048e-09
4.237365e-05 -1.658163e-05 -3.870188e-09
4.237017e-05 -1.658013e-05 -1.517831e-08
4.236389e-05 -1.657871e-05 -4.158984e-09
4.390290e-05 -1.715655e-05 -3.744195e-08
4.389364e-05 -1.715168e-05 9.043597e-09
4.236389e-05 -1.657815e-05 -1.469870e-08
4.391815e-05 -1.716181e-05 -3.538552e-08
4.390926e-05 -1.715701e-05 8.573243e-09
4.236114e-05 -1.657774e-05 -3.609928e-09
4.235779e-05 -1.657617e-05 -1.418002e-08
4.235189e-05 -1.657484e-05 -3.900975e-09
4.393252e-05 -1.716676e-05 -3.325626e-08
4.392401e-05 -1.716204e-05 8.083458e-09
4.235189e-05 -1.657420e-05 -1.362545e-08
4.394599e-05 -1.717139e-05 -3.106031e-08
4.393788e-05 -1.716675e-05 7.574988e-09
4.234938e-05 -1.657389e-05 -3.310480e-09
4.234620e-05 -1.657225e-05 -1.303787e-08
4.234074e-05 -1.657104e-05 -3.600412e-09
4.395853e-05 -1.717570e-05 -2.880543e-08
4.395084e-05 -1.717115e-05 7.048920e-09
4.234074e-05 -1.657033e-05 -1.242052e-08
4.233552e-05 -1.656918e-05 -3.433471e-09
4.397013e-05 -1.717971e-05 -2.650079e-08
4.396287e-05 -1.717526e-05 6.506758e-09
4.399064e-05 -1.718509e-05 -2.382371e-08
4.233552e-05 -1.656845e-05 -1.177730e-08
4.233056e-05 -1.656738e-05 -3.256327e-09
4.398078e-05 -1.718343e-05 -2.415649e-08
4.397396e-05 -1.717908e-05 5.950474e-09
4.399992e-05 -1.718841e-05 -2.139924e-08
4.233056e-05 -1.656662e-05 -1.111275e-08
4.232587e-05 -1.656564e-05 -3.070377e-09
4.399047e-05 -1.718688e-05 -2.178258e-08
4.398410e-05 -1.718263e-05 5.382491e-09
4.232587e-05 -1.656487e-05 -1.043160e-08
4.232147e-05 -1.656398e-05 -2.877261e-09
4.399921e-05 -1.719006e-05 -1.938790e-08
4.399330e-05 -1.718591e-05 4.805585e-09
4.232147e-05 -1.656319e-05 -9.738279e-09
4.400699e-05 -1.719299e-05 -1.697949e-08
4.400154e-05 -1.718896e-05 4.222689e-09
4.231978e-05 -1.656317e-05 -2.290343e-09
4.231736e-05 -1.656161e-05 -9.036686e-09
4.401380e-05 -1.719568e-05 -1.456322e-08
4.400883e-05 -1.719176e-05 3.636762e-09
4.402715e-05 -1.719912e-05 -1.160533e-08
4.231582e-05 -1.656164e-05 -2.114661e-09
4.231355e-05 -1.656013e-05 -8.330008e-09
4.401964e-05 -1.719811e-05 -1.214526e-08
4.401516e-05 -1.719431e-05 3.050757e-09
4.403146e-05 -1.720112e-05 -9.146557e-09
4.231216e-05 -1.656021e-05 -1.939208e-09
4.231004e-05 -1.655875e-05 -7.620762e-09
4.230684e-05 -1.655828e-05 -2.063100e-09
4.402450e-05 -1.720026e-05 -9.733329e-09
4.402052e-05 -1.719661e-05 2.467627e-09
4.403471e-05 -1.720265e-05 6.492155e-09
4.230684e-05 -1.655749e-05 -6.910833e-09
4.403320e-05 -1.720253e-05 -1.278262e-09
4.403320e-05 -1.720490e-05 -2.630938e-09
4.402839e-05 -1.720212e-05 -7.336837e-09
4.402491e-05 -1.719864e-05 1.890269e-09
4.403477e-05 -1.720282e-05 -6.698404e-09
4.403128e-05 -1.720126e-05 -2.190181e-09
4.230576e-05 -1.655769e-05 -1.590071e-09
4.230394e-05 -1.655634e-05 -6.201604e-09
4.230301e-05 -1.655659e-05 -1.416691e-09
4.230136e-05 -1.655530e-05 -5.494033e-09
4.229908e-05 -1.655518e-05 -1.437469e-09
4.403415e-05 -1.720579e-05 -3.403874e-10
4.403224e-05 -1.720292e-05 2.178046e-10
4.229908e-05 -1.655439e-05 -4.788766e-09
4.403414e-05 -1.720634e-05 1.898382e-09
4.403275e-05 -1.720370e-05 -3.137661e-10
4.229846e-05 -1.655475e-05 -1.072585e-09
4.229712e-05 -1.655359e-05 -4.086212e-09
4.229546e-05 -1.655370e-05 -1.021443e-09
4.403320e-05 -1.720655e-05 4.079640e-09
4.403231e-05 -1.720414e-05 -8.303807e-10
4.229546e-05 -1.655291e-05 -3.386611e-09
4.229410e-05 -1.655314e-05 -8.144237e-10
4.403133e-05 -1.720641e-05 6.199044e-09
4.403095e-05 -1.720424e-05 -1.331366e-09
4.403082e-05 -1.720546e-05 9.294751e-09
4.229410e-05 -1.655236e-05 -2.690083e-09
4.229306e-05 -1.655269e-05 -6.082067e-10
4.402858e-05 -1.720594e-05 8.253442e-09
4.402868e-05 -1.720401e-05 -1.816295e-09
4.402663e-05 -1.720449e-05 1.133563e-08
4.229306e-05 -1.655192e-05 -1.996676e-09
4.229231e-05 -1.655237e-05 -4.028398e-10
4.402495e-05 -1.720513e-05 1.024063e-08
4.402553e-05 -1.720344e-05 -2.284904e-09
4.229231e-05 -1.655160e-05 -1.306381e-09
4.229187e-05 -1.655217e-05 -1.983510e-10
4.402049e-05 -1.720400e-05 1.215911e-08
4.402153e-05 -1.720255e-05 -2.737050e-09
4.229187e-05 -1.655140e-05 -6.191639e-10
4.229173e-05 -1.655208e-05 5.247452e-12
4.401522e-05 -1.720256e-05 1.400793e-08
4.401671e-05 -1.720133e-05 -3.172671e-09
4.229173e-05 -1.655131e-05 6.502361e-11
4.400917e-05 -1.720082e-05 1.578649e-08
4.401109e-05 -1.719981e-05 -3.591751e-09
4.400194e-05 -1.719755e-05 1.877788e-08
4.229216e-05 -1.655207e-05 1.051027e-10
4.229189e-05 -1.655135e-05 7.462380e-10
4.400236e-05 -1.719878e-05 1.749447e-08
4.400471e-05 -1.719800e-05 -3.994313e-09
4.399393e-05 -1.719510e-05 2.045486e-08
4.229247e-05 -1.655216e-05 2.702957e-10
4.229235e-05 -1.655150e-05 1.424536e-09
4.399484e-05 -1.719646e-05 1.913172e-08
4.399759e-05 -1.719589e-05 -4.380384e-09
4.229307e-05 -1.655237e-05 4.347911e-10
4.229311e-05 -1.655177e-05 2.099968e-09
4.229416e-05 -1.655291e-05 8.108529e-10
4.398663e-05 -1.719387e-05 2.069819e-08
4.398977e-05 -1.719351e-05 -4.750005e-09
4.229416e-05 -1.655216e-05 2.772579e-09
4.397776e-05 -1.719102e-05 2.219390e-08
4.398127e-05 -1.719087e-05 -5.103219e-09
4.229518e-05 -1.655313e-05 7.617473e-10
4.229551e-05 -1.655266e-05 3.442414e-09
4.396827e-05 -1.718792e-05 2.361892e-08
4.397214e-05 -1.718797e-05 -5.440062e-09
4.229667e-05 -1.655369e-05 9.242284e-10
4.229715e-05 -1.655327e-05 4.109502e-09
4.229909e-05 -1.655474e-05 1.406140e-09
4.395817e-05 -1.718460e-05 2.497334e-08
4.396239e-05 -1.718483e-05 -5.760565e-09
4.394435e-05 -1.717902e-05 -2.669103e-08
4.229909e-05 -1.655400e-05 4.773876e-09
4.392464e-05 -1.717220e-05 1.119472e-08
4.392463e-05 -1.717333e-05 2.861342e-08
4.394752e-05 -1.718105e-05 2.625724e-08
4.395206e-05 -1.718147e-05 -6.064692e-09
4.394440e-05 -1.717912e-05 2.773158e-08
4.393633e-05 -1.717608e-05 1.073578e-08
4.230054e-05 -1.655514e-05 1.247222e-09
4.230132e-05 -1.655484e-05 5.435561e-09
4.230383e-05 -1.655654e-05 1.798937e-09
4.230383e-05 -1.655580e-05 6.094583e-09
4.230664e-05 -1.655761e-05 1.994168e-09
4.391246e-05 -1.716919e-05 2.968596e-08
4.391788e-05 -1.717014e-05 -6.879778e-09
4.389524e-05 -1.716261e-05 3.222567e-08
4.230664e-05 -1.655687e-05 6.750975e-09
4.230973e-05 -1.655879e-05 2.188643e-09
4.389985e-05 -1.716488e-05 3.068828e-08
4.390554e-05 -1.716598e-05 -7.118859e-09
4.230973e-05 -1.655806e-05 7.404762e-09
4.231312e-05 -1.656008e-05 2.382401e-09
4.388682e-05 -1.716041e-05 3.162032e-08
4.389276e-05 -1.716166e-05 -7.341686e-09
4.231312e-05 -1.655935e-05 8.055998e-09
4.231679e-05 -1.656149e-05 2.575483e-09
4.387342e-05 -1.715578e-05 3.248211e-08
4.387959e-05 -1.715719e-05 -7.548334e-09
4.231678e-05 -1.656076e-05 8.704748e-09
4.232074e-05 -1.656301e-05 2.767942e-09
4.385966e-05 -1.715102e-05 3.327373e-08
4.386605e-05 -1.715257e-05 -7.738749e-09
4.383974e-05 -1.714361e-05 3.554483e-08
4.232074e-05 -1.656228e-05 9.351099e-09
4.384558e-05 -1.714613e-05 3.399527e-08
4.385218e-05 -1.714782e-05 -7.912921e-09
4.382510e-05 -1.713856e-05 3.619203e-08
4.232319e-05 -1.656380e-05 2.357412e-09
4.232498e-05 -1.656392e-05 9.995180e-09
4.383121e-05 -1.714113e-05 3.464687e-08
4.383800e-05 -1.714295e-05 -8.070845e-09
4.232757e-05 -1.656549e-05 2.513498e-09
4.232950e-05 -1.656566e-05 1.063717e-08
4.381659e-05 -1.713603e-05 3.522874e-08
4.382355e-05 -1.713797e-05 -8.212523e-09
4.233223e-05 -1.656729e-05 2.669003e-09
4.233431e-05 -1.656752e-05 1.127732e-08
4.233940e-05 -1.657020e-05 3.533501e-09
4.380173e-05 -1.713084e-05 3.574123e-08
4.380885e-05 -1.713290e-05 -8.337961e-09
4.233939e-05 -1.656949e-05 1.191593e-08
4.378667e-05 -1.712556e-05 3.618483e-08
4.379393e-05 -1.712774e-05 -8.447177e-09
4.234241e-05 -1.657122e-05 2.978433e-09
4.234477e-05 -1.657157e-05 1.255343e-08
4.377144e-05 -1.712022e-05 3.656031e-08
4.377883e-05 -1.712250e-05 -8.540215e-09
4.234792e-05 -1.657336e-05 3.132496e-09
4.235042e-05 -1.657377e-05 1.319031e-08
4.235637e-05 -1.657680e-05 4.107626e-09
4.375606e-05 -1.711481e-05 3.686874e-08
4.376357e-05 -1.711719e-05 -8.617150e-09
4.235636e-05 -1.657608e-05 1.382717e-08
4.374057e-05 -1.710934e-05 3.711166e-08
4.374818e-05 -1.711183e-05 -8.678121e-09
4.235980e-05 -1.657799e-05 3.439842e-09
4.236259e-05 -1.657851e-05 1.446464e-08
4.236910e-05 -1.658178e-05 4.493409e-09
4.372498e-05 -1.710383e-05 3.729116e-08
4.373268e-05 -1.710641e-05 -8.723332e-09
4.370157e-05 -1.709548e-05 3.886499e-08
4.236910e-05 -1.658106e-05 1.510336e-08
4.237590e-05 -1.658445e-05 4.687616e-09
4.368574e-05 -1.708987e-05 3.891993e-08
4.367792e-05 -1.708709e-05 1.481893e-08
4.370933e-05 -1.709828e-05 3.740993e-08
4.371710e-05 -1.710095e-05 -8.753017e-09
4.369363e-05 -1.709269e-05 3.747125e-08
4.369365e-05 -1.709267e-05 1.480003e-08
4.237590e-05 -1.658373e-05 1.574392e-08
4.238299e-05 -1.658725e-05 4.882682e-09
4.238298e-05 -1.658652e-05 1.638678e-08
4.239037e-05 -1.659017e-05 5.078518e-09
4.366217e-05 -1.708140e-05 3.743887e-08
4.367009e-05 -1.708429e-05 -8.755528e-09
4.239036e-05 -1.658944e-05 1.703236e-08
4.239804e-05 -1.659321e-05 5.275037e-09
4.364644e-05 -1.707569e-05 3.735488e-08
4.365440e-05 -1.707866e-05 -8.730034e-09
4.362249e-05 -1.706703e-05 3.870462e-08
4.239803e-05 -1.659248e-05 1.768107e-08
4.240600e-05 -1.659637e-05 5.472214e-09
4.363074e-05 -1.706994e-05 3.723164e-08
4.363871e-05 -1.707297e-05 -8.693357e-09
4.360677e-05 -1.706122e-05 3.856070e-08
4.240599e-05 -1.659563e-05 1.833341e-08
4.361506e-05 -1.706415e-05 3.707280e-08
4.362304e-05 -1.706724e-05 -8.646952e-09
4.241046e-05 -1.659799e-05 4.525782e-09
4.241425e-05 -1.659892e-05 1.898998e-08
4.359943e-05 -1.705831e-05 3.688131e-08
4.360741e-05 -1.706146e-05 -8.592126e-09
4.241886e-05 -1.660134e-05 4.684828e-09
4.242280e-05 -1.660232e-05 1.965143e-08
4.358386e-05 -1.705243e-05 3.665991e-08
4.359183e-05 -1.705563e-05 -8.530265e-09
4.242757e-05 -1.660480e-05 4.845404e-09
4.243165e-05 -1.660584e-05 2.031839e-08
4.244081e-05 -1.661024e-05 6.270158e-09
4.356836e-05 -1.704653e-05 3.641180e-08
4.357631e-05 -1.704977e-05 -8.462746e-09
4.244080e-05 -1.660948e-05 2.099146e-08
4.355295e-05 -1.704062e-05 3.614102e-08
4.356086e-05 -1.704388e-05 -8.390954e-09
4.244588e-05 -1.661211e-05 5.171639e-09
4.245025e-05 -1.661325e-05 2.167111e-08
4.353765e-05 -1.703470e-05 3.585223e-08
4.354551e-05 -1.703799e-05 -8.316196e-09
4.245548e-05 -1.661594e-05 5.337477e-09
4.246001e-05 -1.661713e-05 2.235777e-08
4.247008e-05 -1.662192e-05 6.884084e-09
4.352245e-05 -1.702880e-05 3.555016e-08
4.353026e-05 -1.703209e-05 -8.239624e-09
4.247007e-05 -1.662114e-05 2.305173e-08
4.350737e-05 -1.702292e-05 3.523919e-08
4.351512e-05 -1.702621e-05 -8.162187e-09
4.348436e-05 -1.701418e-05 3.643463e-08
4.247562e-05 -1.662397e-05 5.674875e-09
4.248044e-05 -1.662527e-05 2.375325e-08
4.249114e-05 -1.663032e-05 7.303273e-09
4.349243e-05 -1.701708e-05 3.492303e-08
4.350011e-05 -1.702035e-05 -8.084614e-09
4.346961e-05 -1.700840e-05 3.610839e-08
4.249113e-05 -1.662952e-05 2.446251e-08
4.250215e-05 -1.663471e-05 7.516142e-09
4.347761e-05 -1.701127e-05 3.460466e-08
4.348523e-05 -1.701452e-05 -8.007434e-09
4.250214e-05 -1.663390e-05 2.517962e-08
4.251347e-05 -1.663922e-05 7.731275e-09
4.346293e-05 -1.700550e-05 3.428641e-08
4.347048e-05 -1.700873e-05 -7.931022e-09
4.251346e-05 -1.663840e-05 2.590470e-08
4.252513e-05 -1.664386e-05 7.948716e-09
4.344838e-05 -1.699978e-05 3.396998e-08
4.345586e-05 -1.700299e-05 -7.855609e-09
4.342616e-05 -1.699132e-05 -3.388119e-08
4.252512e-05 -1.664303e-05 2.663782e-08
4.253711e-05 -1.664863e-05 8.168497e-09
4.341201e-05 -1.698572e-05 3.481172e-08
4.342703e-05 -1.699163e-05 -7.708171e-09
4.340557e-05 -1.698324e-05 1.330009e-08
4.343397e-05 -1.699411e-05 3.365657e-08
4.344138e-05 -1.699729e-05 -7.781268e-09
4.253710e-05 -1.664779e-05 2.737903e-08
4.254942e-05 -1.665353e-05 8.390644e-09
4.254941e-05 -1.665268e-05 2.812838e-08
4.339154e-05 -1.697740e-05 3.274075e-08
4.339874e-05 -1.698048e-05 -7.566202e-09
4.255613e-05 -1.665602e-05 6.918096e-09
4.256206e-05 -1.665770e-05 2.888591e-08
4.337767e-05 -1.697193e-05 3.244507e-08
4.338479e-05 -1.697498e-05 -7.496905e-09
4.256895e-05 -1.666111e-05 7.103732e-09
4.257505e-05 -1.666286e-05 2.965166e-08
4.336392e-05 -1.696651e-05 3.215431e-08
4.337098e-05 -1.696953e-05 -7.428839e-09
4.258212e-05 -1.666635e-05 7.291401e-09
4.258839e-05 -1.666815e-05 3.042567e-08
4.260208e-05 -1.667446e-05 9.303277e-09
4.335029e-05 -1.696114e-05 3.186849e-08
4.335729e-05 -1.696413e-05 -7.362058e-09
4.260207e-05 -1.667357e-05 3.120800e-08
4.333679e-05 -1.695581e-05 3.158763e-08
4.334372e-05 -1.695878e-05 -7.296471e-09
4.260950e-05 -1.667722e-05 7.672865e-09
4.261611e-05 -1.667914e-05 3.199869e-08
4.332342e-05 -1.695054e-05 3.131169e-08
4.333028e-05 -1.695348e-05 -7.232047e-09
4.262372e-05 -1.668286e-05 7.866688e-09
4.263050e-05 -1.668484e-05 3.279781e-08
4.264527e-05 -1.669160e-05 1.001348e-08
4.331016e-05 -1.694531e-05 3.104062e-08
4.331696e-05 -1.694822e-05 -7.168768e-09
4.264525e-05 -1.669068e-05 3.360542e-08
4.329702e-05 -1.694013e-05 3.077439e-08
4.330376e-05 -1.694301e-05 -7.106616e-09
4.327703e-05 -1.693247e-05 3.187718e-08
4.265324e-05 -1.669457e-05 8.260594e-09
4.266037e-05 -1.669667e-05 3.442160e-08
4.267587e-05 -1.670374e-05 1.049944e-08
4.328400e-05 -1.693500e-05 3.051295e-08
4.329068e-05 -1.693785e-05 -7.045574e-09
4.326418e-05 -1.692740e-05 3.161139e-08
4.267586e-05 -1.670280e-05 3.524642e-08
4.269174e-05 -1.671002e-05 1.074620e-08
4.327109e-05 -1.692991e-05 3.025627e-08
4.327771e-05 -1.693273e-05 -6.985635e-09
4.269172e-05 -1.670908e-05 3.607997e-08
4.270797e-05 -1.671646e-05 1.099549e-08
4.325829e-05 -1.692486e-05 3.000432e-08
4.326485e-05 -1.692766e-05 -6.926786e-09
4.323882e-05 -1.691739e-05 3.109461e-08
4.270795e-05 -1.671551e-05 3.692232e-08
4.272459e-05 -1.672305e-05 1.124726e-08
4.324560e-05 -1.691986e-05 2.975707e-08
4.325210e-05 -1.692263e-05 -6.869026e-09
4.272457e-05 -1.672208e-05 3.777353e-08
4.274160e-05 -1.672978e-05 1.150148e-08
4.323302e-05 -1.691490e-05 2.951451e-08
4.323947e-05 -1.691764e-05 -6.812349e-09
4.321389e-05 -1.690755e-05 3.059742e-08
4.274158e-05 -1.672881e-05 3.863363e-08
4.275900e-05 -1.673667e-05 1.175804e-08
4.322055e-05 -1.690998e-05 2.927665e-08
4.322694e-05 -1.691270e-05 -6.756752e-09
4.320154e-05 -1.690269e-05 -2.927572e-08
4.275897e-05 -1.673569e-05 3.950259e-08
4.318374e-05 -1.689569e-05 1.152115e-08
4.318373e-05 -1.689546e-05 2.859074e-08
4.320817e-05 -1.690510e-05 2.904347e-08
4.321451e-05 -1.690779e-05 -6.702169e-09
4.320158e-05 -1.690269e-05 3.035608e-08
4.319591e-05 -1.690050e-05 1.161073e-08
4.276833e-05 -1.674016e-05 9.707925e-09
4.277676e-05 -1.674272e-05 4.038031e-08
4.278632e-05 -1.674728e-05 9.923961e-09
4.279495e-05 -1.674990e-05 4.126647e-08
4.317166e-05 -1.689069e-05 2.837131e-08
4.317783e-05 -1.689331e-05 -6.545340e-09
4.281341e-05 -1.675820e-05 -1.803546e-08
4.281354e-05 -1.675724e-05 4.216069e-08
4.283256e-05 -1.676575e-05 1.280318e-08
4.315968e-05 -1.688597e-05 2.815649e-08
4.316580e-05 -1.688856e-05 -6.495128e-09
4.283253e-05 -1.676473e-05 4.306225e-08
4.285196e-05 -1.677340e-05 1.306695e-08
4.314779e-05 -1.688128e-05 2.794606e-08
4.315386e-05 -1.688385e-05 -6.446004e-09
4.285193e-05 -1.677238e-05 4.396999e-08
4.313599e-05 -1.687663e-05 2.773987e-08
4.314202e-05 -1.687917e-05 -6.398028e-09
4.287161e-05 -1.678114e-05 -1.918002e-08
4.287173e-05 -1.678017e-05 4.488236e-08
4.289197e-05 -1.678914e-05 1.359183e-08
4.312429e-05 -1.687201e-05 2.753769e-08
4.313027e-05 -1.687454e-05 -6.351134e-09
4.310652e-05 -1.686517e-05 2.858758e-08
4.289194e-05 -1.678811e-05 4.579716e-08
4.311267e-05 -1.686743e-05 2.733920e-08
4.311860e-05 -1.686994e-05 -6.305294e-09
4.309505e-05 -1.686065e-05 2.838253e-08
4.291243e-05 -1.679715e-05 -1.993788e-08
4.291256e-05 -1.679618e-05 4.671152e-08
4.293361e-05 -1.680541e-05 1.410393e-08
4.310115e-05 -1.686289e-05 2.714394e-08
4.310703e-05 -1.686537e-05 -6.260464e-09
4.293357e-05 -1.680439e-05 4.762164e-08
4.295501e-05 -1.681373e-05 1.435098e-08
4.308970e-05 -1.685839e-05 2.695130e-08
4.309554e-05 -1.686084e-05 -6.216580e-09
4.307235e-05 -1.685172e-05 2.797582e-08
4.295498e-05 -1.681271e-05 4.852291e-08
4.297680e-05 -1.682214e-05 1.458932e-08
4.307835e-05 -1.685392e-05 2.676048e-08
4.308414e-05 -1.685636e-05 -6.173538e-09
4.297677e-05 -1.682115e-05 4.941028e-08
4.299896e-05 -1.683064e-05 1.481741e-08
4.306708e-05 -1.684950e-05 2.657051e-08
4.307283e-05 -1.685191e-05 -6.131203e-09
4.304999e-05 -1.684296e-05 2.756542e-08
4.299892e-05 -1.682967e-05 5.027824e-08
4.302147e-05 -1.683921e-05 1.503447e-08
4.305590e-05 -1.684511e-05 2.638026e-08
4.306161e-05 -1.684751e-05 -6.089380e-09
4.302143e-05 -1.683827e-05 5.112151e-08
4.304432e-05 -1.684783e-05 1.524047e-08
4.304481e-05 -1.684078e-05 2.618852e-08
4.305047e-05 -1.684315e-05 -6.047831e-09
4.304428e-05 -1.684693e-05 5.193573e-08
4.303382e-05 -1.683649e-05 2.599410e-08
4.303943e-05 -1.683884e-05 -6.006250e-09
4.306736e-05 -1.685646e-05 -2.230033e-08
4.306745e-05 -1.685564e-05 5.271723e-08
4.302291e-05 -1.683225e-05 2.579601e-08
4.302848e-05 -1.683458e-05 -5.964308e-09
4.300631e-05 -1.682602e-05 -2.573822e-08
4.309084e-05 -1.686517e-05 -2.258231e-08
4.309093e-05 -1.686439e-05 5.346260e-08
4.299079e-05 -1.682009e-05 1.009769e-08
4.299078e-05 -1.681986e-05 2.517175e-08
4.301210e-05 -1.682807e-05 2.559343e-08
4.301762e-05 -1.683037e-05 -5.921585e-09
4.300636e-05 -1.682602e-05 2.669678e-08
4.300140e-05 -1.682416e-05 1.018975e-08
4.311462e-05 -1.687394e-05 -2.285003e-08
4.311470e-05 -1.687320e-05 5.416799e-08
4.313880e-05 -1.688278e-05 1.596631e-08
4.313875e-05 -1.688205e-05 5.482866e-08
4.316312e-05 -1.689163e-05 1.612327e-08
4.298028e-05 -1.681584e-05 2.495117e-08
4.298566e-05 -1.681808e-05 -5.785995e-09
4.296426e-05 -1.680992e-05 2.573874e-08
4.316307e-05 -1.689096e-05 5.543921e-08
4.296987e-05 -1.681187e-05 2.472272e-08
4.297521e-05 -1.681410e-05 -5.736937e-09
4.295399e-05 -1.680603e-05 2.547990e-08
4.318760e-05 -1.690050e-05 -2.355474e-08
4.318764e-05 -1.689992e-05 5.599404e-08
4.321248e-05 -1.690948e-05 1.639859e-08
4.295958e-05 -1.680795e-05 2.448510e-08
4.296487e-05 -1.681016e-05 -5.685443e-09
4.321243e-05 -1.690894e-05 5.648795e-08
4.294939e-05 -1.680408e-05 2.423713e-08
4.295463e-05 -1.680628e-05 -5.631318e-09
4.323742e-05 -1.691846e-05 -2.391894e-08
4.323743e-05 -1.691802e-05 5.691640e-08
4.326267e-05 -1.692754e-05 1.660986e-08
4.293931e-05 -1.680026e-05 2.397781e-08
4.294451e-05 -1.680245e-05 -5.574296e-09
4.292386e-05 -1.679464e-05 2.463701e-08
4.326262e-05 -1.692715e-05 5.727566e-08
4.328800e-05 -1.693663e-05 1.668740e-08
4.292935e-05 -1.679649e-05 2.370627e-08
4.293450e-05 -1.679866e-05 -5.514211e-09
4.291405e-05 -1.679095e-05 2.433066e-08
4.328795e-05 -1.693632e-05 5.756280e-08
4.331345e-05 -1.694577e-05 1.674457e-08
4.291951e-05 -1.679277e-05 2.342183e-08
4.292461e-05 -1.679493e-05 -5.450954e-09
4.290438e-05 -1.678731e-05 2.401046e-08
4.331340e-05 -1.694554e-05 5.777557e-08
4.333900e-05 -1.695493e-05 1.678044e-08
4.290980e-05 -1.678910e-05 2.312399e-08
4.291484e-05 -1.679125e-05 -5.384447e-09
4.289483e-05 -1.678372e-05 2.367598e-08
4.333895e-05 -1.695478e-05 5.791229e-08
4.336460e-05 -1.696410e-05 1.679432e-08
4.290022e-05 -1.678548e-05 2.281239e-08
4.290520e-05 -1.678763e-05 -5.314643e-09
4.336455e-05 -1.696404e-05 5.797184e-08
4.339022e-05 -1.697328e-05 1.678585e-08
4.289078e-05 -1.678192e-05 2.248675e-08
4.289570e-05 -1.678405e-05 -5.241513e-09
4.339017e-05 -1.697331e-05 5.795326e-08
4.288147e-05 -1.677842e-05 2.214691e-08
4.288634e-05 -1.678054e-05 -5.165047e-09
4.340300e-05 -1.697788e-05 1.431244e-08
4.341579e-05 -1.698257e-05 5.785587e-08
4.287232e-05 -1.677497e-05 2.179275e-08
4.287712e-05 -1.677708e-05 -5.085240e-09
4.344146e-05 -1.699163e-05 -2.420227e-08
4.344135e-05 -1.699182e-05 5.767942e-08
4.286332e-05 -1.677158e-05 2.142422e-08
4.286805e-05 -1.677367e-05 -5.002095e-09
4.346696e-05 -1.700076e-05 -2.409081e-08
4.346683e-05 -1.700103e-05 5.742350e-08
4.349225e-05 -1.700982e-05 1.652118e-08
4.285448e-05 -1.676826e-05 2.104129e-08
4.285914e-05 -1.677034e-05 -4.915613e-09
4.284067e-05 -1.676344e-05 -2.058244e-08
4.349220e-05 -1.701019e-05 5.708781e-08
4.351746e-05 -1.701883e-05 1.639643e-08
4.283226e-05 -1.676027e-05 2.091766e-08
4.284181e-05 -1.676385e-05 -4.732590e-09
4.282898e-05 -1.675915e-05 7.916830e-09
4.284581e-05 -1.676500e-05 2.064395e-08
4.285039e-05 -1.676706e-05 -4.825756e-09
4.351741e-05 -1.701929e-05 5.667222e-08
4.354259e-05 -1.702781e-05 -2.355306e-08
4.354243e-05 -1.702832e-05 5.617657e-08
4.282084e-05 -1.675564e-05 1.936504e-08
4.282518e-05 -1.675764e-05 -4.536569e-09
4.356740e-05 -1.703667e-05 -2.330570e-08
4.356722e-05 -1.703726e-05 5.560068e-08
4.359179e-05 -1.704538e-05 1.588026e-08
4.281288e-05 -1.675266e-05 1.890995e-08
4.281714e-05 -1.675464e-05 -4.433472e-09
4.280035e-05 -1.674838e-05 1.900853e-08
4.359175e-05 -1.704610e-05 5.494439e-08
4.280513e-05 -1.674976e-05 1.844040e-08
4.280930e-05 -1.675172e-05 -4.327065e-09
4.279287e-05 -1.674560e-05 1.849323e-08
4.361618e-05 -1.705407e-05 -2.270837e-08
4.361597e-05 -1.705482e-05 5.420754e-08
4.363990e-05 -1.706251e-05 1.541733e-08
4.279757e-05 -1.674694e-05 1.795637e-08
4.280165e-05 -1.674888e-05 -4.217398e-09
4.278560e-05 -1.674290e-05 1.796268e-08
4.363986e-05 -1.706341e-05 5.338996e-08
4.366341e-05 -1.707086e-05 1.515008e-08
4.279022e-05 -1.674420e-05 1.745787e-08
4.279421e-05 -1.674611e-05 -4.104419e-09
4.366337e-05 -1.707185e-05 5.249144e-08
4.368651e-05 -1.707905e-05 1.485893e-08
4.278309e-05 -1.674155e-05 1.694485e-08
4.278698e-05 -1.674343e-05 -3.988127e-09
4.277171e-05 -1.673776e-05 1.685576e-08
4.368647e-05 -1.708013e-05 5.151180e-08
4.370915e-05 -1.708706e-05 1.454383e-08
4.277618e-05 -1.673898e-05 1.641730e-08
4.277996e-05 -1.674083e-05 -3.868506e-09
4.370911e-05 -1.708823e-05 5.045084e-08
4.373131e-05 -1.709488e-05 1.420478e-08
4.276949e-05 -1.673650e-05 1.587519e-08
4.277317e-05 -1.673832e-05 -3.745547e-09
4.373127e-05 -1.709614e-05 4.930835e-08
4.276303e-05 -1.673411e-05 1.531850e-08
4.276660e-05 -1.673590e-05 -3.619232e-09
4.375320e-05 -1.710259e-05 -2.009086e-08
4.375291e-05 -1.710384e-05 4.808415e-08
4.275681e-05 -1.673181e-05 1.474721e-08
4.276027e-05 -1.673358e-05 -3.489546e-09
4.377428e-05 -1.710999e-05 -1.953377e-08
4.377397e-05 -1.711133e-05 4.677809e-08
4.275083e-05 -1.672961e-05 1.416134e-08
4.275418e-05 -1.673134e-05 -3.356468e-09
4.379476e-05 -1.711716e-05 -1.894221e-08
4.379444e-05 -1.711857e-05 4.539016e-08
4.381430e-05 -1.712397e-05 1.260963e-08
4.274510e-05 -1.672750e-05 1.356098e-08
4.274834e-05 -1.672920e-05 -3.219974e-09
4.381427e-05 -1.712557e-05 4.392035e-08
4.383345e-05 -1.713061e-05 1.215202e-08
4.273963e-05 -1.672550e-05 1.294626e-08
4.274275e-05 -1.672716e-05 -3.080048e-09
4.273057e-05 -1.672274e-05 -1.204731e-08
4.383342e-05 -1.713231e-05 4.236883e-08
4.272479e-05 -1.672078e-05 4.383094e-09
4.272479e-05 -1.672008e-05 1.101924e-08
4.273441e-05 -1.672359e-05 1.231743e-08
4.273742e-05 -1.672522e-05 -2.936653e-09
4.273060e-05 -1.672271e-05 1.250504e-08
4.272947e-05 -1.672247e-05 4.645117e-09
4.385221e-05 -1.713711e-05 -1.696340e-08
4.385186e-05 -1.713877e-05 4.073628e-08
4.386991e-05 -1.714320e-05 -1.623758e-08
4.386954e-05 -1.714495e-05 3.902350e-08
4.388647e-05 -1.714887e-05 1.064441e-08
4.272039e-05 -1.671848e-05 1.035155e-08
4.272301e-05 -1.672000e-05 -2.486100e-09
4.388644e-05 -1.715082e-05 3.723192e-08
4.271626e-05 -1.671698e-05 9.673102e-09
4.271875e-05 -1.671846e-05 -2.329232e-09
4.270916e-05 -1.671495e-05 9.009221e-09
4.390292e-05 -1.715449e-05 -1.469313e-08
4.390253e-05 -1.715639e-05 3.536377e-08
4.391778e-05 -1.715953e-05 9.538126e-09
4.271241e-05 -1.671558e-05 8.985662e-09
4.271478e-05 -1.671702e-05 -2.169281e-09
4.270571e-05 -1.671369e-05 8.291507e-09
4.391776e-05 -1.716165e-05 3.342220e-08
4.393213e-05 -1.716440e-05 8.959899e-09
4.270885e-05 -1.671427e-05 8.291593e-09
4.271108e-05 -1.671568e-05 -2.006553e-09
4.393212e-05 -1.716659e-05 3.141150e-08
4.394558e-05 -1.716896e-05 8.368412e-09
4.270556e-05 -1.671306e-05 7.593857e-09
4.270766e-05 -1.671442e-05 -1.841423e-09
4.394557e-05 -1.717121e-05 2.933739e-08
4.395811e-05 -1.717321e-05 7.766805e-09
4.270255e-05 -1.671192e-05 6.895981e-09
4.270451e-05 -1.671325e-05 -1.674446e-09
4.395810e-05 -1.717552e-05 2.720705e-08
4.396970e-05 -1.717718e-05 7.158407e-09
4.269982e-05 -1.671086e-05 6.201900e-09
4.270164e-05 -1.671215e-05 -1.506351e-09
4.396969e-05 -1.717953e-05 2.502900e-08
4.269735e-05 -1.670987e-05 5.515620e-09
4.269904e-05 -1.671112e-05 -1.338046e-09
4.398079e-05 -1.718102e-05 -9.508745e-09
4.398033e-05 -1.718325e-05 2.281269e-08
4.269514e-05 -1.670894e-05 4.840795e-09
4.269669e-05 -1.671015e-05 -1.170596e-09
4.399048e-05 -1.718443e-05 -8.604274e-09
4.399002e-05 -1.718669e-05 2.056759e-08
4.269317e-05 -1.670805e-05 4.180394e-09
4.269460e-05 -1.670922e-05 -1.005137e-09
4.399921e-05 -1.718760e-05 -7.696680e-09
4.399875e-05 -1.718987e-05 1.830218e-08
4.400653e-05 -1.719036e-05 4.702950e-09
4.269146e-05 -1.670720e-05 3.536793e-09
4.269275e-05 -1.670833e-05 -8.428411e-10
4.400652e-05 -1.719281e-05 1.602347e-08
4.401334e-05 -1.719304e-05 4.084754e-09
4.268997e-05 -1.670639e-05 2.912265e-09
4.269113e-05 -1.670748e-05 -6.848677e-10
4.401334e-05 -1.719549e-05 1.373743e-08
4.268872e-05 -1.670563e-05 2.309529e-09
4.268975e-05 -1.670667e-05 -5.323902e-10
4.401964e-05 -1.719563e-05 -4.953767e-09
4.401918e-05 -1.719792e-05 1.145029e-08
4.268768e-05 -1.670491e-05 1.732015e-09
4.268858e-05 -1.670590e-05 -3.865608e-10
4.268544e-05 -1.670394e-05 1.216690e-09
4.402450e-05 -1.719779e-05 -4.032150e-09
4.402405e-05 -1.720007e-05 9.169615e-09
4.402794e-05 -1.719952e-05 2.207767e-09
4.268502e-05 -1.670335e-05 7.091342e-10
4.268584e-05 -1.670354e-05 2.664159e-10
4.268686e-05 -1.670424e-05 1.183645e-09
4.268763e-05 -1.670517e-05 -2.484772e-10
4.268625e-05 -1.670362e-05 6.684184e-10
4.268625e-05 -1.670414e-05 4.501212e-10
4.402794e-05 -1.720193e-05 6.904401e-09
4.402833e-05 -1.720038e-05 1.321395e-09
4.403084e-05 -1.720349e-05 4.664286e-09
4.403277e-05 -1.720237e-05 9.534443e-10
4.268560e-05 -1.670255e-05 -2.482759e-10
4.268600e-05 -1.670328e-05 1.104381e-10
4.403277e-05 -1.720472e-05 2.458562e-09
4.403373e-05 -1.720332e-05 3.344598e-10
4.268553e-05 -1.670210e-05 -6.439890e-10
4.268582e-05 -1.670275e-05 2.095710e-10
4.403373e-05 -1.720561e-05 2.954177e-10
4.403373e-05 -1.720393e-05 -2.749240e-10
4.268562e-05 -1.670170e-05 -9.951022e-10
4.268580e-05 -1.670228e-05 2.977975e-10
4.403373e-05 -1.720616e-05 -1.818404e-09
4.403280e-05 -1.720420e-05 -8.721296e-10
4.268583e-05 -1.670134e-05 -1.300112e-09
4.268591e-05 -1.670185e-05 3.749079e-10
4.403280e-05 -1.720637e-05 -3.877589e-09
4.403094e-05 -1.720413e-05 -1.455084e-09
4.268616e-05 -1.670102e-05 -1.557948e-09
4.268616e-05 -1.670146e-05 4.407733e-10
4.403094e-05 -1.720624e-05 -5.878139e-09
4.268659e-05 -1.670074e-05 -1.767860e-09
4.268651e-05 -1.670111e-05 4.953191e-10
4.402858e-05 -1.720386e-05 3.032869e-09
4.402820e-05 -1.720577e-05 -7.817155e-09
4.268710e-05 -1.670049e-05 -1.929349e-09
4.268694e-05 -1.670079e-05 5.385098e-10
4.402495e-05 -1.720313e-05 3.826742e-09
4.402459e-05 -1.720497e-05 -9.692609e-09
4.268766e-05 -1.670026e-05 -2.042093e-09
4.268744e-05 -1.670049e-05 5.703372e-10
4.402049e-05 -1.720207e-05 4.594232e-09
4.402014e-05 -1.720385e-05 -1.150314e-08
4.401488e-05 -1.720058e-05 -3.617821e-09
4.268826e-05 -1.670004e-05 -2.105897e-09
4.268799e-05 -1.670021e-05 5.908030e-10
4.401488e-05 -1.720241e-05 -1.324786e-08
4.400884e-05 -1.719891e-05 -4.112364e-09
4.268887e-05 -1.669983e-05 -2.120651e-09
4.268856e-05 -1.669995e-05 5.999285e-10
4.400884e-05 -1.720067e-05 -1.492624e-08
4.268948e-05 -1.669961e-05 -2.086301e-09
4.268914e-05 -1.669968e-05 5.977246e-10
4.400237e-05 -1.719706e-05 6.732200e-09
4.400205e-05 -1.719864e-05 -1.653800e-08
4.269006e-05 -1.669939e-05 -2.002816e-09
4.268971e-05 -1.669941e-05 5.842078e-10
4.399485e-05 -1.719481e-05 7.388917e-09
4.399454e-05 -1.719632e-05 -1.808299e-08
4.398635e-05 -1.719219e-05 -5.479773e-09
4.269060e-05 -1.669915e-05 -1.870191e-09
4.269024e-05 -1.669912e-05 5.593955e-10
4.269172e-05 -1.669870e-05 1.268104e-09
4.398634e-05 -1.719374e-05 -1.956119e-08
4.269220e-05 -1.669840e-05 -1.088596e-09
4.269112e-05 -1.669848e-05 4.759070e-10
4.269175e-05 -1.669792e-05 -2.626959e-10
4.269108e-05 -1.669888e-05 -1.688403e-09
4.269072e-05 -1.669881e-05 5.232902e-10
4.397777e-05 -1.718952e-05 8.617627e-09
4.397749e-05 -1.719090e-05 -2.097262e-08
4.396801e-05 -1.718641e-05 -6.293549e-09
4.396800e-05 -1.718781e-05 -2.231733e-08
4.395793e-05 -1.718316e-05 -6.670983e-09
4.269190e-05 -1.669785e-05 -8.478495e-10
4.269161e-05 -1.669768e-05 3.472831e-10
4.395792e-05 -1.718449e-05 -2.359539e-08
4.394729e-05 -1.717968e-05 -7.028783e-09
4.269190e-05 -1.669739e-05 -4.691153e-10
4.269165e-05 -1.669720e-05 2.660152e-10
4.394728e-05 -1.718094e-05 -2.480692e-08
4.393611e-05 -1.717600e-05 -7.367032e-09
4.269174e-05 -1.669688e-05 -4.099414e-11
4.269154e-05 -1.669667e-05 1.734219e-10
4.393610e-05 -1.717719e-05 -2.595194e-08
4.392442e-05 -1.717212e-05 -7.685749e-09
4.269138e-05 -1.669628e-05 4.365841e-10
4.269125e-05 -1.669606e-05 6.947379e-11
4.392441e-05 -1.717324e-05 -2.703046e-08
4.269082e-05 -1.669561e-05 9.636774e-10
4.269076e-05 -1.669537e-05 -4.586183e-11
4.391247e-05 -1.716813e-05 1.162545e-08
4.391225e-05 -1.716911e-05 -2.804265e-08
4.269002e-05 -1.669484e-05 1.540321e-09
4.269005e-05 -1.669459e-05 -1.726380e-10
4.389986e-05 -1.716389e-05 1.202803e-08
4.389965e-05 -1.716480e-05 -2.898849e-08
4.268898e-05 -1.669398e-05 2.166480e-09
4.268909e-05 -1.669372e-05 -3.108944e-10
4.388684e-05 -1.715949e-05 1.240246e-08
4.388664e-05 -1.716033e-05 -2.986800e-08
4.387326e-05 -1.715488e-05 -8.764776e-09
4.268766e-05 -1.669301e-05 2.842013e-09
4.268788e-05 -1.669275e-05 -4.606852e-10
4.387325e-05 -1.715571e-05 -3.068126e-08
4.385952e-05 -1.715020e-05 -8.985813e-09
4.268604e-05 -1.669193e-05 3.566609e-09
4.268638e-05 -1.669167e-05 -6.220561e-10
4.268473e-05 -1.669003e-05 5.273386e-09
4.385950e-05 -1.715095e-05 -3.142830e-08
4.268412e-05 -1.669072e-05 4.339692e-09
4.268458e-05 -1.669048e-05 -7.950356e-10
4.268241e-05 -1.668864e-05 6.153540e-09
4.384560e-05 -1.714544e-05 1.335734e-08
4.384544e-05 -1.714607e-05 -3.210921e-08
4.268187e-05 -1.668940e-05 5.160306e-09
4.268246e-05 -1.668916e-05 -9.796350e-10
4.383123e-05 -1.714051e-05 1.361977e-08
4.383109e-05 -1.714108e-05 -3.272411e-08
4.381649e-05 -1.713544e-05 -9.533062e-09
4.267927e-05 -1.668795e-05 6.026972e-09
4.268000e-05 -1.668772e-05 -1.175811e-09
4.381647e-05 -1.713598e-05 -3.327319e-08
4.267630e-05 -1.668636e-05 6.937497e-09
4.267719e-05 -1.668616e-05 -1.383438e-09
4.267318e-05 -1.668362e-05 -8.754676e-09
4.380175e-05 -1.713035e-05 1.406178e-08
4.380162e-05 -1.713079e-05 -3.375676e-08
4.378659e-05 -1.712512e-05 -9.803064e-09
4.266509e-05 -1.667975e-05 4.138812e-09
4.266509e-05 -1.668085e-05 9.894612e-09
4.267296e-05 -1.668465e-05 7.888749e-09
4.267400e-05 -1.668446e-05 -1.602266e-09
4.267322e-05 -1.668370e-05 9.045045e-09
4.266922e-05 -1.668175e-05 3.747876e-09
4.378658e-05 -1.712552e-05 -3.417529e-08
4.377137e-05 -1.711985e-05 -9.910570e-09
4.377136e-05 -1.712018e-05 -3.452946e-08
4.375601e-05 -1.711451e-05 -1.000047e-08
4.266056e-05 -1.667877e-05 1.093621e-08
4.266212e-05 -1.667866e-05 -2.320979e-09
4.375599e-05 -1.711478e-05 -3.482028e-08
4.374053e-05 -1.710912e-05 -1.007352e-08
4.265562e-05 -1.667660e-05 1.199227e-08
4.265736e-05 -1.667651e-05 -2.578012e-09
4.374051e-05 -1.710932e-05 -3.504914e-08
4.372495e-05 -1.710368e-05 -1.013070e-08
4.265029e-05 -1.667435e-05 1.305249e-08
4.265221e-05 -1.667429e-05 -2.841204e-09
4.372494e-05 -1.710381e-05 -3.521792e-08
4.264457e-05 -1.667205e-05 1.410592e-08
4.264668e-05 -1.667202e-05 -3.108327e-09
4.370935e-05 -1.709820e-05 1.476300e-08
4.370929e-05 -1.709827e-05 -3.532921e-08
4.263849e-05 -1.666972e-05 1.514210e-08
4.264078e-05 -1.666972e-05 -3.376658e-09
4.370146e-05 -1.709544e-05 -8.767750e-09
4.369360e-05 -1.709268e-05 -3.538612e-08
4.263205e-05 -1.666738e-05 1.615210e-08
4.263453e-05 -1.666741e-05 -3.643178e-09
4.368579e-05 -1.708989e-05 -8.768378e-09
4.367789e-05 -1.708706e-05 -3.539243e-08
4.366219e-05 -1.708147e-05 -1.022800e-08
4.262529e-05 -1.666505e-05 1.712885e-08
4.262795e-05 -1.666511e-05 -3.904741e-09
4.366217e-05 -1.708139e-05 -3.535262e-08
4.364647e-05 -1.707581e-05 -1.022670e-08
4.261820e-05 -1.666274e-05 1.806630e-08
4.262105e-05 -1.666283e-05 -4.158202e-09
4.364645e-05 -1.707569e-05 -3.527116e-08
4.261082e-05 -1.666045e-05 1.895779e-08
4.261385e-05 -1.666059e-05 -4.400405e-09
4.363076e-05 -1.707010e-05 1.478637e-08
4.363075e-05 -1.706994e-05 -3.515227e-08
4.260314e-05 -1.665816e-05 1.979496e-08
4.260637e-05 -1.665836e-05 -4.628211e-09
4.259270e-05 -1.665471e-05 2.137256e-08
4.361508e-05 -1.706434e-05 1.474966e-08
4.361508e-05 -1.706415e-05 -3.499958e-08
4.359947e-05 -1.705854e-05 -1.017343e-08
4.259519e-05 -1.665587e-05 2.056771e-08
4.259861e-05 -1.665615e-05 -4.838560e-09
4.258417e-05 -1.665239e-05 2.201784e-08
4.359946e-05 -1.705831e-05 -3.481603e-08
4.258699e-05 -1.665356e-05 2.126519e-08
4.259059e-05 -1.665393e-05 -5.028666e-09
4.358388e-05 -1.705269e-05 1.463772e-08
4.358389e-05 -1.705244e-05 -3.460440e-08
4.356841e-05 -1.704682e-05 -1.009235e-08
4.257855e-05 -1.665122e-05 2.187700e-08
4.258234e-05 -1.665170e-05 -5.196162e-09
4.256641e-05 -1.664761e-05 -2.212837e-08
4.356840e-05 -1.704654e-05 -3.436788e-08
4.355301e-05 -1.704093e-05 -1.003750e-08
4.255217e-05 -1.664378e-05 8.810380e-09
4.255216e-05 -1.664404e-05 2.311403e-08
4.256991e-05 -1.664885e-05 2.239394e-08
4.257387e-05 -1.664946e-05 -5.339121e-09
4.256645e-05 -1.664765e-05 2.304282e-08
4.256111e-05 -1.664608e-05 8.698182e-09
4.355299e-05 -1.704063e-05 -3.411038e-08
4.353770e-05 -1.703503e-05 -9.974191e-09
4.353768e-05 -1.703472e-05 -3.383628e-08
4.352250e-05 -1.702914e-05 -9.903825e-09
4.254313e-05 -1.664160e-05 2.330674e-08
4.254751e-05 -1.664260e-05 -5.609328e-09
4.352249e-05 -1.702881e-05 -3.355002e-08
4.350743e-05 -1.702327e-05 -9.827965e-09
4.253405e-05 -1.663916e-05 2.338314e-08
4.253853e-05 -1.664030e-05 -5.644002e-09
4.350741e-05 -1.702294e-05 -3.325566e-08
4.252498e-05 -1.663673e-05 2.334083e-08
4.252954e-05 -1.663799e-05 -5.650453e-09
4.349244e-05 -1.701741e-05 1.403592e-08
4.349246e-05 -1.701709e-05 -3.295664e-08
4.251595e-05 -1.663433e-05 2.317829e-08
4.252056e-05 -1.663571e-05 -5.628620e-09
4.347763e-05 -1.701161e-05 1.391433e-08
4.347765e-05 -1.701128e-05 -3.265574e-08
4.250702e-05 -1.663197e-05 2.289455e-08
4.251167e-05 -1.663346e-05 -5.578433e-09
4.249285e-05 -1.662857e-05 2.259579e-08
4.346294e-05 -1.700584e-05 1.379113e-08
4.346296e-05 -1.700551e-05 -3.235507e-08
4.344843e-05 -1.700013e-05 -9.496474e-09
4.249824e-05 -1.662966e-05 2.248905e-08
4.250289e-05 -1.663126e-05 -5.499914e-09
4.248414e-05 -1.662640e-05 2.197759e-08
4.344842e-05 -1.699979e-05 -3.205620e-08
4.343402e-05 -1.699446e-05 -9.411427e-09
4.248966e-05 -1.662744e-05 2.196151e-08
4.249429e-05 -1.662913e-05 -5.393112e-09
4.343401e-05 -1.699412e-05 -3.176026e-08
4.248132e-05 -1.662531e-05 2.131181e-08
4.248590e-05 -1.662709e-05 -5.258100e-09
4.341971e-05 -1.698881e-05 1.342138e-08
4.341973e-05 -1.698850e-05 -3.146798e-08
4.247329e-05 -1.662330e-05 2.053994e-08
4.247780e-05 -1.662515e-05 -5.094943e-09
4.341282e-05 -1.698603e-05 -7.636553e-09
4.340559e-05 -1.698293e-05 -3.117980e-08
4.339159e-05 -1.697773e-05 -9.160141e-09
4.246560e-05 -1.662143e-05 1.964594e-08
4.247001e-05 -1.662334e-05 -4.903705e-09
4.339158e-05 -1.697741e-05 -3.089611e-08
4.245831e-05 -1.661971e-05 1.862988e-08
4.246260e-05 -1.662168e-05 -4.684439e-09
4.337768e-05 -1.697224e-05 1.306231e-08
4.337770e-05 -1.697194e-05 -3.061705e-08
4.336396e-05 -1.696683e-05 -8.997741e-09
4.245147e-05 -1.661817e-05 1.749179e-08
4.245561e-05 -1.662019e-05 -4.437184e-09
4.336395e-05 -1.696652e-05 -3.034263e-08
4.335034e-05 -1.696145e-05 -8.918484e-09
4.244513e-05 -1.661683e-05 1.623169e-08
4.244910e-05 -1.661888e-05 -4.161962e-09
4.243356e-05 -1.661541e-05 -1.345880e-08
4.335032e-05 -1.696115e-05 -3.007292e-08
4.333684e-05 -1.695612e-05 -8.840558e-09
4.242962e-05 -1.661597e-05 4.192291e-09
4.242962e-05 -1.661417e-05 1.171855e-08
4.243934e-05 -1.661570e-05 1.484953e-08
4.244312e-05 -1.661777e-05 -3.858752e-09
4.243359e-05 -1.661532e-05 1.406066e-08
4.243416e-05 -1.661647e-05 4.849161e-09
4.333682e-05 -1.695583e-05 -2.980790e-08
4.332346e-05 -1.695084e-05 -8.763979e-09
4.332345e-05 -1.695055e-05 -2.954753e-08
4.331020e-05 -1.694561e-05 -8.688749e-09
4.242579e-05 -1.661381e-05 9.969538e-09
4.242882e-05 -1.661590e-05 -2.781278e-09
4.331019e-05 -1.694533e-05 -2.929176e-08
4.329706e-05 -1.694043e-05 -8.614866e-09
4.242272e-05 -1.661374e-05 8.097908e-09
4.242545e-05 -1.661582e-05 -2.365885e-09
4.329705e-05 -1.694014e-05 -2.904055e-08
4.242044e-05 -1.661399e-05 6.103468e-09
4.242285e-05 -1.661605e-05 -1.922258e-09
4.241405e-05 -1.661514e-05 2.265518e-09
4.328401e-05 -1.693528e-05 1.228969e-08
4.328402e-05 -1.693501e-05 -2.879386e-08
4.241903e-05 -1.661458e-05 3.986125e-09
4.242109e-05 -1.661660e-05 -1.450300e-09
4.241376e-05 -1.661626e-05 -1.496850e-10
4.327110e-05 -1.693018e-05 1.218705e-08
4.327111e-05 -1.692992e-05 -2.855166e-08
4.241851e-05 -1.661551e-05 1.745921e-09
4.242020e-05 -1.661749e-05 -9.498566e-10
4.325830e-05 -1.692513e-05 1.208630e-08
4.325832e-05 -1.692487e-05 -2.831392e-08
4.324564e-05 -1.692013e-05 -8.332644e-09
4.241896e-05 -1.661682e-05 -6.168553e-10
4.242025e-05 -1.661875e-05 -4.207903e-10
4.324563e-05 -1.691987e-05 -2.808062e-08
4.323306e-05 -1.691516e-05 -8.265372e-09
4.242040e-05 -1.661851e-05 -3.101537e-09
4.242127e-05 -1.662038e-05 1.370210e-10
4.241894e-05 -1.662198e-05 -8.148082e-09
4.323305e-05 -1.691491e-05 -2.785173e-08
4.242290e-05 -1.662061e-05 -5.706859e-09
4.242333e-05 -1.662241e-05 7.236730e-10
4.322056e-05 -1.691023e-05 1.179537e-08
4.322057e-05 -1.690999e-05 -2.762725e-08
4.320821e-05 -1.690535e-05 -8.134655e-09
4.242650e-05 -1.662313e-05 -8.430708e-09
4.242646e-05 -1.662485e-05 1.339197e-09
4.320820e-05 -1.690511e-05 -2.740719e-08
4.243124e-05 -1.662607e-05 -1.126980e-08
4.243071e-05 -1.662771e-05 1.983508e-09
4.320218e-05 -1.690292e-05 -6.648683e-09
4.319592e-05 -1.690027e-05 -2.719151e-08
4.318376e-05 -1.689570e-05 -8.009162e-09
4.243717e-05 -1.662944e-05 -1.421929e-08
4.243612e-05 -1.663099e-05 2.656350e-09
4.318375e-05 -1.689546e-05 -2.698014e-08
4.317168e-05 -1.689093e-05 -7.948222e-09
4.244432e-05 -1.663326e-05 -1.727231e-08
4.244274e-05 -1.663470e-05 3.357196e-09
4.317167e-05 -1.689070e-05 -2.677315e-08
4.315970e-05 -1.688620e-05 -7.888393e-09
4.245273e-05 -1.663750e-05 -2.041952e-08
4.245059e-05 -1.663884e-05 4.085144e-09
4.246074e-05 -1.664501e-05 2.616416e-08
4.315969e-05 -1.688597e-05 -2.657044e-08
4.314782e-05 -1.688151e-05 -7.829678e-09
4.248569e-05 -1.665626e-05 -1.248099e-08
4.248568e-05 -1.665268e-05 -3.028841e-08
4.246241e-05 -1.664217e-05 -2.364871e-08
4.245971e-05 -1.664339e-05 4.838708e-09
4.246075e-05 -1.664479e-05 -2.706941e-08
4.247341e-05 -1.665077e-05 -1.120495e-08
4.314781e-05 -1.688128e-05 -2.637187e-08
4.313602e-05 -1.687685e-05 -7.771973e-09
4.313601e-05 -1.687663e-05 -2.617734e-08
4.312431e-05 -1.687223e-05 -7.715141e-09
4.249927e-05 -1.665846e-05 -3.366067e-08
4.249477e-05 -1.665932e-05 7.229024e-09
4.312430e-05 -1.687202e-05 -2.598663e-08
4.251414e-05 -1.666455e-05 -3.704092e-08
4.250903e-05 -1.666527e-05 8.056089e-09
4.253148e-05 -1.667423e-05 -4.403049e-08
4.311268e-05 -1.686764e-05 1.101786e-08
4.311269e-05 -1.686744e-05 -2.579944e-08
4.253028e-05 -1.667089e-05 -4.041064e-08
4.252455e-05 -1.667149e-05 8.889866e-09
4.254957e-05 -1.668090e-05 -4.734148e-08
4.310116e-05 -1.686310e-05 1.093828e-08
4.310116e-05 -1.686290e-05 -2.561533e-08
4.254768e-05 -1.667746e-05 -4.375491e-08
4.254131e-05 -1.667792e-05 9.724555e-09
4.308971e-05 -1.685859e-05 1.085919e-08
4.308972e-05 -1.685839e-05 -2.543374e-08
4.307837e-05 -1.685413e-05 -7.492115e-09
4.256630e-05 -1.668424e-05 -4.706172e-08
4.255930e-05 -1.668455e-05 1.055408e-08
4.307836e-05 -1.685393e-05 -2.525394e-08
4.306710e-05 -1.684971e-05 -7.435870e-09
4.258615e-05 -1.669122e-05 -5.031932e-08
4.257851e-05 -1.669138e-05 1.137242e-08
4.306710e-05 -1.684950e-05 -2.507502e-08
4.260721e-05 -1.669844e-05 -5.351340e-08
4.259891e-05 -1.669840e-05 1.217356e-08
4.305591e-05 -1.684532e-05 1.062010e-08
4.305592e-05 -1.684512e-05 -2.489594e-08
4.304484e-05 -1.684099e-05 -7.320138e-09
4.262947e-05 -1.670591e-05 -5.662594e-08
4.262050e-05 -1.670565e-05 1.295151e-08
4.304483e-05 -1.684078e-05 -2.471554e-08
4.265292e-05 -1.671367e-05 -5.963642e-08
4.264327e-05 -1.671315e-05 1.370063e-08
4.303383e-05 -1.683670e-05 1.045409e-08
4.303383e-05 -1.683649e-05 -2.453272e-08
4.302293e-05 -1.683247e-05 -7.198306e-09
4.267754e-05 -1.672175e-05 -6.252399e-08
4.266721e-05 -1.672093e-05 1.441593e-08
4.302293e-05 -1.683226e-05 -2.434648e-08
4.301213e-05 -1.682829e-05 -7.135012e-09
4.270327e-05 -1.673016e-05 -6.526942e-08
4.269228e-05 -1.672901e-05 1.509332e-08
4.301212e-05 -1.682807e-05 -2.415606e-08
4.300142e-05 -1.682417e-05 -7.070413e-09
4.273010e-05 -1.673891e-05 -6.785623e-08
4.271845e-05 -1.673741e-05 1.572958e-08
4.276763e-05 -1.675293e-05 7.091866e-08
4.300141e-05 -1.682394e-05 -2.396073e-08
4.299081e-05 -1.682010e-05 -7.004654e-09
4.281656e-05 -1.676926e-05 -2.915752e-08
4.281648e-05 -1.676716e-05 -7.454333e-08
4.275795e-05 -1.674800e-05 -7.027092e-08
4.274566e-05 -1.674613e-05 1.632216e-08
4.276764e-05 -1.675279e-05 -7.371621e-08
4.278684e-05 -1.675972e-05 -2.835090e-08
4.299080e-05 -1.681987e-05 -2.375971e-08
4.298030e-05 -1.681609e-05 -6.937644e-09
4.298030e-05 -1.681585e-05 -2.355219e-08
4.284702e-05 -1.677721e-05 -7.638743e-08
4.283301e-05 -1.677424e-05 1.782544e-08
4.296988e-05 -1.681212e-05 9.907154e-09
4.296989e-05 -1.681188e-05 -2.333707e-08
4.287830e-05 -1.678753e-05 -7.803072e-08
4.286379e-05 -1.678421e-05 1.823173e-08
4.295959e-05 -1.680821e-05 9.807927e-09
4.295960e-05 -1.680796e-05 -2.311318e-08
4.291025e-05 -1.679811e-05 -7.946989e-08
4.289528e-05 -1.679444e-05 1.859006e-08
4.295720e-05 -1.681444e-05 -8.394876e-08
4.294940e-05 -1.680435e-05 9.705368e-09
4.294941e-05 -1.680409e-05 -2.287947e-08
4.293935e-05 -1.680055e-05 -6.652382e-09
4.294279e-05 -1.680890e-05 -8.070272e-08
4.292739e-05 -1.680490e-05 1.890043e-08
4.299088e-05 -1.682551e-05 -8.490889e-08
4.293934e-05 -1.680027e-05 -2.263498e-08
4.297583e-05 -1.681990e-05 -8.172775e-08
4.296005e-05 -1.681557e-05 1.916259e-08
4.292936e-05 -1.679678e-05 9.488236e-09
4.292938e-05 -1.679650e-05 -2.237889e-08
4.291955e-05 -1.679309e-05 -6.494390e-09
4.300928e-05 -1.683105e-05 -8.254390e-08
4.299316e-05 -1.682642e-05 1.937645e-08
4.291955e-05 -1.679278e-05 -2.211060e-08
4.290984e-05 -1.678944e-05 -6.410442e-09
4.304306e-05 -1.684233e-05 -8.315031e-08
4.302665e-05 -1.683741e-05 1.954194e-08
4.290984e-05 -1.678911e-05 -2.182963e-08
4.307708e-05 -1.685371e-05 -8.354633e-08
4.306041e-05 -1.684851e-05 1.965901e-08
4.290023e-05 -1.678582e-05 9.126551e-09
4.290026e-05 -1.678550e-05 -2.153563e-08
4.289082e-05 -1.678229e-05 -6.231651e-09
4.311125e-05 -1.686515e-05 -8.373135e-08
4.309438e-05 -1.685969e-05 1.972756e-08
4.289082e-05 -1.678194e-05 -2.122837e-08
4.314548e-05 -1.687661e-05 -8.370479e-08
4.312845e-05 -1.687092e-05 1.974751e-08
4.288148e-05 -1.677878e-05 8.858522e-09
4.288152e-05 -1.677843e-05 -2.090770e-08
4.287237e-05 -1.677537e-05 -6.037542e-09
4.317969e-05 -1.688807e-05 -8.346607e-08
4.316253e-05 -1.688215e-05 1.971874e-08
4.287237e-05 -1.677499e-05 -2.057350e-08
4.286337e-05 -1.677200e-05 -5.934555e-09
4.321378e-05 -1.689948e-05 -8.301457e-08
4.319655e-05 -1.689335e-05 1.964111e-08
4.286337e-05 -1.677160e-05 -2.022573e-08
4.285454e-05 -1.676869e-05 -5.827551e-09
4.324766e-05 -1.691080e-05 -8.234970e-08
4.323040e-05 -1.690449e-05 1.951445e-08
4.330010e-05 -1.692742e-05 8.044198e-08
4.285453e-05 -1.676828e-05 -1.986434e-08
4.284586e-05 -1.676545e-05 -5.716509e-09
4.334724e-05 -1.694252e-05 -3.089815e-08
4.334715e-05 -1.694394e-05 -7.906658e-08
4.328125e-05 -1.692202e-05 -8.147071e-08
4.326400e-05 -1.691553e-05 1.933840e-08
4.330013e-05 -1.692750e-05 -8.359476e-08
4.331454e-05 -1.693188e-05 -3.142910e-08
4.284586e-05 -1.676502e-05 -1.948936e-08
4.283731e-05 -1.676225e-05 8.088309e-09
4.283736e-05 -1.676183e-05 -1.910074e-08
4.337928e-05 -1.695459e-05 -7.754044e-08
4.336235e-05 -1.694769e-05 1.851403e-08
4.283341e-05 -1.676071e-05 -4.636234e-09
4.282904e-05 -1.675871e-05 -1.869846e-08
4.341074e-05 -1.696497e-05 -7.579749e-08
4.339401e-05 -1.695797e-05 1.813903e-08
4.282084e-05 -1.675611e-05 7.739511e-09
4.282090e-05 -1.675566e-05 -1.828260e-08
4.281295e-05 -1.675318e-05 -5.231953e-09
4.344144e-05 -1.697505e-05 -7.383693e-08
4.342495e-05 -1.696797e-05 1.771365e-08
4.281295e-05 -1.675269e-05 -1.785311e-08
4.347128e-05 -1.698480e-05 -7.165846e-08
4.345508e-05 -1.697765e-05 1.723781e-08
4.280513e-05 -1.675027e-05 7.367316e-09
4.280519e-05 -1.674979e-05 -1.740997e-08
4.279765e-05 -1.674749e-05 -4.965216e-09
4.350018e-05 -1.699418e-05 -6.926229e-08
4.348430e-05 -1.698698e-05 1.671110e-08
4.279764e-05 -1.674697e-05 -1.695319e-08
4.279030e-05 -1.674477e-05 -4.825731e-09
4.352802e-05 -1.700316e-05 -6.664916e-08
4.351253e-05 -1.699593e-05 1.613332e-08
4.279030e-05 -1.674423e-05 -1.648274e-08
4.278317e-05 -1.674213e-05 -4.682161e-09
4.355473e-05 -1.701171e-05 -6.382073e-08
4.353967e-05 -1.700446e-05 1.550430e-08
4.278316e-05 -1.674158e-05 -1.599861e-08
4.277626e-05 -1.673957e-05 -4.534502e-09
4.358022e-05 -1.701980e-05 -6.077989e-08
4.356563e-05 -1.701255e-05 1.482403e-08
4.277625e-05 -1.673901e-05 -1.550076e-08
4.276957e-05 -1.673711e-05 -4.382760e-09
4.360440e-05 -1.702739e-05 -5.753129e-08
4.359032e-05 -1.702017e-05 1.409267e-08
4.276957e-05 -1.673653e-05 -1.498917e-08
4.276311e-05 -1.673473e-05 -4.226950e-09
4.362718e-05 -1.703449e-05 -5.408182e-08
4.361366e-05 -1.702729e-05 1.331067e-08
4.276311e-05 -1.673414e-05 -1.446381e-08
4.275690e-05 -1.673245e-05 -4.067100e-09
4.364849e-05 -1.704106e-05 -5.044132e-08
4.363557e-05 -1.703392e-05 1.247888e-08
4.275689e-05 -1.673185e-05 -1.392466e-08
4.275092e-05 -1.673027e-05 -3.903257e-09
4.366827e-05 -1.704712e-05 -4.662317e-08
4.365599e-05 -1.704003e-05 1.159872e-08
4.370337e-05 -1.705476e-05 3.999338e-08
4.275092e-05 -1.672964e-05 -1.337175e-08
4.274519e-05 -1.672818e-05 -3.735509e-09
4.371787e-05 -1.705784e-05 -1.324889e-08
4.371786e-05 -1.706224e-05 -3.429555e-08
4.367484e-05 -1.704564e-05 1.067229e-08
4.368645e-05 -1.705265e-05 -4.264466e-08
4.370301e-05 -1.705338e-05 -1.485339e-08
4.274519e-05 -1.672754e-05 -1.280514e-08
4.273972e-05 -1.672619e-05 -3.563975e-09
4.273972e-05 -1.672553e-05 -1.222493e-08
4.273451e-05 -1.672430e-05 -3.388853e-09
4.373103e-05 -1.706636e-05 -2.997694e-08
4.372163e-05 -1.705966e-05 7.653704e-09
4.273451e-05 -1.672363e-05 -1.163140e-08
4.272957e-05 -1.672251e-05 -3.210449e-09
4.374250e-05 -1.707008e-05 -2.559690e-08
4.373388e-05 -1.706351e-05 6.585730e-09
4.272957e-05 -1.672182e-05 -1.102489e-08
4.272489e-05 -1.672082e-05 -3.029142e-09
4.375227e-05 -1.707345e-05 -2.117723e-08
4.374446e-05 -1.706700e-05 5.498636e-09
4.272489e-05 -1.672012e-05 -1.040599e-08
4.272049e-05 -1.671923e-05 -2.845412e-09
4.376033e-05 -1.707649e-05 -1.673530e-08
4.375335e-05 -1.707018e-05 4.400228e-09
4.272049e-05 -1.671852e-05 -9.775594e-09
4.376669e-05 -1.707919e-05 -1.228633e-08
4.376056e-05 -1.707305e-05 3.298181e-09
4.271626e-05 -1.671770e-05 3.848222e-09
4.271637e-05 -1.671702e-05 -9.134904e-09
4.377132e-05 -1.708154e-05 -7.847318e-09
4.376608e-05 -1.707559e-05 2.200242e-09
4.271241e-05 -1.671631e-05 3.577316e-09
4.271252e-05 -1.671562e-05 -8.485571e-09
4.270896e-05 -1.671505e-05 -2.287565e-09
4.377421e-05 -1.708348e-05 -3.439830e-09
4.376988e-05 -1.707777e-05 1.114170e-09
4.270896e-05 -1.671432e-05 -7.829792e-09
4.377536e-05 -1.708496e-05 9.105082e-10
4.377196e-05 -1.707956e-05 4.748073e-11
4.270556e-05 -1.671379e-05 3.035385e-09
4.270567e-05 -1.671310e-05 -7.170307e-09
4.270267e-05 -1.671270e-05 -1.921090e-09
4.377478e-05 -1.708596e-05 5.176692e-09
4.377232e-05 -1.708090e-05 -9.930221e-10
4.270267e-05 -1.671197e-05 -6.510389e-09
4.269993e-05 -1.671163e-05 -1.743289e-09
4.377247e-05 -1.708642e-05 9.333231e-09
4.377097e-05 -1.708175e-05 -2.001636e-09
4.377369e-05 -1.708587e-05 1.503808e-08
4.269993e-05 -1.671091e-05 -5.853709e-09
4.269746e-05 -1.671063e-05 -1.570541e-09
4.376848e-05 -1.708633e-05 1.335798e-08
4.376792e-05 -1.708209e-05 -2.973884e-09
4.269746e-05 -1.670991e-05 -5.204040e-09
4.269525e-05 -1.670968e-05 -1.403330e-09
4.376284e-05 -1.708568e-05 1.723287e-08
4.376321e-05 -1.708189e-05 -3.906436e-09
4.375851e-05 -1.708344e-05 2.274265e-08
4.269525e-05 -1.670897e-05 -4.564861e-09
4.269328e-05 -1.670877e-05 -1.241558e-09
4.373664e-05 -1.707701e-05 1.039958e-08
4.373663e-05 -1.708037e-05 2.783487e-08
4.375560e-05 -1.708446e-05 2.094387e-08
4.374685e-05 -1.708269e-05 2.448041e-08
4.375689e-05 -1.708113e-05 -4.796884e-09
4.269328e-05 -1.670808e-05 -3.939090e-09
4.269156e-05 -1.670790e-05 -1.084715e-09
4.269156e-05 -1.670723e-05 -3.329140e-09
4.269007e-05 -1.670707e-05 -9.322166e-10
4.372503e-05 -1.707753e-05 3.100217e-08
4.372887e-05 -1.707560e-05 -7.203153e-09
4.269007e-05 -1.670643e-05 -2.737338e-09
4.268881e-05 -1.670628e-05 -7.837784e-10
4.371213e-05 -1.707419e-05 3.397900e-08
4.371674e-05 -1.707272e-05 -7.914647e-09
4.268881e-05 -1.670566e-05 -2.166382e-09
4.369800e-05 -1.707038e-05 3.676314e-08
4.370335e-05 -1.706935e-05 -8.580546e-09
4.268768e-05 -1.670550e-05 8.523684e-10
4.268777e-05 -1.670494e-05 -1.619575e-09
4.268695e-05 -1.670483e-05 -5.007502e-10
4.368273e-05 -1.706613e-05 3.935336e-08
4.368877e-05 -1.706552e-05 -9.200952e-09
4.268695e-05 -1.670427e-05 -1.100629e-09
4.268633e-05 -1.670417e-05 -3.681987e-10
4.366640e-05 -1.706146e-05 4.174915e-08
4.367310e-05 -1.706127e-05 -9.775929e-09
4.268633e-05 -1.670365e-05 -6.132849e-10
4.364909e-05 -1.705641e-05 4.395038e-08
4.365640e-05 -1.705662e-05 -1.030562e-08
4.268635e-05 -1.670386e-05 7.272637e-13
4.268590e-05 -1.670308e-05 -1.609954e-10
4.268566e-05 -1.670301e-05 -1.274877e-10
4.363089e-05 -1.705101e-05 4.595721e-08
4.363877e-05 -1.705160e-05 -1.079018e-08
4.268566e-05 -1.670257e-05 2.532999e-10
4.268558e-05 -1.670251e-05 -2.173557e-11
4.361189e-05 -1.704530e-05 4.776994e-08
4.362029e-05 -1.704625e-05 -1.122978e-08
4.268558e-05 -1.670212e-05 6.272109e-10
4.268566e-05 -1.670206e-05 7.296431e-11
4.359215e-05 -1.703930e-05 4.938898e-08
4.360104e-05 -1.704060e-05 -1.162459e-08
4.268566e-05 -1.670171e-05 9.588977e-10
4.268587e-05 -1.670165e-05 1.558548e-10
4.357178e-05 -1.703305e-05 5.081476e-08
4.358111e-05 -1.703468e-05 -1.197474e-08
4.268587e-05 -1.670135e-05 1.246976e-09
4.268619e-05 -1.670128e-05 2.263639e-10
4.355086e-05 -1.702658e-05 5.204771e-08
4.356058e-05 -1.702853e-05 -1.228037e-08
4.268619e-05 -1.670103e-05 1.490465e-09
4.268661e-05 -1.670094e-05 2.840496e-10
4.352945e-05 -1.701993e-05 5.308826e-08
4.353954e-05 -1.702217e-05 -1.254162e-08
4.268661e-05 -1.670075e-05 1.688671e-09
4.268710e-05 -1.670064e-05 3.285986e-10
4.350766e-05 -1.701312e-05 5.393685e-08
4.351806e-05 -1.701565e-05 -1.275857e-08
4.347537e-05 -1.700267e-05 5.635608e-08
4.268710e-05 -1.670049e-05 1.841141e-09
4.268766e-05 -1.670035e-05 3.597859e-10
4.345258e-05 -1.699563e-05 5.674560e-08
4.344080e-05 -1.699195e-05 2.144844e-08
4.348556e-05 -1.700620e-05 5.459382e-08
4.349624e-05 -1.700898e-05 -1.293120e-08
4.346323e-05 -1.699918e-05 5.505931e-08
4.346328e-05 -1.699882e-05 2.133651e-08
4.268766e-05 -1.670026e-05 1.947584e-09
4.268824e-05 -1.670008e-05 3.774535e-10
4.268824e-05 -1.670003e-05 2.007821e-09
4.268885e-05 -1.669981e-05 3.814999e-10
4.341822e-05 -1.698502e-05 5.541754e-08
4.342948e-05 -1.698850e-05 -1.318537e-08
4.268885e-05 -1.669982e-05 2.021762e-09
4.268945e-05 -1.669954e-05 3.718503e-10
4.339571e-05 -1.697793e-05 5.531134e-08
4.340707e-05 -1.698161e-05 -1.318189e-08
4.268945e-05 -1.669960e-05 1.989351e-09
4.269003e-05 -1.669926e-05 3.484598e-10
4.337329e-05 -1.697088e-05 5.501537e-08
4.338472e-05 -1.697475e-05 -1.313446e-08
4.269003e-05 -1.669937e-05 1.910570e-09
4.269056e-05 -1.669897e-05 3.112977e-10
4.335105e-05 -1.696390e-05 5.453029e-08
4.336251e-05 -1.696794e-05 -1.304324e-08
4.269056e-05 -1.669913e-05 1.785408e-09
4.332906e-05 -1.695701e-05 5.385714e-08
4.334051e-05 -1.696120e-05 -1.290816e-08
4.269108e-05 -1.669866e-05 -4.689395e-10
4.269102e-05 -1.669886e-05 1.613857e-09
4.330741e-05 -1.695026e-05 5.299734e-08
4.331881e-05 -1.695458e-05 -1.272926e-08
4.269147e-05 -1.669831e-05 -3.757607e-10
4.269140e-05 -1.669855e-05 1.395894e-09
4.269167e-05 -1.669789e-05 1.169897e-10
4.328617e-05 -1.694365e-05 5.195295e-08
4.329748e-05 -1.694810e-05 -1.250666e-08
4.269167e-05 -1.669821e-05 1.131493e-09
4.326541e-05 -1.693722e-05 5.072692e-08
4.327660e-05 -1.694177e-05 -1.224054e-08
4.269190e-05 -1.669747e-05 -1.297386e-10
4.269182e-05 -1.669781e-05 8.206139e-10
4.269181e-05 -1.669693e-05 -8.172505e-11
4.324521e-05 -1.693098e-05 4.932337e-08
4.325623e-05 -1.693563e-05 -1.193124e-08
4.321250e-05 -1.692211e-05 4.812978e-08
4.269181e-05 -1.669735e-05 4.631959e-10
4.269164e-05 -1.669636e-05 -2.018603e-10
4.322562e-05 -1.692495e-05 4.774797e-08
4.323646e-05 -1.692969e-05 -1.157928e-08
4.319362e-05 -1.691643e-05 4.626362e-08
4.269164e-05 -1.669683e-05 5.917534e-11
4.269128e-05 -1.669571e-05 -3.358448e-10
4.320673e-05 -1.691915e-05 4.600826e-08
4.321733e-05 -1.692396e-05 -1.118547e-08
4.269128e-05 -1.669624e-05 -3.915251e-10
4.269070e-05 -1.669498e-05 -4.836455e-10
4.318857e-05 -1.691359e-05 4.411402e-08
4.319891e-05 -1.691844e-05 -1.075101e-08
4.315826e-05 -1.690589e-05 -4.049812e-08
4.269070e-05 -1.669556e-05 -8.889594e-10
4.268990e-05 -1.669416e-05 -6.452072e-10
4.313905e-05 -1.690070e-05 1.461960e-08
4.313903e-05 -1.689825e-05 3.763412e-08
4.317121e-05 -1.690825e-05 4.207727e-08
4.318125e-05 -1.691315e-05 -1.027750e-08
4.315827e-05 -1.690575e-05 4.211638e-08
4.315471e-05 -1.690548e-05 1.546992e-08
4.268990e-05 -1.669479e-05 -1.433170e-09
4.268884e-05 -1.669324e-05 -8.204147e-10
4.268884e-05 -1.669392e-05 -2.024131e-09
4.268751e-05 -1.669221e-05 -1.009081e-09
4.312427e-05 -1.689355e-05 3.525922e-08
4.313327e-05 -1.689851e-05 -8.650326e-09
4.268751e-05 -1.669294e-05 -2.661724e-09
4.311043e-05 -1.688904e-05 3.280126e-08
4.311903e-05 -1.689400e-05 -8.050838e-09
4.268604e-05 -1.669113e-05 1.649084e-09
4.268589e-05 -1.669186e-05 -3.345668e-09
4.268396e-05 -1.668982e-05 -1.425455e-09
4.309754e-05 -1.688469e-05 3.027125e-08
4.310571e-05 -1.688965e-05 -7.430099e-09
4.268396e-05 -1.669065e-05 -4.075448e-09
4.268170e-05 -1.668844e-05 -1.652071e-09
4.308561e-05 -1.688052e-05 2.767822e-08
4.309334e-05 -1.688546e-05 -6.792737e-09
4.268170e-05 -1.668932e-05 -4.850193e-09
4.307467e-05 -1.687654e-05 2.503118e-08
4.308193e-05 -1.688144e-05 -6.143207e-09
4.267927e-05 -1.668700e-05 2.631115e-09
4.267909e-05 -1.668787e-05 -5.668545e-09
4.267611e-05 -1.668531e-05 -2.137526e-09
4.306476e-05 -1.687278e-05 2.234122e-08
4.307152e-05 -1.687761e-05 -5.486042e-09
4.267611e-05 -1.668628e-05 -6.528485e-09
4.267276e-05 -1.668355e-05 -2.393459e-09
4.305589e-05 -1.686928e-05 1.962210e-08
4.306213e-05 -1.687400e-05 -4.825708e-09
4.267276e-05 -1.668457e-05 -7.427139e-09
4.266902e-05 -1.668167e-05 -2.655526e-09
4.304810e-05 -1.686607e-05 1.688921e-08
4.305380e-05 -1.687066e-05 -4.166370e-09
4.266902e-05 -1.668272e-05 -8.360514e-09
4.266488e-05 -1.667968e-05 -2.921085e-09
4.304141e-05 -1.686319e-05 1.415783e-08
4.304654e-05 -1.686760e-05 -3.511639e-09
4.266488e-05 -1.668076e-05 -9.323295e-09
4.266034e-05 -1.667758e-05 -3.186942e-09
4.303582e-05 -1.686067e-05 1.144179e-08
4.304037e-05 -1.686488e-05 -2.864417e-09
4.302406e-05 -1.685773e-05 8.071972e-09
4.266034e-05 -1.667868e-05 -1.030873e-08
4.265540e-05 -1.667540e-05 -3.449573e-09
4.303133e-05 -1.685852e-05 8.752726e-09
4.303530e-05 -1.686250e-05 -2.226914e-09
4.302132e-05 -1.685617e-05 5.332131e-09
4.265540e-05 -1.667651e-05 -1.130853e-08
4.265007e-05 -1.667316e-05 -3.705428e-09
4.302845e-05 -1.685888e-05 -9.868889e-10
4.302441e-05 -1.685707e-05 6.071494e-10
4.302441e-05 -1.685441e-05 9.290416e-10
4.302794e-05 -1.685675e-05 6.099861e-09
4.303133e-05 -1.686050e-05 -1.600706e-09
4.265007e-05 -1.667427e-05 -1.231312e-08
4.264435e-05 -1.667087e-05 -3.951389e-09
4.264435e-05 -1.667196e-05 -1.331229e-08
4.263827e-05 -1.666856e-05 -4.185433e-09
4.302425e-05 -1.685384e-05 -1.580051e-09
4.302592e-05 -1.685683e-05 2.011172e-10
4.263827e-05 -1.666963e-05 -1.429610e-08
4.263184e-05 -1.666626e-05 -4.407111e-09
4.302512e-05 -1.685366e-05 -4.034705e-09
4.302623e-05 -1.685640e-05 7.747566e-10
4.263183e-05 -1.666730e-05 -1.525591e-08
4.262508e-05 -1.666397e-05 -4.617395e-09
4.302702e-05 -1.685388e-05 -6.433390e-09
4.302758e-05 -1.685636e-05 1.334672e-09
4.262507e-05 -1.666497e-05 -1.618467e-08
4.261800e-05 -1.666171e-05 -4.817898e-09
4.302991e-05 -1.685448e-05 -8.775198e-09
4.302994e-05 -1.685670e-05 1.880900e-09
4.261800e-05 -1.666267e-05 -1.707616e-08
4.261063e-05 -1.665947e-05 -5.009865e-09
4.303377e-05 -1.685547e-05 -1.105968e-08
4.303328e-05 -1.685744e-05 2.413518e-09
4.261063e-05 -1.666038e-05 -1.792366e-08
4.303859e-05 -1.685682e-05 -1.328670e-08
4.303758e-05 -1.685854e-05 2.932635e-09
4.260315e-05 -1.665731e-05 7.625837e-09
4.260296e-05 -1.665810e-05 -1.871900e-08
4.304433e-05 -1.685854e-05 -1.545629e-08
4.304283e-05 -1.686002e-05 3.438360e-09
4.259520e-05 -1.665509e-05 7.893998e-09
4.259503e-05 -1.665581e-05 -1.945259e-08
4.258685e-05 -1.665282e-05 -5.526789e-09
4.305098e-05 -1.686061e-05 -1.756861e-08
4.304898e-05 -1.686185e-05 3.930803e-09
4.305856e-05 -1.686449e-05 -2.128974e-08
4.258684e-05 -1.665350e-05 -2.011424e-08
4.305851e-05 -1.686303e-05 -1.962386e-08
4.305604e-05 -1.686403e-05 4.410066e-09
4.306748e-05 -1.686740e-05 -2.335597e-08
4.257856e-05 -1.665062e-05 8.359116e-09
4.257842e-05 -1.665117e-05 -2.069423e-08
4.256981e-05 -1.664833e-05 -5.794145e-09
4.306689e-05 -1.686578e-05 -2.162226e-08
4.306396e-05 -1.686656e-05 4.876237e-09
4.256980e-05 -1.664881e-05 -2.118404e-08
4.256102e-05 -1.664605e-05 -5.894536e-09
4.307611e-05 -1.686886e-05 -2.356405e-08
4.307272e-05 -1.686941e-05 5.329397e-09
4.256101e-05 -1.664642e-05 -2.157658e-08
4.255210e-05 -1.664375e-05 -5.968918e-09
4.308614e-05 -1.687226e-05 -2.544944e-08
4.308231e-05 -1.687259e-05 5.769608e-09
4.309905e-05 -1.687815e-05 2.810900e-08
4.255209e-05 -1.664401e-05 -2.186623e-08
4.254309e-05 -1.664145e-05 -6.014952e-09
4.312086e-05 -1.688604e-05 -1.214186e-08
4.312085e-05 -1.688426e-05 -3.076858e-08
4.309695e-05 -1.687596e-05 -2.727862e-08
4.309270e-05 -1.687608e-05 6.196851e-09
4.309907e-05 -1.687804e-05 -2.919890e-08
4.310854e-05 -1.688180e-05 -1.145115e-08
4.254308e-05 -1.664158e-05 -2.204891e-08
4.253404e-05 -1.663914e-05 -6.030891e-09
4.253403e-05 -1.663915e-05 -2.212153e-08
4.252499e-05 -1.663685e-05 -6.015468e-09
4.313388e-05 -1.688883e-05 -3.242971e-08
4.312842e-05 -1.688834e-05 7.401973e-09
4.252498e-05 -1.663673e-05 -2.208195e-08
4.251598e-05 -1.663458e-05 -5.967715e-09
4.314761e-05 -1.689368e-05 -3.403515e-08
4.314177e-05 -1.689299e-05 7.777979e-09
4.251597e-05 -1.663434e-05 -2.192880e-08
4.316202e-05 -1.689879e-05 -3.558483e-08
4.315580e-05 -1.689791e-05 8.141199e-09
4.250703e-05 -1.663233e-05 8.702636e-09
4.250707e-05 -1.663198e-05 -2.166120e-08
4.249832e-05 -1.663019e-05 -5.772641e-09
4.317707e-05 -1.690415e-05 -3.707877e-08
4.317050e-05 -1.690308e-05 8.491723e-09
4.249831e-05 -1.662969e-05 -2.127863e-08
4.248976e-05 -1.662810e-05 -5.624521e-09
4.319275e-05 -1.690976e-05 -3.851699e-08
4.318583e-05 -1.690851e-05 8.829490e-09
4.248975e-05 -1.662748e-05 -2.078084e-08
4.320903e-05 -1.691561e-05 -3.989951e-08
4.320177e-05 -1.691418e-05 9.154496e-09
4.248133e-05 -1.662607e-05 8.063741e-09
4.248143e-05 -1.662536e-05 -2.016774e-08
4.247343e-05 -1.662424e-05 -5.226042e-09
4.322589e-05 -1.692168e-05 -4.122634e-08
4.321831e-05 -1.692008e-05 9.466734e-09
4.247342e-05 -1.662336e-05 -1.943933e-08
4.246576e-05 -1.662251e-05 -4.975480e-09
4.324330e-05 -1.692797e-05 -4.249744e-08
4.323541e-05 -1.692620e-05 9.766193e-09
4.326810e-05 -1.693786e-05 -4.609789e-08
4.246575e-05 -1.662150e-05 -1.859566e-08
4.245849e-05 -1.662093e-05 -4.690630e-09
4.326125e-05 -1.693447e-05 -4.371283e-08
4.325306e-05 -1.693253e-05 1.005287e-08
4.245849e-05 -1.661979e-05 -1.763678e-08
4.245167e-05 -1.661952e-05 -4.371456e-09
4.327972e-05 -1.694116e-05 -4.487249e-08
4.327123e-05 -1.693907e-05 1.032676e-08
4.330623e-05 -1.695163e-05 -4.840945e-08
4.245167e-05 -1.661826e-05 -1.656272e-08
4.244536e-05 -1.661832e-05 -4.017937e-09
4.329867e-05 -1.694805e-05 -4.597644e-08
4.328991e-05 -1.694581e-05 1.058784e-08
4.244535e-05 -1.661692e-05 -1.537351e-08
4.243959e-05 -1.661733e-05 -3.630050e-09
4.331808e-05 -1.695513e-05 -4.702473e-08
4.330906e-05 -1.695273e-05 1.083611e-08
4.334614e-05 -1.696617e-05 4.863848e-08
4.243959e-05 -1.661580e-05 -1.406912e-08
4.243443e-05 -1.661657e-05 -3.207815e-09
4.337893e-05 -1.697826e-05 -1.979831e-08
4.337889e-05 -1.697735e-05 -4.983561e-08
4.333794e-05 -1.696237e-05 -4.801740e-08
4.332866e-05 -1.695983e-05 1.107144e-08
4.334616e-05 -1.696612e-05 -5.048754e-08
4.335825e-05 -1.697075e-05 -1.944489e-08
4.243442e-05 -1.661492e-05 -1.264945e-08
4.242991e-05 -1.661607e-05 -2.751209e-09
4.242991e-05 -1.661429e-05 -1.111436e-08
4.242611e-05 -1.661585e-05 -2.260183e-09
4.339994e-05 -1.698507e-05 -5.066162e-08
4.338996e-05 -1.698211e-05 1.170123e-08
4.242610e-05 -1.661394e-05 -9.463729e-09
4.242305e-05 -1.661592e-05 -1.734770e-09
4.342134e-05 -1.699292e-05 -5.143253e-08
4.341115e-05 -1.698984e-05 1.188538e-08
4.242305e-05 -1.661389e-05 -7.697355e-09
4.242080e-05 -1.661631e-05 -1.175075e-09
4.344307e-05 -1.700091e-05 -5.214826e-08
4.343268e-05 -1.699770e-05 1.205676e-08
4.242080e-05 -1.661414e-05 -5.815064e-09
4.346510e-05 -1.700902e-05 -5.280884e-08
4.345453e-05 -1.700569e-05 1.221553e-08
4.241903e-05 -1.661689e-05 1.070339e-09
4.241940e-05 -1.661474e-05 -3.816754e-09
4.348741e-05 -1.701724e-05 -5.341435e-08
4.347667e-05 -1.701380e-05 1.236162e-08
4.241851e-05 -1.661796e-05 1.667262e-10
4.241891e-05 -1.661568e-05 -1.702437e-09
4.241938e-05 -1.661955e-05 7.076124e-10
4.350999e-05 -1.702556e-05 -5.396481e-08
4.349908e-05 -1.702201e-05 1.249507e-08
4.241938e-05 -1.661700e-05 5.276501e-10
4.242085e-05 -1.662138e-05 1.401507e-09
4.353280e-05 -1.703398e-05 -5.446024e-08
4.352174e-05 -1.703033e-05 1.261590e-08
4.356666e-05 -1.704680e-05 -5.740196e-08
4.242085e-05 -1.661870e-05 2.872912e-09
4.355582e-05 -1.704249e-05 -5.490069e-08
4.354462e-05 -1.703873e-05 1.272414e-08
4.359007e-05 -1.705541e-05 -5.777550e-08
4.242290e-05 -1.662345e-05 -2.832068e-09
4.242337e-05 -1.662081e-05 5.332210e-09
4.357904e-05 -1.705107e-05 -5.528628e-08
4.356771e-05 -1.704722e-05 1.281983e-08
4.242650e-05 -1.662609e-05 -3.923600e-09
4.242699e-05 -1.662333e-05 7.903625e-09
4.243176e-05 -1.662934e-05 3.667182e-09
4.360242e-05 -1.705972e-05 -5.561707e-08
4.359097e-05 -1.705577e-05 1.290298e-08
4.243176e-05 -1.662628e-05 1.058415e-08
4.243771e-05 -1.663283e-05 4.476824e-09
4.362594e-05 -1.706843e-05 -5.589318e-08
4.361439e-05 -1.706439e-05 1.297362e-08
4.243771e-05 -1.662967e-05 1.336934e-08
4.244488e-05 -1.663676e-05 5.308363e-09
4.364958e-05 -1.707718e-05 -5.611469e-08
4.363794e-05 -1.707306e-05 1.303174e-08
4.368499e-05 -1.709039e-05 5.655660e-08
4.244488e-05 -1.663349e-05 1.625285e-08
4.245331e-05 -1.664110e-05 6.157228e-09
4.372103e-05 -1.710369e-05 -2.243797e-08
4.372099e-05 -1.710363e-05 -5.645093e-08
4.367332e-05 -1.708597e-05 -5.628161e-08
4.366159e-05 -1.708178e-05 1.307719e-08
4.368501e-05 -1.709038e-05 -5.869454e-08
4.369717e-05 -1.709491e-05 -2.241692e-08
4.245331e-05 -1.663774e-05 1.922606e-08
4.246302e-05 -1.664586e-05 7.017872e-09
4.246301e-05 -1.664241e-05 2.227767e-08
4.247401e-05 -1.665099e-05 7.883984e-09
4.374488e-05 -1.711248e-05 -5.645358e-08
4.373297e-05 -1.710809e-05 1.313902e-08
4.247400e-05 -1.664748e-05 2.539345e-08
4.248631e-05 -1.665648e-05 8.748779e-09
4.376876e-05 -1.712134e-05 -5.640157e-08
4.375683e-05 -1.711688e-05 1.313421e-08
4.248630e-05 -1.665293e-05 2.855643e-08
4.249991e-05 -1.666229e-05 9.605716e-09
4.379263e-05 -1.713018e-05 -5.629460e-08
4.378067e-05 -1.712567e-05 1.311674e-08
4.249989e-05 -1.665871e-05 3.174788e-08
4.381645e-05 -1.713901e-05 -5.613253e-08
4.380448e-05 -1.713445e-05 1.308671e-08
4.251416e-05 -1.666815e-05 -1.501170e-08
4.251477e-05 -1.666480e-05 3.494858e-08
4.253094e-05 -1.667470e-05 1.127918e-08
4.384021e-05 -1.714781e-05 -5.591530e-08
4.382824e-05 -1.714320e-05 1.304399e-08
4.253092e-05 -1.667114e-05 3.814088e-08
4.254833e-05 -1.668123e-05 1.209438e-08
4.386387e-05 -1.715657e-05 -5.564278e-08
4.385191e-05 -1.715193e-05 1.298852e-08
4.254831e-05 -1.667770e-05 4.131017e-08
4.388742e-05 -1.716529e-05 -5.531486e-08
4.387548e-05 -1.716061e-05 1.292028e-08
4.392335e-05 -1.717823e-05 -5.696548e-08
4.256634e-05 -1.668774e-05 -1.868984e-08
4.256693e-05 -1.668447e-05 4.444420e-08
4.258680e-05 -1.669488e-05 1.369387e-08
4.391082e-05 -1.717395e-05 -5.493141e-08
4.389892e-05 -1.716924e-05 1.283923e-08
4.394661e-05 -1.718679e-05 -5.647396e-08
4.258676e-05 -1.669146e-05 4.753094e-08
4.260784e-05 -1.670202e-05 1.448239e-08
4.393406e-05 -1.718255e-05 -5.449231e-08
4.392221e-05 -1.717781e-05 1.274533e-08
4.260780e-05 -1.669867e-05 5.055620e-08
4.263009e-05 -1.670939e-05 1.526217e-08
4.395711e-05 -1.719108e-05 -5.399742e-08
4.394532e-05 -1.718632e-05 1.263856e-08
4.263005e-05 -1.670614e-05 5.350268e-08
4.265352e-05 -1.671703e-05 1.602867e-08
4.397995e-05 -1.719952e-05 -5.344666e-08
4.396823e-05 -1.719474e-05 1.251887e-08
4.401506e-05 -1.721191e-05 5.265682e-08
4.265347e-05 -1.671389e-05 5.635099e-08
4.267811e-05 -1.672495e-05 1.677554e-08
4.404698e-05 -1.722350e-05 -2.040592e-08
4.404694e-05 -1.722425e-05 -5.145709e-08
4.400255e-05 -1.720787e-05 -5.283988e-08
4.399092e-05 -1.720308e-05 1.238611e-08
4.401508e-05 -1.721196e-05 -5.464837e-08
4.402493e-05 -1.721543e-05 -2.069627e-08
4.267805e-05 -1.672196e-05 5.908165e-08
4.270382e-05 -1.673319e-05 1.749583e-08
4.270376e-05 -1.673036e-05 6.167677e-08
4.273062e-05 -1.674176e-05 1.818284e-08
4.406868e-05 -1.723226e-05 -5.068114e-08
4.405737e-05 -1.722746e-05 1.191052e-08
4.273055e-05 -1.673910e-05 6.412095e-08
4.275844e-05 -1.675065e-05 1.883069e-08
4.409009e-05 -1.724014e-05 -4.984874e-08
4.407891e-05 -1.723535e-05 1.172564e-08
4.275837e-05 -1.674817e-05 6.640183e-08
4.278722e-05 -1.675986e-05 1.943465e-08
4.411113e-05 -1.724788e-05 -4.895955e-08
4.410009e-05 -1.724310e-05 1.152762e-08
4.278715e-05 -1.675758e-05 6.850951e-08
4.281690e-05 -1.676939e-05 1.999078e-08
4.413178e-05 -1.725547e-05 -4.801344e-08
4.412091e-05 -1.725070e-05 1.131653e-08
4.281683e-05 -1.676731e-05 7.043647e-08
4.284741e-05 -1.677921e-05 2.049572e-08
4.415203e-05 -1.726289e-05 -4.701034e-08
4.414132e-05 -1.725815e-05 1.109223e-08
4.418378e-05 -1.727364e-05 -4.718390e-08
4.284733e-05 -1.677734e-05 7.217749e-08
4.287866e-05 -1.678931e-05 2.094711e-08
4.417183e-05 -1.727015e-05 -4.595019e-08
4.416131e-05 -1.726543e-05 1.085466e-08
4.420299e-05 -1.728061e-05 -4.598398e-08
4.287857e-05 -1.678765e-05 7.372851e-08
4.419118e-05 -1.727722e-05 -4.483299e-08
4.418085e-05 -1.727253e-05 1.060379e-08
4.291034e-05 -1.679957e-05 -3.111473e-08
4.291049e-05 -1.679821e-05 7.508663e-08
4.421003e-05 -1.728411e-05 -4.365880e-08
4.419991e-05 -1.727945e-05 1.033957e-08
4.294288e-05 -1.681015e-05 -3.160569e-08
4.294299e-05 -1.680899e-05 7.624997e-08
4.297608e-05 -1.682099e-05 2.196612e-08
4.422838e-05 -1.729079e-05 -4.242786e-08
4.421848e-05 -1.728618e-05 1.006198e-08
4.297599e-05 -1.681997e-05 7.721713e-08
4.424619e-05 -1.729727e-05 -4.114056e-08
4.423652e-05 -1.729270e-05 9.770993e-09
4.300938e-05 -1.683186e-05 -3.233809e-08
4.300940e-05 -1.683111e-05 7.798710e-08
4.304324e-05 -1.684296e-05 2.235723e-08
4.426344e-05 -1.730354e-05 -3.979759e-08
4.425401e-05 -1.729901e-05 9.466633e-09
4.304314e-05 -1.684237e-05 7.855910e-08
4.307722e-05 -1.685410e-05 2.246483e-08
4.428010e-05 -1.730958e-05 -3.840003e-08
4.427093e-05 -1.730511e-05 9.148944e-09
4.430691e-05 -1.731802e-05 3.620015e-08
4.307713e-05 -1.685373e-05 7.893252e-08
4.311136e-05 -1.686530e-05 2.251343e-08
4.432640e-05 -1.732472e-05 -1.338030e-08
4.432638e-05 -1.732632e-05 -3.389748e-08
4.429616e-05 -1.731539e-05 -3.694936e-08
4.428726e-05 -1.731098e-05 8.817967e-09
4.430694e-05 -1.731812e-05 -3.757838e-08
4.431161e-05 -1.731943e-05 -1.399261e-08
4.311126e-05 -1.686516e-05 7.910680e-08
4.314555e-05 -1.687653e-05 2.250281e-08
4.314546e-05 -1.687660e-05 7.908142e-08
4.317972e-05 -1.688775e-05 2.243280e-08
4.434050e-05 -1.733142e-05 -3.230292e-08
4.433247e-05 -1.732720e-05 7.749000e-09
4.317963e-05 -1.688804e-05 7.885581e-08
4.321378e-05 -1.689892e-05 2.230324e-08
4.435394e-05 -1.733629e-05 -3.066813e-08
4.434622e-05 -1.733215e-05 7.368701e-09
4.321368e-05 -1.689943e-05 7.842940e-08
4.324762e-05 -1.691001e-05 2.211391e-08
4.436670e-05 -1.734093e-05 -2.899777e-08
4.435929e-05 -1.733686e-05 6.977812e-09
4.324753e-05 -1.691075e-05 7.780153e-08
4.328116e-05 -1.692099e-05 2.186469e-08
4.437874e-05 -1.734534e-05 -2.729666e-08
4.437166e-05 -1.734135e-05 6.577548e-09
4.328107e-05 -1.692194e-05 7.697167e-08
4.439008e-05 -1.734952e-05 -2.556914e-08
4.438334e-05 -1.734561e-05 6.169151e-09
4.329725e-05 -1.692644e-05 1.911299e-08
4.331423e-05 -1.693298e-05 7.593899e-08
4.334698e-05 -1.694243e-05 2.118664e-08
4.440070e-05 -1.735348e-05 -2.381867e-08
4.439430e-05 -1.734966e-05 5.754011e-09
4.441886e-05 -1.735891e-05 -2.207502e-08
4.334690e-05 -1.694383e-05 7.470270e-08
4.337907e-05 -1.695284e-05 2.075731e-08
4.441059e-05 -1.735722e-05 -2.204808e-08
4.440454e-05 -1.735349e-05 5.333547e-09
4.442766e-05 -1.736230e-05 -2.023032e-08
4.337899e-05 -1.695446e-05 7.326234e-08
4.441975e-05 -1.736072e-05 -2.026027e-08
4.441406e-05 -1.735709e-05 4.909167e-09
4.341083e-05 -1.696309e-05 -2.957603e-08
4.341041e-05 -1.696483e-05 7.161717e-08
4.344115e-05 -1.697282e-05 1.971797e-08
4.442815e-05 -1.736399e-05 -1.845889e-08
4.442283e-05 -1.736047e-05 4.482285e-09
4.344107e-05 -1.697489e-05 6.976659e-08
4.347095e-05 -1.698233e-05 1.910856e-08
4.443580e-05 -1.736700e-05 -1.664840e-08
4.443086e-05 -1.736360e-05 4.054303e-09
4.347088e-05 -1.698463e-05 6.771042e-08
4.349979e-05 -1.699147e-05 1.843989e-08
4.444269e-05 -1.736976e-05 -1.483375e-08
4.443812e-05 -1.736648e-05 3.626513e-09
4.445510e-05 -1.737313e-05 1.228785e-08
4.349973e-05 -1.699399e-05 6.544873e-08
4.352760e-05 -1.700021e-05 1.771283e-08
4.445869e-05 -1.737451e-05 -3.822965e-09
4.445869e-05 -1.737633e-05 -9.409753e-09
4.444880e-05 -1.737223e-05 -1.301972e-08
4.444462e-05 -1.736910e-05 3.200007e-09
4.445514e-05 -1.737326e-05 -1.273401e-08
4.445413e-05 -1.737259e-05 -4.537308e-09
4.352754e-05 -1.700295e-05 6.298218e-08
4.355426e-05 -1.700852e-05 1.692871e-08
4.355421e-05 -1.701148e-05 6.031224e-08
4.357971e-05 -1.701637e-05 1.608949e-08
4.446248e-05 -1.737795e-05 -7.620287e-09
4.445949e-05 -1.737527e-05 1.936388e-09
4.357966e-05 -1.701955e-05 5.744156e-08
4.360384e-05 -1.702374e-05 1.519793e-08
4.446549e-05 -1.737927e-05 -5.844198e-09
4.446290e-05 -1.737676e-05 1.522040e-09
4.447200e-05 -1.738059e-05 -3.450175e-09
4.360379e-05 -1.702714e-05 5.437437e-08
4.362658e-05 -1.703062e-05 1.425777e-08
4.446774e-05 -1.738030e-05 -4.082999e-09
4.446554e-05 -1.737795e-05 1.111618e-09
4.362654e-05 -1.703422e-05 5.111703e-08
4.364785e-05 -1.703699e-05 1.327395e-08
4.446923e-05 -1.738103e-05 -2.337809e-09
4.446742e-05 -1.737884e-05 7.052795e-10
4.364782e-05 -1.704078e-05 4.767859e-08
4.366759e-05 -1.704285e-05 1.225267e-08
4.446996e-05 -1.738147e-05 -6.093899e-10
4.446854e-05 -1.737945e-05 3.030860e-10
4.447298e-05 -1.738148e-05 1.941422e-09
4.366756e-05 -1.704682e-05 4.407136e-08
4.368573e-05 -1.704822e-05 1.120141e-08
4.446995e-05 -1.738162e-05 1.101752e-09
4.446891e-05 -1.737976e-05 -9.492015e-11
4.447182e-05 -1.738119e-05 3.702727e-09
4.368571e-05 -1.705234e-05 4.031146e-08
4.446919e-05 -1.738148e-05 2.795284e-09
4.446854e-05 -1.737978e-05 -4.887250e-10
4.369209e-05 -1.705077e-05 9.702861e-09
4.370222e-05 -1.705736e-05 3.641872e-08
4.446770e-05 -1.738105e-05 4.471004e-09
4.446743e-05 -1.737952e-05 -8.783113e-10
4.370769e-05 -1.705543e-05 8.694903e-09
4.371706e-05 -1.706192e-05 3.241635e-08
4.373023e-05 -1.706159e-05 7.952729e-09
4.446549e-05 -1.738034e-05 6.128788e-09
4.446558e-05 -1.737897e-05 -1.263690e-09
4.373021e-05 -1.706603e-05 2.832951e-08
4.446255e-05 -1.737935e-05 7.768564e-09
4.446302e-05 -1.737814e-05 -1.644859e-09
4.374251e-05 -1.706556e-05 -1.000138e-08
4.374167e-05 -1.706976e-05 2.418246e-08
4.375144e-05 -1.706860e-05 5.771449e-09
4.445891e-05 -1.737808e-05 9.390305e-09
4.445975e-05 -1.737702e-05 -2.021821e-09
4.445521e-05 -1.737545e-05 -1.178178e-08
4.375143e-05 -1.707313e-05 1.999639e-08
4.375950e-05 -1.707162e-05 4.679513e-09
4.444381e-05 -1.737105e-05 5.592576e-09
4.444380e-05 -1.737263e-05 1.414705e-08
4.445457e-05 -1.737653e-05 1.099400e-08
4.445576e-05 -1.737563e-05 -2.394553e-09
4.445524e-05 -1.737556e-05 1.222935e-08
4.444953e-05 -1.737311e-05 4.964986e-09
4.375949e-05 -1.707616e-05 1.578869e-08
4.376585e-05 -1.707432e-05 3.582095e-09
4.376585e-05 -1.707886e-05 1.157491e-08
4.377049e-05 -1.707669e-05 2.476573e-09
4.443740e-05 -1.737028e-05 1.569646e-08
4.443966e-05 -1.736984e-05 -3.487700e-09
4.377049e-05 -1.708121e-05 7.372117e-09
4.377339e-05 -1.707867e-05 1.363612e-09
4.443033e-05 -1.736767e-05 1.722786e-08
4.443294e-05 -1.736738e-05 -3.843631e-09
4.377339e-05 -1.708315e-05 3.201229e-09
4.377457e-05 -1.708024e-05 2.477981e-10
4.442260e-05 -1.736479e-05 1.874122e-08
4.442555e-05 -1.736465e-05 -4.195347e-09
4.377456e-05 -1.708464e-05 -9.134480e-10
4.377400e-05 -1.708134e-05 -8.633868e-10
4.441422e-05 -1.736167e-05 2.023652e-08
4.441750e-05 -1.736167e-05 -4.542895e-09
4.377400e-05 -1.708564e-05 -4.946614e-09
4.377172e-05 -1.708193e-05 -1.961223e-09
4.440519e-05 -1.735829e-05 2.171379e-08
4.440880e-05 -1.735844e-05 -4.886253e-09
4.377172e-05 -1.708611e-05 -8.874524e-09
4.439552e-05 -1.735466e-05 2.317305e-08
4.439947e-05 -1.735495e-05 -5.225425e-09
4.376848e-05 -1.708226e-05 4.671953e-09
4.376775e-05 -1.708603e-05 -1.267662e-08
4.376215e-05 -1.708152e-05 -4.083362e-09
4.438522e-05 -1.735078e-05 2.461429e-08
4.438950e-05 -1.735122e-05 -5.560423e-09
4.437138e-05 -1.734442e-05 2.787134e-08
4.376215e-05 -1.708539e-05 -1.633615e-08
4.375495e-05 -1.708049e-05 -5.093531e-09
4.437431e-05 -1.734666e-05 2.603748e-08
4.437891e-05 -1.734724e-05 -5.891260e-09
4.435952e-05 -1.733995e-05 2.933157e-08
4.375495e-05 -1.708418e-05 -1.984013e-08
4.436278e-05 -1.734230e-05 2.744255e-08
4.436770e-05 -1.734302e-05 -6.217954e-09
4.374902e-05 -1.707983e-05 -5.643696e-09
4.374622e-05 -1.708242e-05 -2.317888e-08
4.373605e-05 -1.707680e-05 -6.986499e-09
4.435065e-05 -1.733771e-05 2.882934e-08
4.435588e-05 -1.733856e-05 -6.540522e-09
4.373604e-05 -1.708012e-05 -2.634541e-08
4.372449e-05 -1.707417e-05 -7.862339e-09
4.433793e-05 -1.733289e-05 3.019762e-08
4.434347e-05 -1.733388e-05 -6.858971e-09
4.432035e-05 -1.732505e-05 -3.238295e-08
4.372448e-05 -1.707729e-05 -2.933503e-08
4.371163e-05 -1.707104e-05 -8.687955e-09
4.429631e-05 -1.731576e-05 1.361340e-08
4.429629e-05 -1.731708e-05 3.418514e-08
4.432462e-05 -1.732784e-05 3.154694e-08
4.433046e-05 -1.732896e-05 -7.173218e-09
4.432038e-05 -1.732514e-05 3.359252e-08
4.431075e-05 -1.732123e-05 1.309163e-08
4.371161e-05 -1.707397e-05 -3.214459e-08
4.369753e-05 -1.706745e-05 -9.461950e-09
4.369751e-05 -1.707017e-05 -3.477214e-08
4.368230e-05 -1.706340e-05 -1.018334e-08
4.428129e-05 -1.731138e-05 3.547165e-08
4.428801e-05 -1.731289e-05 -8.091265e-09
4.368228e-05 -1.706593e-05 -3.721663e-08
4.366601e-05 -1.705895e-05 -1.085150e-08
4.426575e-05 -1.730549e-05 3.673395e-08
4.427276e-05 -1.730712e-05 -8.388361e-09
4.366598e-05 -1.706128e-05 -3.947758e-08
4.364874e-05 -1.705412e-05 -1.146604e-08
4.424969e-05 -1.729940e-05 3.796911e-08
4.425697e-05 -1.730116e-05 -8.680616e-09
4.364871e-05 -1.705625e-05 -4.155491e-08
4.363057e-05 -1.704893e-05 -1.202677e-08
4.423311e-05 -1.729314e-05 3.917350e-08
4.424066e-05 -1.729501e-05 -8.967659e-09
4.420964e-05 -1.728340e-05 4.261619e-08
4.363054e-05 -1.705086e-05 -4.344877e-08
4.361160e-05 -1.704343e-05 -1.253361e-08
4.421605e-05 -1.728672e-05 4.034274e-08
4.422386e-05 -1.728871e-05 -9.248757e-09
4.419181e-05 -1.727677e-05 4.374618e-08
4.361157e-05 -1.704516e-05 -4.515948e-08
4.359191e-05 -1.703765e-05 -1.298656e-08
4.419851e-05 -1.728015e-05 4.147180e-08
4.420658e-05 -1.728225e-05 -9.523020e-09
4.359188e-05 -1.703918e-05 -4.668741e-08
4.357157e-05 -1.703161e-05 -1.338566e-08
4.418053e-05 -1.727345e-05 4.255539e-08
4.418885e-05 -1.727566e-05 -9.789320e-09
4.357154e-05 -1.703294e-05 -4.803298e-08
4.355068e-05 -1.702535e-05 -1.373099e-08
4.416214e-05 -1.726665e-05 4.358853e-08
4.417069e-05 -1.726896e-05 -1.004630e-08
4.355064e-05 -1.702649e-05 -4.919659e-08
4.352932e-05 -1.701891e-05 -1.402262e-08
4.414335e-05 -1.725975e-05 4.456714e-08
4.415213e-05 -1.726217e-05 -1.029251e-08
4.352928e-05 -1.701985e-05 -5.017864e-08
4.412420e-05 -1.725278e-05 4.548802e-08
4.413319e-05 -1.725530e-05 -1.052640e-08
4.350770e-05 -1.701237e-05 2.088225e-08
4.350752e-05 -1.701306e-05 -5.097948e-08
4.410472e-05 -1.724575e-05 4.634828e-08
4.411392e-05 -1.724836e-05 -1.074649e-08
4.348560e-05 -1.700564e-05 2.114784e-08
4.348545e-05 -1.700615e-05 -5.159953e-08
4.346320e-05 -1.699880e-05 -1.457626e-08
4.408492e-05 -1.723865e-05 4.714457e-08
4.409432e-05 -1.724136e-05 -1.095124e-08
4.405603e-05 -1.722782e-05 -4.813290e-08
4.346316e-05 -1.699915e-05 -5.203903e-08
4.402392e-05 -1.721648e-05 1.932801e-08
4.402389e-05 -1.721701e-05 4.910293e-08
4.406483e-05 -1.723150e-05 4.787258e-08
4.407442e-05 -1.723431e-05 -1.113906e-08
4.405606e-05 -1.722787e-05 4.997619e-08
4.404451e-05 -1.722367e-05 1.910989e-08
4.345186e-05 -1.699538e-05 -1.314455e-08
4.344072e-05 -1.699209e-05 -5.229821e-08
4.341826e-05 -1.698505e-05 -1.467908e-08
4.341822e-05 -1.698501e-05 -5.237758e-08
4.339578e-05 -1.697818e-05 -1.465088e-08
4.400310e-05 -1.720969e-05 4.959569e-08
4.401321e-05 -1.721284e-05 -1.158880e-08
4.339573e-05 -1.697794e-05 -5.227742e-08
4.337339e-05 -1.697134e-05 -1.457011e-08
4.398214e-05 -1.720232e-05 5.000136e-08
4.399239e-05 -1.720559e-05 -1.169698e-08
4.337335e-05 -1.697091e-05 -5.199810e-08
4.335118e-05 -1.696456e-05 -1.443721e-08
4.396105e-05 -1.719491e-05 5.031661e-08
4.397142e-05 -1.719830e-05 -1.178327e-08
4.335114e-05 -1.696394e-05 -5.154034e-08
4.332923e-05 -1.695789e-05 -1.425276e-08
4.393985e-05 -1.718747e-05 5.053900e-08
4.395033e-05 -1.719097e-05 -1.184742e-08
4.332919e-05 -1.695707e-05 -5.090501e-08
4.330761e-05 -1.695133e-05 -1.401761e-08
4.391860e-05 -1.718002e-05 5.066688e-08
4.392917e-05 -1.718363e-05 -1.188910e-08
4.330757e-05 -1.695032e-05 -5.009341e-08
4.328640e-05 -1.694493e-05 -1.373294e-08
4.389732e-05 -1.717256e-05 5.069910e-08
4.390797e-05 -1.717628e-05 -1.190820e-08
4.386515e-05 -1.716142e-05 5.238052e-08
4.328636e-05 -1.694373e-05 -4.910743e-08
4.326567e-05 -1.693869e-05 -1.340038e-08
4.387607e-05 -1.716512e-05 5.063494e-08
4.388676e-05 -1.716893e-05 -1.190468e-08
4.384381e-05 -1.715402e-05 5.216254e-08
4.326564e-05 -1.693731e-05 -4.794976e-08
4.385487e-05 -1.715770e-05 5.047400e-08
4.386560e-05 -1.716160e-05 -1.187853e-08
4.324524e-05 -1.693256e-05 1.907979e-08
4.324547e-05 -1.693109e-05 -4.662422e-08
4.322595e-05 -1.692681e-05 -1.260089e-08
4.383378e-05 -1.715032e-05 5.021608e-08
4.384451e-05 -1.715431e-05 -1.182982e-08
4.322592e-05 -1.692507e-05 -4.513602e-08
4.320708e-05 -1.692119e-05 -1.214030e-08
4.381283e-05 -1.714300e-05 4.986118e-08
4.382355e-05 -1.714706e-05 -1.175859e-08
4.320705e-05 -1.691929e-05 -4.349212e-08
4.379206e-05 -1.713576e-05 4.940940e-08
4.380275e-05 -1.713988e-05 -1.166492e-08
4.376006e-05 -1.712513e-05 -4.840991e-08
4.318860e-05 -1.691566e-05 1.706240e-08
4.318893e-05 -1.691373e-05 -4.170153e-08
4.317162e-05 -1.691060e-05 -1.111868e-08
4.373130e-05 -1.711544e-05 1.865977e-08
4.373127e-05 -1.711460e-05 4.747349e-08
4.377151e-05 -1.712860e-05 4.886084e-08
4.378215e-05 -1.713278e-05 -1.154876e-08
4.376007e-05 -1.712509e-05 5.027752e-08
4.375127e-05 -1.712227e-05 1.895608e-08
4.317159e-05 -1.690840e-05 -3.977550e-08
4.315511e-05 -1.690563e-05 -1.056788e-08
4.315509e-05 -1.690330e-05 -3.772716e-08
4.313948e-05 -1.690085e-05 -9.997093e-09
4.371165e-05 -1.710780e-05 4.663530e-08
4.372200e-05 -1.711211e-05 -1.106734e-08
4.313946e-05 -1.689842e-05 -3.557106e-08
4.312473e-05 -1.689625e-05 -9.409798e-09
4.369241e-05 -1.710116e-05 4.570103e-08
4.370263e-05 -1.710549e-05 -1.086233e-08
4.312472e-05 -1.689373e-05 -3.332207e-08
4.311091e-05 -1.689182e-05 -8.807566e-09
4.367361e-05 -1.709468e-05 4.467060e-08
4.368367e-05 -1.709903e-05 -1.063520e-08
4.364387e-05 -1.708539e-05 4.441579e-08
4.311089e-05 -1.688921e-05 -3.099342e-08
4.309802e-05 -1.688755e-05 -8.189773e-09
4.365527e-05 -1.708838e-05 4.354406e-08
4.366516e-05 -1.709274e-05 -1.038609e-08
4.362612e-05 -1.707941e-05 4.308580e-08
4.309801e-05 -1.688487e-05 -2.859608e-08
4.308610e-05 -1.688344e-05 -7.554264e-09
4.363745e-05 -1.708229e-05 4.232146e-08
4.364714e-05 -1.708665e-05 -1.011491e-08
4.308609e-05 -1.688071e-05 -2.613929e-08
4.307517e-05 -1.687952e-05 -6.898871e-09
4.362017e-05 -1.707641e-05 4.100281e-08
4.362965e-05 -1.708076e-05 -9.821674e-09
4.307516e-05 -1.687673e-05 -2.363223e-08
4.306525e-05 -1.687580e-05 -6.222865e-09
4.360349e-05 -1.707076e-05 3.958806e-08
4.361273e-05 -1.707510e-05 -9.506348e-09
4.306525e-05 -1.687298e-05 -2.108583e-08
4.305639e-05 -1.687232e-05 -5.527771e-09
4.358744e-05 -1.706537e-05 3.807717e-08
4.359642e-05 -1.706968e-05 -9.168899e-09
4.305638e-05 -1.686948e-05 -1.851326e-08
4.304860e-05 -1.686912e-05 -4.817191e-09
4.357206e-05 -1.706023e-05 3.647012e-08
4.358076e-05 -1.706452e-05 -8.809291e-09
4.304859e-05 -1.686627e-05 -1.592901e-08
4.304190e-05 -1.686623e-05 -4.095947e-09
4.355739e-05 -1.705537e-05 3.476694e-08
4.356580e-05 -1.705962e-05 -8.427454e-09
4.304189e-05 -1.686339e-05 -1.334737e-08
4.354347e-05 -1.705081e-05 3.296780e-08
4.355156e-05 -1.705502e-05 -8.023322e-09
4.352010e-05 -1.704480e-05 -2.978038e-08
4.303582e-05 -1.686351e-05 4.777016e-09
4.303630e-05 -1.686087e-05 -1.078119e-08
4.350663e-05 -1.704123e-05 1.045403e-08
4.350662e-05 -1.703902e-05 2.699941e-08
4.353035e-05 -1.704655e-05 3.107300e-08
4.353810e-05 -1.705071e-05 -7.596752e-09
4.352011e-05 -1.704467e-05 3.095960e-08
4.351806e-05 -1.704474e-05 1.128706e-08
4.303133e-05 -1.686132e-05 3.718704e-09
4.303180e-05 -1.685871e-05 -8.241232e-09
4.302840e-05 -1.685968e-05 -1.917587e-09
4.302840e-05 -1.685694e-05 -5.736084e-09
4.349610e-05 -1.703576e-05 2.482386e-08
4.350273e-05 -1.703971e-05 -6.182729e-09
4.302564e-05 -1.685809e-05 1.629906e-09
4.302609e-05 -1.685557e-05 -3.272228e-09
4.302486e-05 -1.685723e-05 -4.927747e-10
4.348651e-05 -1.703285e-05 2.255930e-08
4.349273e-05 -1.703672e-05 -5.666475e-09
4.302486e-05 -1.685460e-05 -8.544269e-10
4.302468e-05 -1.685660e-05 2.032663e-10
4.347789e-05 -1.703029e-05 2.020982e-08
4.348369e-05 -1.703409e-05 -5.128149e-09
4.302468e-05 -1.685402e-05 1.514005e-09
4.302554e-05 -1.685636e-05 8.862051e-10
4.347027e-05 -1.702809e-05 1.778132e-08
4.347562e-05 -1.703180e-05 -4.568300e-09
4.302554e-05 -1.685384e-05 3.830869e-09
4.302743e-05 -1.685652e-05 1.554976e-09
4.346367e-05 -1.702625e-05 1.528181e-08
4.346856e-05 -1.702985e-05 -3.987687e-09
4.302743e-05 -1.685406e-05 6.094761e-09
4.303031e-05 -1.685706e-05 2.208848e-09
4.345811e-05 -1.702474e-05 1.272168e-08
4.346253e-05 -1.702825e-05 -3.387568e-09
4.344621e-05 -1.702319e-05 8.914518e-09
4.303031e-05 -1.685466e-05 8.304883e-09
4.303416e-05 -1.685798e-05 2.847337e-09
4.345359e-05 -1.702356e-05 1.011390e-08
4.345754e-05 -1.702696e-05 -2.769758e-09
4.344318e-05 -1.702243e-05 6.227975e-09
4.303416e-05 -1.685564e-05 1.046085e-08
4.303897e-05 -1.685927e-05 3.470139e-09
4.345013e-05 -1.702268e-05 7.473705e-09
4.345359e-05 -1.702597e-05 -2.136759e-09
4.303897e-05 -1.685699e-05 1.256254e-08
4.304470e-05 -1.686092e-05 4.077084e-09
4.344771e-05 -1.702207e-05 4.817714e-09
4.345067e-05 -1.702525e-05 -1.491838e-09
4.304470e-05 -1.685870e-05 1.461000e-08
4.344632e-05 -1.702169e-05 2.162355e-09
4.344878e-05 -1.702476e-05 -8.389926e-10
4.305098e-05 -1.686280e-05 -6.828619e-09
4.305134e-05 -1.686077e-05 1.660340e-08
4.305886e-05 -1.686528e-05 5.243114e-09
4.344594e-05 -1.702151e-05 -4.780290e-10
4.344790e-05 -1.702448e-05 -1.827840e-10
4.344168e-05 -1.702181e-05 4.106606e-09
4.305885e-05 -1.686318e-05 1.854293e-08
4.306724e-05 -1.686797e-05 5.802178e-09
4.345070e-05 -1.702461e-05 -2.954953e-09
4.345070e-05 -1.702201e-05 -8.202902e-09
4.344655e-05 -1.702151e-05 -3.092088e-09
4.344800e-05 -1.702436e-05 4.719611e-10
4.344168e-05 -1.702163e-05 -4.299397e-09
4.344814e-05 -1.702433e-05 -2.025412e-09
4.306723e-05 -1.686593e-05 2.042880e-08
4.307612e-05 -1.687087e-05 -9.242700e-09
4.307644e-05 -1.686900e-05 2.226123e-08
4.308646e-05 -1.687432e-05 6.872528e-09
4.345421e-05 -1.702253e-05 -1.067725e-08
4.345411e-05 -1.702496e-05 2.378963e-09
4.308645e-05 -1.687239e-05 2.404040e-08
4.309727e-05 -1.687797e-05 7.383870e-09
4.345867e-05 -1.702326e-05 -1.307814e-08
4.345803e-05 -1.702550e-05 2.979410e-09
4.309726e-05 -1.687609e-05 2.576653e-08
4.310884e-05 -1.688191e-05 7.879456e-09
4.346405e-05 -1.702423e-05 -1.538876e-08
4.346287e-05 -1.702625e-05 3.554648e-09
4.310883e-05 -1.688009e-05 2.743972e-08
4.312115e-05 -1.688614e-05 8.359328e-09
4.347033e-05 -1.702545e-05 -1.759274e-08
4.346862e-05 -1.702722e-05 4.100941e-09
4.347737e-05 -1.702786e-05 -2.076434e-08
4.312114e-05 -1.688438e-05 2.906003e-08
4.313418e-05 -1.689065e-05 8.823396e-09
4.347748e-05 -1.702693e-05 -1.967550e-08
4.347525e-05 -1.702843e-05 4.615265e-09
4.348605e-05 -1.702973e-05 -2.270496e-08
4.313416e-05 -1.688895e-05 3.062766e-08
4.314790e-05 -1.689544e-05 9.271682e-09
4.348545e-05 -1.702867e-05 -2.162489e-08
4.348272e-05 -1.702989e-05 5.095352e-09
4.314788e-05 -1.689380e-05 3.214265e-08
4.316229e-05 -1.690049e-05 9.704283e-09
4.349420e-05 -1.703067e-05 -2.343131e-08
4.349098e-05 -1.703161e-05 5.539575e-09
4.316228e-05 -1.689890e-05 3.360498e-08
4.317734e-05 -1.690579e-05 1.012122e-08
4.350367e-05 -1.703293e-05 -2.508744e-08
4.349999e-05 -1.703358e-05 5.946816e-09
4.317732e-05 -1.690426e-05 3.501474e-08
4.319301e-05 -1.691134e-05 1.052249e-08
4.351381e-05 -1.703542e-05 -2.658792e-08
4.350969e-05 -1.703579e-05 6.316354e-09
4.319299e-05 -1.690986e-05 3.637192e-08
4.320928e-05 -1.691712e-05 1.090809e-08
4.352454e-05 -1.703814e-05 -2.792895e-08
4.352002e-05 -1.703822e-05 6.647755e-09
4.320926e-05 -1.691570e-05 3.767654e-08
4.322613e-05 -1.692313e-05 1.127805e-08
4.353581e-05 -1.704106e-05 -2.910793e-08
4.353092e-05 -1.704086e-05 6.940772e-09
4.355186e-05 -1.704586e-05 2.981596e-08
4.322611e-05 -1.692177e-05 3.892859e-08
4.324354e-05 -1.692936e-05 1.163235e-08
4.357216e-05 -1.705141e-05 -1.203099e-08
4.357214e-05 -1.705077e-05 -3.165778e-08
4.354754e-05 -1.704415e-05 -3.012312e-08
4.354232e-05 -1.704369e-05 7.195228e-09
4.355187e-05 -1.704581e-05 -3.105365e-08
4.355969e-05 -1.704820e-05 -1.175681e-08
4.324351e-05 -1.692806e-05 4.012805e-08
4.326128e-05 -1.693572e-05 -1.734266e-08
4.326146e-05 -1.693455e-05 4.127492e-08
4.327994e-05 -1.694243e-05 1.229409e-08
4.358487e-05 -1.705425e-05 -3.217628e-08
4.357884e-05 -1.705307e-05 7.727904e-09
4.327991e-05 -1.694125e-05 4.236919e-08
4.329888e-05 -1.694926e-05 1.260155e-08
4.359778e-05 -1.705780e-05 -3.252858e-08
4.359156e-05 -1.705641e-05 7.828405e-09
4.329885e-05 -1.694813e-05 4.341086e-08
4.361082e-05 -1.706140e-05 -3.271442e-08
4.360443e-05 -1.705981e-05 7.890475e-09
4.331811e-05 -1.695621e-05 -1.867117e-08
4.331826e-05 -1.695520e-05 4.439994e-08
4.333813e-05 -1.696346e-05 1.316970e-08
4.362391e-05 -1.706502e-05 -3.273365e-08
4.361739e-05 -1.706324e-05 7.914212e-09
4.333810e-05 -1.696244e-05 4.533653e-08
4.335840e-05 -1.697081e-05 1.343060e-08
4.363697e-05 -1.706863e-05 -3.258619e-08
4.363036e-05 -1.706668e-05 7.899552e-09
4.335837e-05 -1.696985e-05 4.622064e-08
4.337907e-05 -1.697832e-05 1.367616e-08
4.364994e-05 -1.707220e-05 -3.227188e-08
4.364327e-05 -1.707009e-05 7.846481e-09
4.367036e-05 -1.707739e-05 -3.201042e-08
4.337904e-05 -1.697741e-05 4.705226e-08
4.340011e-05 -1.698597e-05 1.390623e-08
4.366274e-05 -1.707571e-05 -3.179056e-08
4.365605e-05 -1.707346e-05 7.754968e-09
4.368311e-05 -1.708074e-05 -3.124267e-08
4.340007e-05 -1.698513e-05 4.783168e-08
4.342150e-05 -1.699377e-05 1.412086e-08
4.367531e-05 -1.707913e-05 -3.114200e-08
4.366863e-05 -1.707674e-05 7.624966e-09
4.342146e-05 -1.699298e-05 4.855893e-08
4.344322e-05 -1.700169e-05 1.432018e-08
4.368756e-05 -1.708243e-05 -3.032597e-08
4.368094e-05 -1.707992e-05 7.456417e-09
4.344318e-05 -1.700096e-05 4.923406e-08
4.346524e-05 -1.700974e-05 1.450417e-08
4.369944e-05 -1.708557e-05 -2.934222e-08
4.369290e-05 -1.708296e-05 7.249233e-09
4.371899e-05 -1.708977e-05 2.676118e-08
4.346520e-05 -1.700906e-05 4.985719e-08
4.348755e-05 -1.701790e-05 1.467277e-08
4.373206e-05 -1.709221e-05 -9.503978e-09
4.373205e-05 -1.709383e-05 -2.538158e-08
4.371086e-05 -1.708854e-05 -2.819044e-08
4.370445e-05 -1.708584e-05 7.003262e-09
4.371901e-05 -1.708986e-05 -2.788491e-08
4.372177e-05 -1.708986e-05 -1.010203e-08
4.348751e-05 -1.701728e-05 5.042836e-08
4.351011e-05 -1.702616e-05 1.482592e-08
4.351007e-05 -1.702560e-05 5.094758e-08
4.374168e-05 -1.709609e-05 -2.372445e-08
4.373585e-05 -1.709321e-05 6.032195e-09
4.353284e-05 -1.703449e-05 -2.165147e-08
4.353288e-05 -1.703402e-05 5.141488e-08
4.355593e-05 -1.704297e-05 1.508570e-08
4.375056e-05 -1.709807e-05 -2.189902e-08
4.374500e-05 -1.709515e-05 5.630146e-09
4.355589e-05 -1.704252e-05 5.183032e-08
4.357913e-05 -1.705149e-05 1.519233e-08
4.375863e-05 -1.709973e-05 -1.990581e-08
4.375337e-05 -1.709679e-05 5.188766e-09
4.357909e-05 -1.705110e-05 5.219399e-08
4.376582e-05 -1.710105e-05 -1.774596e-08
4.376089e-05 -1.709810e-05 4.708023e-09
4.360246e-05 -1.706006e-05 -2.211234e-08
4.360246e-05 -1.705974e-05 5.250598e-08
4.362602e-05 -1.706872e-05 1.535923e-08
4.377205e-05 -1.710201e-05 -1.542150e-08
4.376749e-05 -1.709907e-05 4.187855e-09
4.378477e-05 -1.710258e-05 -1.125777e-08
4.362598e-05 -1.706844e-05 5.276635e-08
4.364965e-05 -1.707742e-05 1.541954e-08
4.377726e-05 -1.710259e-05 -1.293559e-08
4.377310e-05 -1.709966e-05 3.628358e-09
4.378866e-05 -1.710255e-05 -8.435900e-09
4.364961e-05 -1.707719e-05 5.297514e-08
4.367338e-05 -1.708615e-05 1.546447e-08
4.378139e-05 -1.710276e-05 -1.029300e-08
4.377767e-05 -1.709987e-05 3.029804e-09
4.367334e-05 -1.708598e-05 5.313246e-08
4.369718e-05 -1.709491e-05 1.549419e-08
4.378437e-05 -1.710253e-05 -7.500595e-09
4.378112e-05 -1.709968e-05 2.392737e-09
4.369714e-05 -1.709479e-05 5.323818e-08
4.372103e-05 -1.710369e-05 1.550870e-08
4.378616e-05 -1.710189e-05 -4.567855e-09
4.378341e-05 -1.709909e-05 1.718081e-09
4.372099e-05 -1.710363e-05 5.329222e-08
4.374491e-05 -1.711248e-05 1.550780e-08
4.378671e-05 -1.710083e-05 -1.507423e-09
4.378449e-05 -1.709810e-05 1.007284e-09
4.374486e-05 -1.711248e-05 5.329470e-08
4.376879e-05 -1.712127e-05 1.549146e-08
4.378598e-05 -1.709937e-05 1.664586e-09
4.378431e-05 -1.709671e-05 2.624917e-10
4.378937e-05 -1.709613e-05 -7.262853e-09
4.376874e-05 -1.712133e-05 5.324544e-08
4.379264e-05 -1.713006e-05 1.545984e-08
4.377594e-05 -1.708935e-05 4.912921e-09
4.377594e-05 -1.709285e-05 1.164307e-08
4.378395e-05 -1.709753e-05 4.928655e-09
4.378286e-05 -1.709496e-05 -5.132609e-10
4.378941e-05 -1.709636e-05 7.457614e-09
4.378061e-05 -1.709189e-05 3.658530e-09
4.379260e-05 -1.713017e-05 5.314428e-08
4.381646e-05 -1.713882e-05 1.541291e-08
4.381641e-05 -1.713899e-05 5.299121e-08
4.384020e-05 -1.714756e-05 1.535062e-08
4.376996e-05 -1.709008e-05 1.504889e-08
4.377069e-05 -1.708779e-05 -2.981313e-09
4.384016e-05 -1.714778e-05 5.278610e-08
4.386385e-05 -1.715627e-05 1.527295e-08
4.376269e-05 -1.708708e-05 1.846245e-08
4.376405e-05 -1.708489e-05 -3.831338e-09
4.386381e-05 -1.715654e-05 5.252882e-08
4.375412e-05 -1.708386e-05 2.186968e-08
4.375612e-05 -1.708179e-05 -4.684148e-09
4.388746e-05 -1.716495e-05 -2.196713e-08
4.388735e-05 -1.716526e-05 5.221927e-08
4.374425e-05 -1.708043e-05 2.525752e-08
4.374693e-05 -1.707849e-05 -5.533153e-09
4.391086e-05 -1.717355e-05 -2.181120e-08
4.391074e-05 -1.717392e-05 5.185732e-08
4.393401e-05 -1.718207e-05 1.494735e-08
4.373311e-05 -1.707675e-05 2.861055e-08
4.373646e-05 -1.707498e-05 -6.371691e-09
4.393397e-05 -1.718251e-05 5.144285e-08
4.372067e-05 -1.707279e-05 3.190934e-08
4.372473e-05 -1.707123e-05 -7.193159e-09
4.395715e-05 -1.719056e-05 -2.143241e-08
4.395702e-05 -1.719103e-05 5.097573e-08
4.397988e-05 -1.719891e-05 1.465279e-08
4.370695e-05 -1.706852e-05 3.513150e-08
4.371172e-05 -1.706721e-05 -7.991274e-09
4.397984e-05 -1.719947e-05 5.045583e-08
4.400247e-05 -1.720720e-05 1.448214e-08
4.369197e-05 -1.706391e-05 3.825428e-08
4.369746e-05 -1.706288e-05 -8.760503e-09
4.367304e-05 -1.705615e-05 4.379718e-08
4.400244e-05 -1.720782e-05 4.988309e-08
4.402480e-05 -1.721538e-05 1.429599e-08
4.367575e-05 -1.705892e-05 4.125677e-08
4.368195e-05 -1.705822e-05 -9.496310e-09
4.365471e-05 -1.705059e-05 4.667883e-08
4.402476e-05 -1.721606e-05 4.925731e-08
4.404684e-05 -1.722346e-05 1.409433e-08
4.365833e-05 -1.705356e-05 4.412123e-08
4.366524e-05 -1.705320e-05 -1.019522e-08
4.404681e-05 -1.722419e-05 4.857829e-08
4.406857e-05 -1.723141e-05 1.387690e-08
4.363977e-05 -1.704781e-05 4.683349e-08
4.364736e-05 -1.704781e-05 -1.085470e-08
4.361469e-05 -1.703817e-05 -4.998017e-08
4.406854e-05 -1.723220e-05 4.784607e-08
4.408996e-05 -1.723922e-05 1.364369e-08
4.357787e-05 -1.702616e-05 2.093022e-08
4.357782e-05 -1.702833e-05 5.396213e-08
4.362012e-05 -1.704168e-05 4.938270e-08
4.362837e-05 -1.704205e-05 -1.147291e-08
4.361471e-05 -1.703834e-05 5.196927e-08
4.359949e-05 -1.703283e-05 2.005249e-08
4.408993e-05 -1.724007e-05 4.706043e-08
4.411099e-05 -1.724690e-05 1.339480e-08
4.411096e-05 -1.724781e-05 4.622120e-08
4.413164e-05 -1.725443e-05 1.313024e-08
4.355532e-05 -1.702115e-05 5.598338e-08
4.356535e-05 -1.702261e-05 -1.307230e-08
4.413161e-05 -1.725539e-05 4.532832e-08
4.353201e-05 -1.701366e-05 5.782230e-08
4.354256e-05 -1.701547e-05 -1.351873e-08
4.415206e-05 -1.726185e-05 -1.861480e-08
4.415184e-05 -1.726281e-05 4.438168e-08
4.417166e-05 -1.726898e-05 1.255402e-08
4.350797e-05 -1.700589e-05 5.947744e-08
4.351900e-05 -1.700805e-05 -1.392182e-08
4.417164e-05 -1.727006e-05 4.338120e-08
4.419100e-05 -1.727599e-05 1.224246e-08
4.348328e-05 -1.699787e-05 6.094819e-08
4.349476e-05 -1.700035e-05 -1.428183e-08
4.344742e-05 -1.698537e-05 6.474797e-08
4.419097e-05 -1.727713e-05 4.232687e-08
4.345802e-05 -1.698963e-05 6.223450e-08
4.346990e-05 -1.699242e-05 -1.459885e-08
4.342109e-05 -1.697686e-05 6.580964e-08
4.421006e-05 -1.728289e-05 -1.726849e-08
4.420982e-05 -1.728401e-05 4.121876e-08
4.422818e-05 -1.728944e-05 1.157310e-08
4.343227e-05 -1.698120e-05 6.333660e-08
4.344451e-05 -1.698428e-05 -1.487306e-08
4.422815e-05 -1.729070e-05 4.005705e-08
4.424598e-05 -1.729586e-05 1.121578e-08
4.340610e-05 -1.697261e-05 6.425489e-08
4.341867e-05 -1.697596e-05 -1.510467e-08
4.424595e-05 -1.729717e-05 3.884213e-08
4.426321e-05 -1.730206e-05 1.084388e-08
4.337960e-05 -1.696388e-05 6.498988e-08
4.339245e-05 -1.696750e-05 -1.529388e-08
4.426319e-05 -1.730343e-05 3.757460e-08
4.427987e-05 -1.730805e-05 1.045798e-08
4.335285e-05 -1.695506e-05 6.554211e-08
4.336594e-05 -1.695892e-05 -1.544090e-08
4.427985e-05 -1.730947e-05 3.625540e-08
4.429592e-05 -1.731380e-05 1.005886e-08
4.332591e-05 -1.694616e-05 6.591219e-08
4.333921e-05 -1.695026e-05 -1.554588e-08
4.328537e-05 -1.693276e-05 -6.566665e-08
4.429590e-05 -1.731528e-05 3.488601e-08
4.431134e-05 -1.731933e-05 9.647635e-09
4.324488e-05 -1.691968e-05 2.576257e-08
4.324482e-05 -1.691937e-05 6.593354e-08
4.329888e-05 -1.693723e-05 6.610060e-08
4.331234e-05 -1.694154e-05 -1.560882e-08
4.328538e-05 -1.693276e-05 6.824496e-08
4.327188e-05 -1.692841e-05 2.583001e-08
4.431132e-05 -1.732085e-05 3.346829e-08
4.432611e-05 -1.732462e-05 9.225565e-09
4.432610e-05 -1.732619e-05 3.200483e-08
4.434022e-05 -1.732968e-05 8.793977e-09
4.321794e-05 -1.691050e-05 6.557926e-08
4.323166e-05 -1.691535e-05 -1.554857e-08
4.434021e-05 -1.733130e-05 3.049905e-08
4.435366e-05 -1.733451e-05 8.354465e-09
4.319128e-05 -1.690171e-05 6.504509e-08
4.320500e-05 -1.690672e-05 -1.544522e-08
4.435364e-05 -1.733616e-05 2.895487e-08
4.436640e-05 -1.733911e-05 7.908617e-09
4.316489e-05 -1.689303e-05 6.433113e-08
4.317859e-05 -1.689818e-05 -1.530045e-08
4.436639e-05 -1.734080e-05 2.737673e-08
4.437844e-05 -1.734349e-05 7.457553e-09
4.313887e-05 -1.688450e-05 6.343773e-08
4.315249e-05 -1.688976e-05 -1.511446e-08
4.437843e-05 -1.734520e-05 2.576922e-08
4.438977e-05 -1.734764e-05 7.001725e-09
4.311327e-05 -1.687613e-05 6.236537e-08
4.312679e-05 -1.688150e-05 -1.488713e-08
4.438976e-05 -1.734939e-05 2.413646e-08
4.308818e-05 -1.686796e-05 6.111466e-08
4.310156e-05 -1.687343e-05 -1.461846e-08
4.440071e-05 -1.735169e-05 -9.460533e-09
4.440038e-05 -1.735335e-05 2.248185e-08
4.306367e-05 -1.686001e-05 5.968649e-08
4.307688e-05 -1.686556e-05 -1.430845e-08
4.441060e-05 -1.735541e-05 -8.777218e-09
4.441027e-05 -1.735708e-05 2.080827e-08
4.441943e-05 -1.735879e-05 5.601702e-09
4.303981e-05 -1.685232e-05 5.808216e-08
4.305280e-05 -1.685793e-05 -1.395712e-08
4.441942e-05 -1.736059e-05 1.911869e-08
4.301667e-05 -1.684489e-05 5.630365e-08
4.302941e-05 -1.685056e-05 -1.356453e-08
4.442816e-05 -1.736216e-05 -7.385809e-09
4.442783e-05 -1.736385e-05 1.741666e-08
4.443548e-05 -1.736505e-05 4.637761e-09
4.299432e-05 -1.683777e-05 5.435383e-08
4.300678e-05 -1.684347e-05 -1.313081e-08
4.295774e-05 -1.682779e-05 5.259612e-08
4.443547e-05 -1.736686e-05 1.570645e-08
4.444236e-05 -1.736779e-05 4.148371e-09
4.297283e-05 -1.683095e-05 5.223688e-08
4.298497e-05 -1.683668e-05 -1.265621e-08
4.293729e-05 -1.682147e-05 5.015644e-08
4.444236e-05 -1.736961e-05 1.399269e-08
4.444847e-05 -1.737027e-05 3.656004e-09
4.294406e-05 -1.682405e-05 -1.158629e-08
4.291410e-05 -1.681529e-05 1.745457e-08
4.291407e-05 -1.681249e-05 4.495181e-08
4.295225e-05 -1.682446e-05 4.995858e-08
4.296404e-05 -1.683020e-05 -1.214107e-08
4.444847e-05 -1.737209e-05 1.227988e-08
4.445381e-05 -1.737248e-05 3.162286e-09
4.445381e-05 -1.737429e-05 1.057195e-08
4.445837e-05 -1.737439e-05 2.668671e-09
4.289656e-05 -1.680701e-05 4.224759e-08
4.290712e-05 -1.681272e-05 -1.036340e-08
4.445837e-05 -1.737619e-05 8.872203e-09
4.446216e-05 -1.737602e-05 2.176360e-09
4.288014e-05 -1.680185e-05 3.943039e-08
4.289024e-05 -1.680753e-05 -9.698830e-09
4.446216e-05 -1.737781e-05 7.183248e-09
4.446518e-05 -1.737736e-05 1.686368e-09
4.286486e-05 -1.679699e-05 3.651905e-08
4.287447e-05 -1.680263e-05 -9.003034e-09
4.446517e-05 -1.737913e-05 5.507020e-09
4.285071e-05 -1.679239e-05 3.353392e-08
4.285982e-05 -1.679799e-05 -8.280235e-09
4.446774e-05 -1.737852e-05 -1.700939e-09
4.446743e-05 -1.738016e-05 3.844948e-09
4.283770e-05 -1.678804e-05 3.049477e-08
4.284629e-05 -1.679358e-05 -7.535315e-09
4.281355e-05 -1.678194e-05 2.699960e-08
4.446923e-05 -1.737927e-05 -1.003886e-09
4.446892e-05 -1.738090e-05 2.198060e-09
4.446965e-05 -1.737961e-05 2.372850e-10
4.282584e-05 -1.678388e-05 2.741855e-08
4.283390e-05 -1.678937e-05 -6.773854e-09
4.280339e-05 -1.677807e-05 2.391306e-08
4.446965e-05 -1.738134e-05 5.670449e-10
4.446964e-05 -1.737978e-05 -2.373293e-10
4.281513e-05 -1.677992e-05 2.431868e-08
4.282263e-05 -1.678534e-05 -6.001704e-09
4.446964e-05 -1.738149e-05 -1.047632e-09
4.280556e-05 -1.677613e-05 2.120645e-08
4.281249e-05 -1.678148e-05 -5.224740e-09
4.446919e-05 -1.737977e-05 1.048772e-09
4.446889e-05 -1.738135e-05 -2.645673e-09
4.279715e-05 -1.677255e-05 1.809397e-08
4.280349e-05 -1.677779e-05 -4.448834e-09
4.446770e-05 -1.737936e-05 1.719300e-09
4.446740e-05 -1.738092e-05 -4.226891e-09
4.446519e-05 -1.737856e-05 -1.632834e-09
4.278991e-05 -1.676920e-05 1.499652e-08
4.279564e-05 -1.677429e-05 -3.679858e-09
4.446519e-05 -1.738021e-05 -5.791178e-09
4.446226e-05 -1.737759e-05 -2.088235e-09
4.278385e-05 -1.676611e-05 1.193265e-08
4.278894e-05 -1.677103e-05 -2.923528e-09
4.277078e-05 -1.676239e-05 -8.247142e-09
4.446226e-05 -1.737922e-05 -7.338465e-09
4.445862e-05 -1.737634e-05 -2.538673e-09
4.277270e-05 -1.676175e-05 1.790170e-09
4.277270e-05 -1.675880e-05 3.139096e-09
4.277897e-05 -1.676333e-05 8.922473e-09
4.278341e-05 -1.676803e-05 -2.185072e-09
4.277077e-05 -1.676219e-05 8.465554e-09
4.277526e-05 -1.676394e-05 2.897019e-09
4.445862e-05 -1.737795e-05 -8.868717e-09
4.445428e-05 -1.737481e-05 -2.984123e-09
4.445428e-05 -1.737641e-05 -1.038193e-08
4.444925e-05 -1.737301e-05 -3.424614e-09
4.277127e-05 -1.675708e-05 3.978206e-10
4.277377e-05 -1.676093e-05 -1.172895e-10
4.444924e-05 -1.737459e-05 -1.187810e-08
4.444353e-05 -1.737095e-05 -3.860157e-09
4.277093e-05 -1.675574e-05 -2.226983e-09
4.277280e-05 -1.675927e-05 5.138303e-10
4.444352e-05 -1.737251e-05 -1.335719e-08
4.443713e-05 -1.736862e-05 -4.290701e-09
4.277164e-05 -1.675477e-05 -4.726671e-09
4.277290e-05 -1.675797e-05 1.113175e-09
4.443713e-05 -1.737016e-05 -1.481925e-08
4.443006e-05 -1.736602e-05 -4.716241e-09
4.277336e-05 -1.675416e-05 -7.094887e-09
4.277402e-05 -1.675704e-05 1.679912e-09
4.443006e-05 -1.736755e-05 -1.626427e-08
4.442233e-05 -1.736317e-05 -5.136827e-09
4.277603e-05 -1.675391e-05 -9.327169e-09
4.277612e-05 -1.675646e-05 2.213585e-09
4.442233e-05 -1.736468e-05 -1.769226e-08
4.441395e-05 -1.736006e-05 -5.552460e-09
4.277960e-05 -1.675400e-05 -1.142050e-08
4.277915e-05 -1.675623e-05 2.713949e-09
4.441395e-05 -1.736155e-05 -1.910322e-08
4.440493e-05 -1.735670e-05 -5.963135e-09
4.278401e-05 -1.675442e-05 -1.337293e-08
4.278305e-05 -1.675633e-05 3.180926e-09
4.440492e-05 -1.735817e-05 -2.049719e-08
4.439526e-05 -1.735309e-05 -6.368841e-09
4.278921e-05 -1.675513e-05 -1.518327e-08
4.278776e-05 -1.675674e-05 3.614533e-09
4.439526e-05 -1.735454e-05 -2.187416e-08
4.279514e-05 -1.675614e-05 -1.685085e-08
4.279324e-05 -1.675744e-05 4.014835e-09
4.438523e-05 -1.734933e-05 9.784920e-09
4.438497e-05 -1.735067e-05 -2.323414e-08
4.280174e-05 -1.675740e-05 -1.837536e-08
4.279941e-05 -1.675842e-05 4.381928e-09
4.281025e-05 -1.675981e-05 -2.052666e-08
4.437432e-05 -1.734523e-05 1.035509e-08
4.437405e-05 -1.734655e-05 -2.457711e-08
4.436254e-05 -1.734080e-05 -7.555752e-09
4.281856e-05 -1.676162e-05 -2.175097e-08
4.282497e-05 -1.676361e-05 -8.286104e-09
4.280895e-05 -1.675890e-05 -1.975670e-08
4.280622e-05 -1.675965e-05 4.715864e-09
4.281671e-05 -1.676062e-05 -2.099480e-08
4.281672e-05 -1.676185e-05 -7.844732e-09
4.436253e-05 -1.734219e-05 -2.590299e-08
4.435067e-05 -1.733631e-05 1.147330e-08
4.435041e-05 -1.733760e-05 -2.721165e-08
4.433770e-05 -1.733142e-05 -8.320829e-09
4.283365e-05 -1.676461e-05 -2.304154e-08
4.282991e-05 -1.676460e-05 5.520101e-09
4.433769e-05 -1.733278e-05 -2.850283e-08
4.432439e-05 -1.732639e-05 -8.694847e-09
4.284270e-05 -1.676683e-05 -2.385038e-08
4.283869e-05 -1.676660e-05 5.722349e-09
4.432438e-05 -1.732773e-05 -2.977617e-08
4.431052e-05 -1.732114e-05 -9.062748e-09
4.285207e-05 -1.676918e-05 -2.451617e-08
4.284782e-05 -1.676873e-05 5.891756e-09
4.431050e-05 -1.732246e-05 -3.103101e-08
4.429607e-05 -1.731568e-05 -9.423946e-09
4.286169e-05 -1.677163e-05 -2.503882e-08
4.285722e-05 -1.677098e-05 6.028372e-09
4.429606e-05 -1.731698e-05 -3.226632e-08
4.428108e-05 -1.731001e-05 -9.777519e-09
4.287151e-05 -1.677415e-05 -2.541827e-08
4.286685e-05 -1.677331e-05 6.132135e-09
4.428106e-05 -1.731128e-05 -3.348083e-08
4.426554e-05 -1.730414e-05 -1.012244e-08
4.288145e-05 -1.677673e-05 -2.565438e-08
4.287664e-05 -1.677570e-05 6.202998e-09
4.289660e-05 -1.678063e-05 -2.613484e-08
4.426552e-05 -1.730539e-05 -3.467256e-08
4.424948e-05 -1.729809e-05 -1.045749e-08
4.289147e-05 -1.677933e-05 -2.574700e-08
4.288653e-05 -1.677814e-05 6.240908e-09
4.290690e-05 -1.678323e-05 -2.600569e-08
4.424946e-05 -1.729931e-05 -3.583890e-08
4.290150e-05 -1.678194e-05 -2.569597e-08
4.289646e-05 -1.678059e-05 6.245788e-09
4.423313e-05 -1.729194e-05 1.558302e-08
4.423289e-05 -1.729305e-05 -3.697653e-08
4.421585e-05 -1.728548e-05 -1.109170e-08
4.291148e-05 -1.678453e-05 -2.550118e-08
4.290638e-05 -1.678303e-05 6.217556e-09
4.421583e-05 -1.728663e-05 -3.808139e-08
4.419833e-05 -1.727896e-05 -1.138739e-08
4.292136e-05 -1.678708e-05 -2.516261e-08
4.291621e-05 -1.678544e-05 6.156116e-09
4.293710e-05 -1.679069e-05 2.371845e-08
4.419830e-05 -1.728006e-05 -3.914876e-08
4.294973e-05 -1.679337e-05 -8.770793e-09
4.294972e-05 -1.679424e-05 -2.328651e-08
4.293106e-05 -1.678956e-05 -2.468037e-08
4.292591e-05 -1.678780e-05 6.061316e-09
4.293711e-05 -1.679073e-05 -2.471659e-08
4.294054e-05 -1.679123e-05 -9.077576e-09
4.418056e-05 -1.727238e-05 1.688366e-08
4.418033e-05 -1.727337e-05 -4.017367e-08
4.416197e-05 -1.726557e-05 -1.192908e-08
4.416195e-05 -1.726657e-05 -4.115142e-08
4.414320e-05 -1.725873e-05 -1.217420e-08
4.295856e-05 -1.679640e-05 -2.237708e-08
4.295357e-05 -1.679434e-05 5.576640e-09
4.414317e-05 -1.725968e-05 -4.207801e-08
4.412406e-05 -1.725183e-05 -1.240274e-08
4.296700e-05 -1.679842e-05 -2.132849e-08
4.296211e-05 -1.679628e-05 5.348084e-09
4.412403e-05 -1.725271e-05 -4.295022e-08
4.410458e-05 -1.724486e-05 -1.261550e-08
4.297498e-05 -1.680027e-05 -2.014376e-08
4.297023e-05 -1.679806e-05 5.086257e-09
4.410455e-05 -1.724568e-05 -4.376507e-08
4.408480e-05 -1.723784e-05 -1.281291e-08
4.298245e-05 -1.680195e-05 -1.882730e-08
4.297787e-05 -1.679969e-05 4.791557e-09
4.408477e-05 -1.723859e-05 -4.451915e-08
4.406472e-05 -1.723076e-05 -1.299471e-08
4.298937e-05 -1.680345e-05 -1.738519e-08
4.298497e-05 -1.680114e-05 4.464519e-09
4.406469e-05 -1.723144e-05 -4.520838e-08
4.404439e-05 -1.722363e-05 -1.316002e-08
4.299568e-05 -1.680476e-05 -1.582543e-08
4.299150e-05 -1.680241e-05 4.106068e-09
4.404436e-05 -1.722423e-05 -4.582794e-08
4.402382e-05 -1.721645e-05 -1.330732e-08
4.300135e-05 -1.680589e-05 -1.415813e-08
4.299742e-05 -1.680351e-05 3.717560e-09
4.402379e-05 -1.721697e-05 -4.637294e-08
4.400305e-05 -1.720922e-05 -1.343471e-08
4.300636e-05 -1.680684e-05 -1.239541e-08
4.300268e-05 -1.680444e-05 3.300898e-09
4.400301e-05 -1.720965e-05 -4.683914e-08
4.398210e-05 -1.720194e-05 -1.354055e-08
4.301066e-05 -1.680762e-05 -1.055087e-08
4.300727e-05 -1.680521e-05 2.858588e-09
4.398207e-05 -1.720229e-05 -4.722277e-08
4.396102e-05 -1.719463e-05 -1.362354e-08
4.301425e-05 -1.680826e-05 -8.638412e-09
4.301116e-05 -1.680584e-05 2.393777e-09
4.396099e-05 -1.719489e-05 -4.752081e-08
4.393985e-05 -1.718730e-05 -1.368252e-08
4.301712e-05 -1.680877e-05 -6.670786e-09
4.301434e-05 -1.680634e-05 1.910126e-09
4.302447e-05 -1.680912e-05 3.488505e-09
4.393981e-05 -1.718746e-05 -4.773115e-08
4.391861e-05 -1.717995e-05 -1.371655e-08
4.302554e-05 -1.680948e-05 -1.592087e-09
4.301853e-05 -1.680703e-05 9.022468e-10
4.302123e-05 -1.680740e-05 -2.080457e-10
4.301925e-05 -1.680916e-05 -4.658356e-09
4.301680e-05 -1.680674e-05 1.411595e-09
4.391858e-05 -1.718001e-05 -4.785219e-08
4.389736e-05 -1.717260e-05 1.994387e-08
4.389732e-05 -1.717256e-05 -4.788288e-08
4.302105e-05 -1.680959e-05 1.564416e-09
4.301972e-05 -1.680728e-05 -1.327367e-10
4.387610e-05 -1.716526e-05 1.991865e-08
4.387608e-05 -1.716513e-05 -4.782256e-08
4.385494e-05 -1.715795e-05 -1.366301e-08
4.302007e-05 -1.680943e-05 3.667844e-09
4.301915e-05 -1.680720e-05 -6.503174e-10
4.385490e-05 -1.715772e-05 -4.767087e-08
4.301828e-05 -1.680906e-05 5.764574e-09
4.301778e-05 -1.680695e-05 -1.162783e-09
4.383381e-05 -1.715066e-05 1.975289e-08
4.383382e-05 -1.715035e-05 -4.742764e-08
4.381292e-05 -1.714347e-05 -1.349435e-08
4.301566e-05 -1.680846e-05 7.840644e-09
4.301560e-05 -1.680649e-05 -1.666776e-09
4.381289e-05 -1.714303e-05 -4.709285e-08
4.379217e-05 -1.713632e-05 -1.336965e-08
4.301221e-05 -1.680760e-05 9.883224e-09
4.301260e-05 -1.680581e-05 -2.159527e-09
4.379214e-05 -1.713579e-05 -4.666656e-08
4.377165e-05 -1.712927e-05 -1.321796e-08
4.300795e-05 -1.680649e-05 1.188134e-08
4.300878e-05 -1.680488e-05 -2.638905e-09
4.377161e-05 -1.712864e-05 -4.614898e-08
4.375138e-05 -1.712232e-05 -1.303940e-08
4.300287e-05 -1.680509e-05 1.382613e-08
4.300416e-05 -1.680368e-05 -3.103332e-09
4.299752e-05 -1.680238e-05 1.702033e-08
4.375135e-05 -1.712159e-05 -4.554016e-08
4.373143e-05 -1.711549e-05 -1.283397e-08
4.299702e-05 -1.680342e-05 1.571074e-08
4.299874e-05 -1.680222e-05 -3.551714e-09
4.299036e-05 -1.680029e-05 1.888370e-08
4.373140e-05 -1.711466e-05 -4.484021e-08
4.371182e-05 -1.710879e-05 -1.260148e-08
4.299039e-05 -1.680147e-05 1.753007e-08
4.299254e-05 -1.680048e-05 -3.983320e-09
4.371179e-05 -1.710787e-05 -4.404942e-08
4.369261e-05 -1.710225e-05 -1.234195e-08
4.298302e-05 -1.679924e-05 1.928050e-08
4.298559e-05 -1.679847e-05 -4.397699e-09
4.297388e-05 -1.679518e-05 -2.153826e-08
4.369258e-05 -1.710123e-05 -4.316783e-08
4.295674e-05 -1.678940e-05 9.388053e-09
4.295673e-05 -1.679096e-05 2.409698e-08
4.297493e-05 -1.679674e-05 2.095951e-08
4.297791e-05 -1.679618e-05 -4.794538e-09
4.297390e-05 -1.679530e-05 2.239600e-08
4.296617e-05 -1.679234e-05 8.772065e-09
4.367364e-05 -1.709581e-05 1.753815e-08
4.367379e-05 -1.709476e-05 -4.219548e-08
4.365550e-05 -1.708969e-05 -1.174215e-08
4.365547e-05 -1.708847e-05 -4.113249e-08
4.363769e-05 -1.708370e-05 -1.140186e-08
4.294668e-05 -1.678770e-05 2.555390e-08
4.295079e-05 -1.678777e-05 -5.879669e-09
4.363766e-05 -1.708238e-05 -3.997885e-08
4.293603e-05 -1.678421e-05 2.693589e-08
4.294049e-05 -1.678447e-05 -6.206121e-09
4.362020e-05 -1.707784e-05 1.606770e-08
4.362041e-05 -1.707651e-05 -3.873457e-08
4.360376e-05 -1.707238e-05 -1.064055e-08
4.292482e-05 -1.678050e-05 2.824277e-08
4.292961e-05 -1.678095e-05 -6.515074e-09
4.360374e-05 -1.707087e-05 -3.739960e-08
4.358773e-05 -1.706709e-05 -1.021957e-08
4.291308e-05 -1.677658e-05 2.947455e-08
4.291818e-05 -1.677722e-05 -6.806668e-09
4.358771e-05 -1.706548e-05 -3.597389e-08
4.357236e-05 -1.706206e-05 -9.771788e-09
4.290083e-05 -1.677247e-05 3.063136e-08
4.290623e-05 -1.677328e-05 -7.080927e-09
4.357234e-05 -1.706035e-05 -3.445742e-08
4.355771e-05 -1.705731e-05 -9.297348e-09
4.288812e-05 -1.676817e-05 3.171335e-08
4.289381e-05 -1.676916e-05 -7.337915e-09
4.355769e-05 -1.705550e-05 -3.285018e-08
4.354381e-05 -1.705285e-05 -8.796463e-09
4.287498e-05 -1.676370e-05 3.272068e-08
4.288093e-05 -1.676486e-05 -7.577693e-09
4.354379e-05 -1.705095e-05 -3.115230e-08
4.353070e-05 -1.704870e-05 -8.269510e-09
4.286143e-05 -1.675907e-05 3.365351e-08
4.286763e-05 -1.676039e-05 -7.800310e-09
4.353068e-05 -1.704670e-05 -2.936411e-08
4.351842e-05 -1.704487e-05 -7.717147e-09
4.284751e-05 -1.675430e-05 3.451199e-08
4.285394e-05 -1.675577e-05 -8.005811e-09
4.351840e-05 -1.704277e-05 -2.748619e-08
4.350700e-05 -1.704137e-05 -7.140204e-09
4.283325e-05 -1.674939e-05 3.529628e-08
4.283990e-05 -1.675101e-05 -8.194229e-09
4.281258e-05 -1.674173e-05 -3.627419e-08
4.350699e-05 -1.703917e-05 -2.551954e-08
4.349649e-05 -1.703821e-05 -6.539794e-09
4.278876e-05 -1.673346e-05 1.467685e-08
4.278874e-05 -1.673400e-05 3.720475e-08
4.281868e-05 -1.674437e-05 3.600649e-08
4.282553e-05 -1.674612e-05 -8.365505e-09
4.281259e-05 -1.674177e-05 3.767945e-08
4.280385e-05 -1.673861e-05 1.444944e-08
4.349648e-05 -1.703592e-05 -2.346598e-08
4.348692e-05 -1.703539e-05 -5.917625e-09
4.348691e-05 -1.703302e-05 -2.132808e-08
4.347831e-05 -1.703293e-05 -5.276052e-09
4.277343e-05 -1.672868e-05 3.769320e-08
4.278079e-05 -1.673082e-05 -8.777734e-09
4.275083e-05 -1.672055e-05 3.973495e-08
4.347831e-05 -1.703047e-05 -1.910965e-08
4.347071e-05 -1.703081e-05 -4.618078e-09
4.275794e-05 -1.672329e-05 3.810814e-08
4.276544e-05 -1.672555e-05 -8.881007e-09
4.347070e-05 -1.702828e-05 -1.681617e-08
4.346412e-05 -1.702904e-05 -3.947494e-09
4.274229e-05 -1.671785e-05 3.844960e-08
4.274992e-05 -1.672021e-05 -8.967291e-09
4.346412e-05 -1.702643e-05 -1.445499e-08
4.272653e-05 -1.671235e-05 3.871780e-08
4.273426e-05 -1.671482e-05 -9.036681e-09
4.345811e-05 -1.702743e-05 4.828008e-09
4.345857e-05 -1.702493e-05 -1.203573e-08
4.271067e-05 -1.670681e-05 3.891311e-08
4.271849e-05 -1.670938e-05 -9.089128e-09
4.345359e-05 -1.702629e-05 3.826396e-09
4.345406e-05 -1.702375e-05 -9.570422e-09
4.345061e-05 -1.702561e-05 -1.909043e-09
4.269475e-05 -1.670125e-05 3.903600e-08
4.270265e-05 -1.670392e-05 -9.124640e-09
4.345061e-05 -1.702287e-05 -7.073222e-09
4.267879e-05 -1.669568e-05 3.908717e-08
4.268676e-05 -1.669843e-05 -9.143268e-09
4.344771e-05 -1.702483e-05 1.827246e-09
4.344819e-05 -1.702226e-05 -4.559678e-09
4.344680e-05 -1.702461e-05 -5.790888e-10
4.266284e-05 -1.669010e-05 3.906759e-08
4.267085e-05 -1.669293e-05 -9.145082e-09
4.344680e-05 -1.702188e-05 -2.045287e-09
4.344642e-05 -1.702441e-05 6.753558e-11
4.264690e-05 -1.668452e-05 3.897857e-08
4.265495e-05 -1.668742e-05 -9.130199e-09
4.344642e-05 -1.702170e-05 4.561464e-10
4.344703e-05 -1.702438e-05 7.026583e-10
4.263102e-05 -1.667895e-05 3.882191e-08
4.263909e-05 -1.668192e-05 -9.098804e-09
4.260674e-05 -1.667064e-05 3.997245e-08
4.344703e-05 -1.702170e-05 2.933338e-09
4.344861e-05 -1.702450e-05 1.328724e-09
4.261522e-05 -1.667340e-05 3.859997e-08
4.262329e-05 -1.667643e-05 -9.051162e-09
4.259096e-05 -1.666512e-05 3.965962e-08
4.344861e-05 -1.702186e-05 5.376619e-09
4.345116e-05 -1.702477e-05 1.947883e-09
4.256852e-05 -1.665734e-05 1.490284e-08
4.256850e-05 -1.665688e-05 3.757433e-08
4.259952e-05 -1.666787e-05 3.831567e-08
4.258394e-05 -1.666236e-05 3.797243e-08
4.260758e-05 -1.667096e-05 -8.987576e-09
4.345116e-05 -1.702219e-05 7.775905e-09
4.345466e-05 -1.702522e-05 2.560455e-09
4.345466e-05 -1.702271e-05 1.011900e-08
4.345910e-05 -1.702587e-05 3.164291e-09
4.255322e-05 -1.665142e-05 3.712589e-08
4.256119e-05 -1.665466e-05 -8.708437e-09
4.345909e-05 -1.702343e-05 1.239128e-08
4.346446e-05 -1.702672e-05 3.755165e-09
4.253812e-05 -1.664599e-05 3.663122e-08
4.254604e-05 -1.664927e-05 -8.588575e-09
4.346446e-05 -1.702439e-05 1.457695e-08
4.252321e-05 -1.664058e-05 3.609372e-08
4.253106e-05 -1.664390e-05 -8.457248e-09
4.347034e-05 -1.702768e-05 -6.487089e-09
4.347071e-05 -1.702560e-05 1.666076e-08
4.347784e-05 -1.702915e-05 4.876434e-09
4.250850e-05 -1.663520e-05 3.551617e-08
4.251628e-05 -1.663855e-05 -8.315774e-09
4.347784e-05 -1.702707e-05 1.862917e-08
4.348579e-05 -1.703074e-05 5.396225e-09
4.249402e-05 -1.662985e-05 3.490099e-08
4.250171e-05 -1.663323e-05 -8.165318e-09
4.348579e-05 -1.702881e-05 2.047094e-08
4.247977e-05 -1.662454e-05 3.425083e-08
4.248736e-05 -1.662793e-05 -8.007105e-09
4.349421e-05 -1.703248e-05 -8.759726e-09
4.349451e-05 -1.703080e-05 2.217715e-08
4.350396e-05 -1.703467e-05 6.332439e-09
4.246578e-05 -1.661928e-05 3.356896e-08
4.247326e-05 -1.662268e-05 -7.842376e-09
4.350395e-05 -1.703305e-05 2.374107e-08
4.351406e-05 -1.703700e-05 6.742562e-09
4.245206e-05 -1.661409e-05 3.285934e-08
4.245941e-05 -1.661749e-05 -7.672320e-09
4.351405e-05 -1.703553e-05 2.515776e-08
4.352477e-05 -1.703953e-05 7.111010e-09
4.243863e-05 -1.660898e-05 3.212622e-08
4.244585e-05 -1.661236e-05 -7.498034e-09
4.352476e-05 -1.703823e-05 2.642371e-08
4.353601e-05 -1.704227e-05 7.436225e-09
4.242549e-05 -1.660397e-05 3.137369e-08
4.243257e-05 -1.660731e-05 -7.320439e-09
4.240473e-05 -1.659672e-05 -3.053328e-08
4.353599e-05 -1.704114e-05 2.753652e-08
4.354771e-05 -1.704518e-05 7.717099e-09
4.238797e-05 -1.659040e-05 1.168488e-08
4.238796e-05 -1.658955e-05 2.903223e-08
4.241266e-05 -1.659905e-05 3.060534e-08
4.241959e-05 -1.660236e-05 -7.140204e-09
4.240474e-05 -1.659667e-05 3.167438e-08
4.240016e-05 -1.659508e-05 1.199936e-08
4.354770e-05 -1.704422e-05 2.849465e-08
4.355982e-05 -1.704825e-05 7.952932e-09
4.355981e-05 -1.704745e-05 2.929705e-08
4.357226e-05 -1.705144e-05 8.143205e-09
4.237610e-05 -1.658498e-05 2.823185e-08
4.238256e-05 -1.658815e-05 -6.589295e-09
4.235726e-05 -1.657840e-05 2.833724e-08
4.357224e-05 -1.705082e-05 2.994303e-08
4.358495e-05 -1.705474e-05 8.287428e-09
4.236457e-05 -1.658053e-05 2.742421e-08
4.237087e-05 -1.658365e-05 -6.402922e-09
4.234623e-05 -1.657415e-05 2.748135e-08
4.358494e-05 -1.705428e-05 3.043235e-08
4.359784e-05 -1.705811e-05 8.385372e-09
4.235339e-05 -1.657621e-05 2.661013e-08
4.235951e-05 -1.657927e-05 -6.215473e-09
4.359783e-05 -1.705782e-05 3.076473e-08
4.361085e-05 -1.706152e-05 8.436961e-09
4.234254e-05 -1.657203e-05 2.579024e-08
4.234850e-05 -1.657502e-05 -6.027068e-09
4.361083e-05 -1.706141e-05 3.093999e-08
4.362390e-05 -1.706496e-05 8.442096e-09
4.233204e-05 -1.656797e-05 2.496496e-08
4.233783e-05 -1.657091e-05 -5.837665e-09
4.362389e-05 -1.706501e-05 3.095807e-08
4.363694e-05 -1.706838e-05 8.400688e-09
4.232188e-05 -1.656405e-05 2.413452e-08
4.232750e-05 -1.656693e-05 -5.647256e-09
4.363692e-05 -1.706861e-05 3.081885e-08
4.231207e-05 -1.656027e-05 2.329905e-08
4.231752e-05 -1.656308e-05 -5.455824e-09
4.364995e-05 -1.707180e-05 -1.227523e-08
4.364986e-05 -1.707217e-05 3.052218e-08
4.230261e-05 -1.655662e-05 2.245860e-08
4.230788e-05 -1.655937e-05 -5.263349e-09
4.366276e-05 -1.707514e-05 -1.208133e-08
4.366264e-05 -1.707567e-05 3.006792e-08
4.367519e-05 -1.707833e-05 7.996626e-09
4.229350e-05 -1.655311e-05 2.161315e-08
4.229860e-05 -1.655580e-05 -5.069801e-09
4.367517e-05 -1.707907e-05 2.945586e-08
4.228474e-05 -1.654974e-05 2.076269e-08
4.228967e-05 -1.655236e-05 -4.875154e-09
4.227050e-05 -1.654506e-05 -1.968863e-08
4.368758e-05 -1.708150e-05 -1.149175e-08
4.368740e-05 -1.708235e-05 2.868576e-08
4.369926e-05 -1.708441e-05 7.493564e-09
4.226263e-05 -1.654198e-05 1.951712e-08
4.227288e-05 -1.654591e-05 -4.482373e-09
4.226062e-05 -1.654140e-05 7.315845e-09
4.227634e-05 -1.654651e-05 1.990713e-08
4.228110e-05 -1.654907e-05 -4.679331e-09
4.369924e-05 -1.708549e-05 2.775735e-08
4.371065e-05 -1.708719e-05 7.171821e-09
4.371064e-05 -1.708844e-05 2.667040e-08
4.372151e-05 -1.708977e-05 6.803367e-09
4.225330e-05 -1.653766e-05 1.730884e-08
4.225752e-05 -1.654002e-05 -4.085139e-09
4.372150e-05 -1.709119e-05 2.542463e-08
4.373178e-05 -1.709211e-05 6.388294e-09
4.224634e-05 -1.653499e-05 1.643208e-08
4.225038e-05 -1.653729e-05 -3.884588e-09
4.373177e-05 -1.709370e-05 2.401980e-08
4.374137e-05 -1.709419e-05 5.926697e-09
4.223975e-05 -1.653247e-05 1.554981e-08
4.224361e-05 -1.653470e-05 -3.682788e-09
4.374137e-05 -1.709596e-05 2.245595e-08
4.375023e-05 -1.709598e-05 5.418950e-09
4.223352e-05 -1.653009e-05 1.466193e-08
4.223721e-05 -1.653225e-05 -3.479765e-09
4.375022e-05 -1.709792e-05 2.073318e-08
4.375826e-05 -1.709746e-05 4.865709e-09
4.222767e-05 -1.652785e-05 1.376839e-08
4.223117e-05 -1.652995e-05 -3.275452e-09
4.375826e-05 -1.709957e-05 1.885198e-08
4.376542e-05 -1.709859e-05 4.267886e-09
4.222219e-05 -1.652577e-05 1.286912e-08
4.222551e-05 -1.652780e-05 -3.069822e-09
4.376541e-05 -1.710088e-05 1.681342e-08
4.221708e-05 -1.652382e-05 1.196410e-08
4.222022e-05 -1.652579e-05 -2.862848e-09
4.377205e-05 -1.709953e-05 -5.518916e-09
4.377161e-05 -1.710182e-05 1.461931e-08
4.377680e-05 -1.709978e-05 2.944446e-09
4.221235e-05 -1.652203e-05 1.105332e-08
4.221530e-05 -1.652393e-05 -2.654505e-09
4.377680e-05 -1.710239e-05 1.227254e-08
4.378090e-05 -1.709979e-05 2.223412e-09
4.220799e-05 -1.652038e-05 1.013683e-08
4.221076e-05 -1.652221e-05 -2.444765e-09
4.378090e-05 -1.710256e-05 9.777499e-09
4.220402e-05 -1.651888e-05 9.214789e-09
4.220660e-05 -1.652065e-05 -2.233606e-09
4.219684e-05 -1.651703e-05 -7.887588e-09
4.378437e-05 -1.709958e-05 -2.386254e-09
4.378385e-05 -1.710231e-05 7.140490e-09
4.378562e-05 -1.709860e-05 6.806496e-10
4.219440e-05 -1.651627e-05 2.571609e-09
4.219440e-05 -1.651527e-05 6.418678e-09
4.220043e-05 -1.651753e-05 8.287436e-09
4.220282e-05 -1.651923e-05 -2.020993e-09
4.219685e-05 -1.651697e-05 8.184253e-09
4.219722e-05 -1.651733e-05 2.947536e-09
4.378562e-05 -1.710166e-05 4.370275e-09
4.378614e-05 -1.709741e-05 -1.307545e-10
4.378614e-05 -1.710059e-05 1.478538e-09
4.378539e-05 -1.709584e-05 -9.601605e-10
4.219196e-05 -1.651435e-05 5.478956e-09
4.219379e-05 -1.651585e-05 -1.374785e-09
4.378539e-05 -1.709913e-05 -1.519781e-09
4.378334e-05 -1.709392e-05 -1.800107e-09
4.218990e-05 -1.651358e-05 4.537336e-09
4.219155e-05 -1.651501e-05 -1.156730e-09
4.378334e-05 -1.709729e-05 -4.606544e-09
4.377998e-05 -1.709167e-05 -2.643227e-09
4.218823e-05 -1.651295e-05 3.595616e-09
4.218969e-05 -1.651431e-05 -9.376248e-10
4.218446e-05 -1.651230e-05 2.309043e-09
4.377998e-05 -1.709510e-05 -7.761057e-09
4.377531e-05 -1.708913e-05 -3.483475e-09
4.218694e-05 -1.651245e-05 2.656164e-09
4.218821e-05 -1.651374e-05 -7.177473e-10
4.218374e-05 -1.651198e-05 1.348860e-09
4.377530e-05 -1.709260e-05 -1.096161e-08
4.376932e-05 -1.708635e-05 -4.317477e-09
4.218603e-05 -1.651208e-05 1.721929e-09
4.218710e-05 -1.651330e-05 -4.975008e-10
4.376932e-05 -1.708983e-05 -1.418784e-08
4.376205e-05 -1.708335e-05 -5.145274e-09
4.218548e-05 -1.651183e-05 7.963771e-10
4.218637e-05 -1.651298e-05 -2.774298e-10
4.376204e-05 -1.708683e-05 -1.742255e-08
4.375348e-05 -1.708014e-05 -5.969524e-09
4.218530e-05 -1.651169e-05 -1.166650e-10
4.218600e-05 -1.651277e-05 -5.826870e-11
4.375347e-05 -1.708362e-05 -2.065154e-08
4.374363e-05 -1.707674e-05 -6.793474e-09
4.218546e-05 -1.651164e-05 -1.013356e-09
4.218599e-05 -1.651266e-05 1.590838e-10
4.374362e-05 -1.708018e-05 -2.386153e-08
4.373249e-05 -1.707311e-05 -7.618767e-09
4.218597e-05 -1.651168e-05 -1.890235e-09
4.218631e-05 -1.651264e-05 3.735992e-10
4.373248e-05 -1.707650e-05 -2.703715e-08
4.372008e-05 -1.706922e-05 -8.443932e-09
4.218681e-05 -1.651181e-05 -2.744510e-09
4.218697e-05 -1.651270e-05 5.841614e-10
4.218691e-05 -1.651221e-05 3.804646e-09
4.372006e-05 -1.707255e-05 -3.015967e-08
4.370638e-05 -1.706505e-05 -9.264269e-09
4.219118e-05 -1.651341e-05 -1.904657e-09
4.219118e-05 -1.651260e-05 -5.148864e-09
4.218796e-05 -1.651200e-05 -3.573934e-09
4.218690e-05 -1.651215e-05 -3.974479e-09
4.218795e-05 -1.651283e-05 7.896352e-10
4.370636e-05 -1.706829e-05 -3.320798e-08
4.369199e-05 -1.706075e-05 1.476325e-08
4.369140e-05 -1.706368e-05 -3.616077e-08
4.219323e-05 -1.651301e-05 -5.888336e-09
4.219271e-05 -1.651363e-05 1.364369e-09
4.219541e-05 -1.651380e-05 -6.974329e-09
4.367577e-05 -1.705590e-05 1.592171e-08
4.367521e-05 -1.705870e-05 -3.899860e-08
4.365785e-05 -1.705051e-05 -1.162591e-08
4.219556e-05 -1.651350e-05 -6.590902e-09
4.219487e-05 -1.651404e-05 1.538337e-09
4.365783e-05 -1.705335e-05 -4.170502e-08
4.219816e-05 -1.651406e-05 -7.252667e-09
4.219730e-05 -1.651451e-05 1.701862e-09
4.363980e-05 -1.704510e-05 1.810152e-08
4.363930e-05 -1.704761e-05 -4.426684e-08
4.361972e-05 -1.703899e-05 -1.304984e-08
4.220100e-05 -1.651470e-05 -7.870051e-09
4.219999e-05 -1.651507e-05 1.854187e-09
4.361968e-05 -1.704149e-05 -4.667414e-08
4.359908e-05 -1.703268e-05 -1.370139e-08
4.220409e-05 -1.651542e-05 -8.439979e-09
4.220292e-05 -1.651569e-05 1.994717e-09
4.359904e-05 -1.703500e-05 -4.891956e-08
4.357749e-05 -1.702603e-05 -1.430832e-08
4.220739e-05 -1.651621e-05 -8.959955e-09
4.220608e-05 -1.651639e-05 2.123009e-09
4.357745e-05 -1.702817e-05 -5.099793e-08
4.355502e-05 -1.701905e-05 -1.486817e-08
4.221089e-05 -1.651707e-05 -9.428026e-09
4.220945e-05 -1.651716e-05 2.238760e-09
4.355498e-05 -1.702100e-05 -5.290607e-08
4.353174e-05 -1.701177e-05 -1.537936e-08
4.221458e-05 -1.651800e-05 -9.842724e-09
4.221301e-05 -1.651799e-05 2.341751e-09
4.353170e-05 -1.701353e-05 -5.464184e-08
4.350774e-05 -1.700420e-05 -1.584095e-08
4.221842e-05 -1.651898e-05 -1.020298e-08
4.221673e-05 -1.651888e-05 2.431858e-09
4.350769e-05 -1.700577e-05 -5.620401e-08
4.222239e-05 -1.652001e-05 -1.050805e-08
4.222060e-05 -1.651983e-05 2.509003e-09
4.222816e-05 -1.652166e-05 1.061376e-08
4.348334e-05 -1.699648e-05 2.373456e-08
4.348304e-05 -1.699777e-05 -5.759217e-08
4.345786e-05 -1.698835e-05 -1.661285e-08
4.223492e-05 -1.652345e-05 -4.228247e-09
4.223491e-05 -1.652333e-05 -1.108765e-08
4.222648e-05 -1.652109e-05 -1.075741e-08
4.222460e-05 -1.652082e-05 2.573121e-09
4.222816e-05 -1.652165e-05 -1.105698e-08
4.223067e-05 -1.652238e-05 -4.173205e-09
4.345781e-05 -1.698954e-05 -5.880625e-08
4.343215e-05 -1.698012e-05 -1.692248e-08
4.343209e-05 -1.698113e-05 -5.984647e-08
4.223921e-05 -1.652449e-05 -1.116820e-08
4.223712e-05 -1.652400e-05 2.687518e-09
4.340616e-05 -1.697178e-05 2.507120e-08
4.340596e-05 -1.697255e-05 -6.071322e-08
4.337955e-05 -1.696321e-05 -1.738859e-08
4.224353e-05 -1.652565e-05 -1.119226e-08
4.224139e-05 -1.652510e-05 2.699592e-09
4.337949e-05 -1.696384e-05 -6.140700e-08
4.335283e-05 -1.695459e-05 -1.754510e-08
4.224784e-05 -1.652681e-05 -1.115973e-08
4.224567e-05 -1.652620e-05 2.698665e-09
4.335277e-05 -1.695502e-05 -6.192830e-08
4.332592e-05 -1.694590e-05 -1.765065e-08
4.225213e-05 -1.652796e-05 -1.107053e-08
4.224993e-05 -1.652729e-05 2.684772e-09
4.332586e-05 -1.694614e-05 -6.227762e-08
4.329892e-05 -1.693716e-05 -1.770531e-08
4.225638e-05 -1.652910e-05 -1.092461e-08
4.225416e-05 -1.652837e-05 2.657888e-09
4.226314e-05 -1.653072e-05 -1.077973e-08
4.329886e-05 -1.693722e-05 -6.245555e-08
4.327190e-05 -1.692842e-05 -1.770937e-08
4.226055e-05 -1.653020e-05 -1.072190e-08
4.225833e-05 -1.652943e-05 2.618003e-09
4.226727e-05 -1.653176e-05 -1.047669e-08
4.327184e-05 -1.692829e-05 -6.246243e-08
4.324493e-05 -1.691970e-05 -1.766293e-08
4.226463e-05 -1.653127e-05 -1.046228e-08
4.226242e-05 -1.653045e-05 2.565101e-09
4.324486e-05 -1.691939e-05 -6.229856e-08
4.321808e-05 -1.691103e-05 -1.756583e-08
4.226858e-05 -1.653229e-05 -1.014565e-08
4.226640e-05 -1.653143e-05 2.499158e-09
4.321802e-05 -1.691053e-05 -6.196455e-08
4.319145e-05 -1.690244e-05 -1.741820e-08
4.227239e-05 -1.653325e-05 -9.771876e-09
4.227025e-05 -1.653236e-05 2.420138e-09
4.319139e-05 -1.690176e-05 -6.146058e-08
4.316509e-05 -1.689396e-05 -1.722036e-08
4.227604e-05 -1.653415e-05 -9.340807e-09
4.227394e-05 -1.653323e-05 2.327998e-09
4.228227e-05 -1.653528e-05 8.305268e-09
4.316504e-05 -1.689310e-05 -6.078691e-08
4.313910e-05 -1.688563e-05 -1.697250e-08
4.228574e-05 -1.653568e-05 -2.857945e-09
4.228574e-05 -1.653635e-05 -7.702435e-09
4.227950e-05 -1.653497e-05 -8.852291e-09
4.227746e-05 -1.653402e-05 2.222658e-09
4.228227e-05 -1.653531e-05 -8.663208e-09
4.228274e-05 -1.653509e-05 -3.101831e-09
4.313904e-05 -1.688457e-05 -5.994395e-08
4.311353e-05 -1.687746e-05 -1.667490e-08
4.311348e-05 -1.687622e-05 -5.893207e-08
4.308847e-05 -1.686949e-05 -1.632795e-08
4.228848e-05 -1.653689e-05 -7.041136e-09
4.228669e-05 -1.653590e-05 1.826951e-09
4.308842e-05 -1.686806e-05 -5.775182e-08
4.306399e-05 -1.686174e-05 -1.593227e-08
4.229094e-05 -1.653732e-05 -6.322507e-09
4.228925e-05 -1.653632e-05 1.668140e-09
4.229577e-05 -1.653770e-05 -5.048536e-09
4.306394e-05 -1.686013e-05 -5.640400e-08
4.304016e-05 -1.685423e-05 -1.548871e-08
4.229309e-05 -1.653764e-05 -5.547062e-09
4.229151e-05 -1.653663e-05 1.495756e-09
4.229753e-05 -1.653783e-05 -4.152853e-09
4.304011e-05 -1.685245e-05 -5.488980e-08
4.301705e-05 -1.684700e-05 -1.499850e-08
4.229491e-05 -1.653783e-05 -4.715775e-09
4.229346e-05 -1.653682e-05 1.309765e-09
4.301701e-05 -1.684504e-05 -5.321100e-08
4.229638e-05 -1.653789e-05 -3.830252e-09
4.229506e-05 -1.653689e-05 1.110137e-09
4.299437e-05 -1.683993e-05 2.114303e-08
4.299469e-05 -1.683792e-05 -5.137025e-08
4.229747e-05 -1.653783e-05 -2.892967e-09
4.229631e-05 -1.653683e-05 8.969590e-10
4.297287e-05 -1.683329e-05 2.030493e-08
4.297323e-05 -1.683112e-05 -4.937133e-08
4.295271e-05 -1.682712e-05 -1.326797e-08
4.229819e-05 -1.653763e-05 -1.907562e-09
4.229718e-05 -1.653664e-05 6.704228e-10
4.295268e-05 -1.682464e-05 -4.721967e-08
4.229850e-05 -1.653730e-05 -8.791933e-10
4.229766e-05 -1.653633e-05 4.309325e-10
4.293268e-05 -1.682096e-05 1.845512e-08
4.293310e-05 -1.681850e-05 -4.492250e-08
4.291458e-05 -1.681546e-05 -1.193107e-08
4.229841e-05 -1.653686e-05 1.850846e-10
4.229773e-05 -1.653590e-05 1.791508e-10
4.291455e-05 -1.681269e-05 -4.248949e-08
4.289709e-05 -1.681012e-05 -1.122218e-08
4.229790e-05 -1.653632e-05 1.275963e-09
4.229740e-05 -1.653537e-05 -8.388218e-11
4.229886e-05 -1.653525e-05 -3.095008e-09
4.289707e-05 -1.680722e-05 -3.993323e-08
4.288070e-05 -1.680507e-05 -1.049476e-08
4.229397e-05 -1.653314e-05 1.828233e-09
4.229397e-05 -1.653428e-05 4.578463e-09
4.229698e-05 -1.653568e-05 2.381665e-09
4.229667e-05 -1.653476e-05 -3.566189e-10
4.229888e-05 -1.653533e-05 3.196063e-09
4.229567e-05 -1.653382e-05 1.455556e-09
4.288068e-05 -1.680206e-05 -3.726887e-08
4.286543e-05 -1.680030e-05 -9.755642e-09
4.286541e-05 -1.679720e-05 -3.451402e-08
4.285129e-05 -1.679578e-05 -9.010806e-09
4.229192e-05 -1.653359e-05 5.636258e-09
4.229215e-05 -1.653272e-05 -1.208143e-09
4.285128e-05 -1.679261e-05 -3.168780e-08
4.228955e-05 -1.653295e-05 6.645144e-09
4.228996e-05 -1.653210e-05 -1.491089e-09
4.283772e-05 -1.679127e-05 1.201231e-08
4.283828e-05 -1.678826e-05 -2.880885e-08
4.282644e-05 -1.678735e-05 -7.517060e-09
4.228690e-05 -1.653241e-05 7.591483e-09
4.228748e-05 -1.653158e-05 -1.766087e-09
4.282643e-05 -1.678411e-05 -2.589353e-08
4.281572e-05 -1.678340e-05 -6.767614e-09
4.228400e-05 -1.653200e-05 8.464508e-09
4.228474e-05 -1.653118e-05 -2.028236e-09
4.281572e-05 -1.678014e-05 -2.295520e-08
4.228089e-05 -1.653173e-05 9.254809e-09
4.228179e-05 -1.653093e-05 -2.272596e-09
4.280556e-05 -1.677942e-05 8.621533e-09
4.280615e-05 -1.677636e-05 -2.000546e-08
4.279774e-05 -1.677603e-05 -5.250371e-09
4.227759e-05 -1.653159e-05 9.951875e-09
4.227866e-05 -1.653084e-05 -2.494253e-09
4.279774e-05 -1.677278e-05 -1.705658e-08
4.279049e-05 -1.677265e-05 -4.479839e-09
4.227413e-05 -1.653158e-05 1.054243e-08
4.227537e-05 -1.653089e-05 -2.688283e-09
4.279049e-05 -1.676942e-05 -1.412349e-08
4.278441e-05 -1.676952e-05 -3.704011e-09
4.227055e-05 -1.653168e-05 1.101060e-08
4.227195e-05 -1.653107e-05 -2.849943e-09
4.278441e-05 -1.676634e-05 -1.122386e-08
4.277952e-05 -1.676667e-05 -2.928086e-09
4.226689e-05 -1.653187e-05 1.133946e-08
4.226843e-05 -1.653138e-05 -2.974923e-09
4.226147e-05 -1.653235e-05 1.091061e-08
4.277951e-05 -1.676355e-05 -8.376640e-09
4.277579e-05 -1.676413e-05 -2.158550e-09
4.226318e-05 -1.653215e-05 1.151284e-08
4.226486e-05 -1.653179e-05 -3.059600e-09
4.225739e-05 -1.653275e-05 1.078070e-08
4.277579e-05 -1.676111e-05 -5.600010e-09
4.277321e-05 -1.676193e-05 -1.402023e-09
4.225774e-05 -1.653291e-05 -3.097288e-09
4.225236e-05 -1.653399e-05 3.518472e-09
4.225236e-05 -1.653349e-05 1.096951e-08
4.225948e-05 -1.653250e-05 1.151647e-08
4.226128e-05 -1.653230e-05 -3.101092e-09
4.277321e-05 -1.675901e-05 -2.910107e-09
4.277175e-05 -1.676009e-05 -6.645922e-10
4.277175e-05 -1.675728e-05 -3.203273e-10
4.277139e-05 -1.675861e-05 4.850040e-11
4.224909e-05 -1.653414e-05 1.040235e-08
4.225107e-05 -1.653443e-05 -2.948374e-09
4.277139e-05 -1.675593e-05 2.158784e-09
4.277208e-05 -1.675750e-05 7.329931e-10
4.224611e-05 -1.653494e-05 9.631549e-09
4.224808e-05 -1.653538e-05 -2.801540e-09
4.223994e-05 -1.653652e-05 7.156374e-09
4.277208e-05 -1.675495e-05 4.519218e-09
4.277377e-05 -1.675674e-05 1.385552e-09
4.224350e-05 -1.653589e-05 8.652938e-09
4.224542e-05 -1.653648e-05 -2.605947e-09
4.223761e-05 -1.653779e-05 5.785408e-09
4.277377e-05 -1.675434e-05 6.755141e-09
4.277642e-05 -1.675634e-05 2.003650e-09
4.224135e-05 -1.653704e-05 7.463186e-09
4.224318e-05 -1.653777e-05 -2.361414e-09
4.277641e-05 -1.675408e-05 8.862462e-09
4.277996e-05 -1.675627e-05 2.585429e-09
4.223975e-05 -1.653842e-05 6.059348e-09
4.224145e-05 -1.653927e-05 -2.067843e-09
4.277996e-05 -1.675416e-05 1.083842e-08
4.278435e-05 -1.675653e-05 3.129560e-09
4.223878e-05 -1.654005e-05 4.438358e-09
4.224030e-05 -1.654101e-05 -1.725139e-09
4.278434e-05 -1.675456e-05 1.268124e-08
4.278952e-05 -1.675708e-05 3.635109e-09
4.223855e-05 -1.654199e-05 2.596584e-09
4.223984e-05 -1.654304e-05 -1.333150e-09
4.278952e-05 -1.675527e-05 1.438985e-08
4.279543e-05 -1.675792e-05 4.101452e-09
4.223913e-05 -1.654428e-05 5.293402e-10
4.224015e-05 -1.654540e-05 -8.915784e-10
4.279542e-05 -1.675626e-05 1.596366e-08
4.224064e-05 -1.654696e-05 -1.769687e-09
4.224134e-05 -1.654813e-05 -3.998712e-10
4.280174e-05 -1.675893e-05 -6.788799e-09
4.280199e-05 -1.675751e-05 1.740237e-08
4.224318e-05 -1.655009e-05 -4.309016e-09
4.224351e-05 -1.655130e-05 1.428760e-10
4.224304e-05 -1.655617e-05 1.038393e-08
4.280895e-05 -1.676028e-05 -7.345599e-09
4.280918e-05 -1.675900e-05 1.870594e-08
4.281692e-05 -1.676192e-05 5.261911e-09
4.225812e-05 -1.656648e-05 -6.623698e-09
4.225811e-05 -1.656275e-05 -1.350190e-08
4.224686e-05 -1.655371e-05 -7.100087e-09
4.224677e-05 -1.655494e-05 7.380355e-10
4.224303e-05 -1.655597e-05 -1.055766e-08
4.225179e-05 -1.656133e-05 -5.213842e-09
4.281691e-05 -1.676070e-05 1.987435e-08
4.282153e-05 -1.676276e-05 5.284881e-09
4.282514e-05 -1.676260e-05 2.090762e-08
4.283381e-05 -1.676560e-05 5.835403e-09
4.226596e-05 -1.656830e-05 -1.715699e-08
4.226430e-05 -1.656950e-05 2.863924e-09
4.283380e-05 -1.676467e-05 2.180589e-08
4.284284e-05 -1.676766e-05 6.061854e-09
4.227548e-05 -1.657467e-05 -2.115406e-08
4.227319e-05 -1.657583e-05 3.700015e-09
4.284283e-05 -1.676689e-05 2.256916e-08
4.285218e-05 -1.676985e-05 6.248145e-09
4.228685e-05 -1.658194e-05 -2.553035e-08
4.228386e-05 -1.658306e-05 4.610810e-09
4.285217e-05 -1.676923e-05 2.319740e-08
4.286178e-05 -1.677214e-05 6.394266e-09
4.230025e-05 -1.659023e-05 -3.032969e-08
4.229650e-05 -1.659129e-05 5.606080e-09
4.286177e-05 -1.677166e-05 2.369059e-08
4.287157e-05 -1.677450e-05 6.500201e-09
4.231589e-05 -1.659963e-05 -3.560179e-08
4.231132e-05 -1.660065e-05 6.698198e-09
4.287156e-05 -1.677418e-05 2.404863e-08
4.233396e-05 -1.661023e-05 -4.140015e-08
4.232852e-05 -1.661124e-05 7.902633e-09
4.288146e-05 -1.677691e-05 -9.721152e-09
4.288148e-05 -1.677674e-05 2.427141e-08
4.289148e-05 -1.677936e-05 6.591515e-09
4.235470e-05 -1.662214e-05 -4.777802e-08
4.234834e-05 -1.662315e-05 9.238285e-09
4.289147e-05 -1.677933e-05 2.435877e-08
4.290149e-05 -1.678181e-05 6.576938e-09
4.237833e-05 -1.663537e-05 -5.478144e-08
4.237101e-05 -1.663644e-05 1.072759e-08
4.290148e-05 -1.678193e-05 2.431056e-08
4.240505e-05 -1.664992e-05 -6.243790e-08
4.239673e-05 -1.665111e-05 1.239636e-08
4.291149e-05 -1.678425e-05 -9.658219e-09
4.291143e-05 -1.678451e-05 2.412665e-08
4.292129e-05 -1.678662e-05 6.427740e-09
4.243500e-05 -1.666564e-05 -7.073928e-08
4.242570e-05 -1.666705e-05 1.427321e-08
4.246457e-05 -1.669139e-05 8.721516e-08
4.292128e-05 -1.678704e-05 2.380700e-08
4.293096e-05 -1.678894e-05 6.293511e-09
4.250006e-05 -1.670691e-05 -9.891721e-08
4.249360e-05 -1.670145e-05 1.877071e-08
4.254392e-05 -1.672558e-05 -4.003254e-08
4.246823e-05 -1.668223e-05 -7.961662e-08
4.245800e-05 -1.668400e-05 1.638800e-08
4.293096e-05 -1.678951e-05 2.335174e-08
4.294041e-05 -1.679118e-05 6.120091e-09
4.294040e-05 -1.679190e-05 2.276115e-08
4.294957e-05 -1.679331e-05 5.908093e-09
4.258505e-05 -1.672987e-05 -1.072830e-07
4.257331e-05 -1.673396e-05 2.444806e-08
4.294957e-05 -1.679418e-05 2.203588e-08
4.295839e-05 -1.679531e-05 5.658328e-09
4.262693e-05 -1.674011e-05 -1.151040e-07
4.261585e-05 -1.674574e-05 2.779802e-08
4.295838e-05 -1.679633e-05 2.117719e-08
4.296680e-05 -1.679718e-05 5.372074e-09
4.266708e-05 -1.674313e-05 -1.205039e-07
4.265844e-05 -1.675121e-05 3.156166e-08
4.270514e-05 -1.671998e-05 9.597724e-08
4.296679e-05 -1.679833e-05 2.018692e-08
4.297476e-05 -1.679888e-05 5.051130e-09
4.272714e-05 -1.671484e-05 -1.078074e-07
4.270180e-05 -1.673508e-05 -1.207786e-07
4.270049e-05 -1.674675e-05 3.636232e-08
4.297475e-05 -1.680018e-05 1.906787e-08
4.298220e-05 -1.680042e-05 4.697791e-09
4.269991e-05 -1.662977e-05 -5.895682e-08
4.273576e-05 -1.671717e-05 1.058178e-07
4.298220e-05 -1.680185e-05 1.782414e-08
4.298909e-05 -1.680178e-05 4.314997e-09
4.298909e-05 -1.680334e-05 1.646133e-08
4.299538e-05 -1.680296e-05 3.906361e-09
4.299538e-05 -1.680464e-05 1.498682e-08
4.300103e-05 -1.680398e-05 3.476103e-09
4.300103e-05 -1.680576e-05 1.340998e-08
4.300601e-05 -1.680483e-05 3.028791e-09
4.300601e-05 -1.680670e-05 1.174209e-08
4.301030e-05 -1.680553e-05 2.568846e-09
4.301030e-05 -1.680748e-05 9.995800e-09
4.301388e-05 -1.680609e-05 2.099762e-09
4.301388e-05 -1.680811e-05 8.184218e-09
4.301673e-05 -1.680655e-05 1.623280e-09
4.301673e-05 -1.680862e-05 6.319475e-09
4.301925e-05 -1.680703e-05 -1.712491e-09
4.301885e-05 -1.680900e-05 4.411765e-09
4.302062e-05 -1.680727e-05 -9.677272e-10
4.302022e-05 -1.680928e-05 2.469508e-09
4.302083e-05 -1.680726e-05 1.406212e-10
4.302083e-05 -1.680943e-05 5.008400e-10
4.302105e-05 -1.680739e-05 5.663562e-10
4.302065e-05 -1.680943e-05 -1.484774e-09
4.301968e-05 -1.680708e-05 -9.052188e-10
4.301968e-05 -1.680927e-05 -3.475814e-09
4.301789e-05 -1.680673e-05 -1.442139e-09
4.301789e-05 -1.680890e-05 -5.459317e-09
4.301527e-05 -1.680616e-05 -1.983214e-09
4.301527e-05 -1.680830e-05 -7.422244e-09
4.301184e-05 -1.680535e-05 -2.523843e-09
4.301184e-05 -1.680745e-05 -9.352662e-09
4.300758e-05 -1.680429e-05 -3.059611e-09
4.300758e-05 -1.680633e-05 -1.124039e-08
4.300288e-05 -1.680309e-05 5.283411e-09
4.300252e-05 -1.680495e-05 -1.307722e-08
4.299668e-05 -1.680136e-05 -4.101725e-09
4.299668e-05 -1.680328e-05 -1.485682e-08
4.299007e-05 -1.679948e-05 -4.602299e-09
4.299006e-05 -1.680133e-05 -1.657449e-08
4.298302e-05 -1.679744e-05 7.454397e-09
4.298271e-05 -1.679911e-05 -1.822687e-08
4.297464e-05 -1.679491e-05 -5.552555e-09
4.297464e-05 -1.679661e-05 -1.981168e-08
4.296588e-05 -1.679223e-05 -5.999790e-09
4.296588e-05 -1.679386e-05 -2.132738e-08
4.295647e-05 -1.678930e-05 -6.427372e-09
4.295646e-05 -1.679085e-05 -2.277299e-08
4.294643e-05 -1.678613e-05 -6.834709e-09
4.294642e-05 -1.678759e-05 -2.414806e-08
4.293580e-05 -1.678272e-05 -7.221479e-09
4.293579e-05 -1.678411e-05 -2.545230e-08
4.292460e-05 -1.677909e-05 -7.587546e-09
4.292459e-05 -1.678040e-05 -2.668562e-08
4.291287e-05 -1.677526e-05 -7.932804e-09
4.291286e-05 -1.677649e-05 -2.784808e-08
4.290064e-05 -1.677123e-05 -8.257198e-09
4.290063e-05 -1.677238e-05 -2.893981e-08
4.288795e-05 -1.676701e-05 -8.560710e-09
4.288793e-05 -1.676809e-05 -2.996092e-08
4.287482e-05 -1.676263e-05 -8.843352e-09
4.287480e-05 -1.676363e-05 -3.091158e-08
4.286128e-05 -1.675808e-05 -9.105150e-09
4.286127e-05 -1.675900e-05 -3.179194e-08
4.284738e-05 -1.675339e-05 -9.346133e-09
4.284736e-05 -1.675424e-05 -3.260213e-08
4.283313e-05 -1.674857e-05 -9.566315e-09
4.283311e-05 -1.674934e-05 -3.334226e-08
4.281857e-05 -1.674362e-05 -9.765735e-09
4.281856e-05 -1.674431e-05 -3.401251e-08
4.280374e-05 -1.673857e-05 -9.944528e-09
4.280372e-05 -1.673918e-05 -3.461292e-08
4.279594e-05 -1.673602e-05 -8.657249e-09
4.278864e-05 -1.673396e-05 -3.514356e-08
4.277345e-05 -1.672822e-05 1.487460e-08
4.277335e-05 -1.672865e-05 -3.560464e-08
4.275789e-05 -1.672288e-05 -1.035727e-08
4.275787e-05 -1.672326e-05 -3.599623e-08
4.274231e-05 -1.671754e-05 1.518152e-08
4.274224e-05 -1.671782e-05 -3.631845e-08
4.272650e-05 -1.671210e-05 -1.053017e-08
4.272648e-05 -1.671233e-05 -3.657155e-08
4.271066e-05 -1.670665e-05 -1.058645e-08
4.271064e-05 -1.670680e-05 -3.675584e-08
4.269475e-05 -1.670117e-05 -1.062293e-08
4.269473e-05 -1.670125e-05 -3.687175e-08
4.267881e-05 -1.669568e-05 -1.064002e-08
4.267879e-05 -1.669568e-05 -3.691993e-08
4.266287e-05 -1.669017e-05 -1.063822e-08
4.266285e-05 -1.669010e-05 -3.690124e-08
4.264695e-05 -1.668467e-05 -1.061821e-08
4.264693e-05 -1.668453e-05 -3.681691e-08
4.263105e-05 -1.667916e-05 1.535509e-08
4.263106e-05 -1.667896e-05 -3.666860e-08
4.261529e-05 -1.667370e-05 -1.052713e-08
4.261527e-05 -1.667342e-05 -3.645843e-08
4.259960e-05 -1.666823e-05 -1.045835e-08
4.259958e-05 -1.666789e-05 -3.618921e-08
4.259198e-05 -1.666551e-05 -8.908683e-09
4.258401e-05 -1.666239e-05 -3.586415e-08
4.256860e-05 -1.665737e-05 -1.028141e-08
4.256858e-05 -1.665691e-05 -3.548702e-08
4.255333e-05 -1.665197e-05 -1.017572e-08
4.255331e-05 -1.665146e-05 -3.506196e-08
4.253824e-05 -1.664659e-05 -1.005971e-08
4.253822e-05 -1.664603e-05 -3.459283e-08
4.252333e-05 -1.664122e-05 -9.933652e-09
4.252332e-05 -1.664062e-05 -3.408297e-08
4.250864e-05 -1.663589e-05 -9.797185e-09
4.250862e-05 -1.663525e-05 -3.353523e-08
4.249416e-05 -1.663058e-05 -9.649669e-09
4.249414e-05 -1.662990e-05 -3.295207e-08
4.247992e-05 -1.662530e-05 -9.490635e-09
4.247990e-05 -1.662459e-05 -3.233612e-08
4.246593e-05 -1.662008e-05 -9.320094e-09
4.246591e-05 -1.661934e-05 -3.169060e-08
4.245221e-05 -1.661492e-05 -9.138671e-09
4.245220e-05 -1.661415e-05 -3.101926e-08
4.243878e-05 -1.660983e-05 -8.947479e-09
4.243876e-05 -1.660904e-05 -3.032607e-08
4.242564e-05 -1.660483e-05 -8.747865e-09
4.242563e-05 -1.660402e-05 -2.961483e-08
4.241281e-05 -1.659993e-05 -8.541209e-09
4.241280e-05 -1.659911e-05 -2.888894e-08
4.240030e-05 -1.659514e-05 -8.328855e-09
4.240029e-05 -1.659430e-05 -2.815112e-08
4.238811e-05 -1.659045e-05 -8.111879e-09
4.238810e-05 -1.658961e-05 -2.740354e-08
4.237611e-05 -1.658584e-05 1.136554e-08
4.237624e-05 -1.658504e-05 -2.664796e-08
4.236459e-05 -1.658140e-05 1.104217e-08
4.236472e-05 -1.658059e-05 -2.588553e-08
4.235354e-05 -1.657714e-05 -7.440465e-09
4.235353e-05 -1.657628e-05 -2.511709e-08
4.234255e-05 -1.657291e-05 1.038573e-08
4.234269e-05 -1.657209e-05 -2.434324e-08
4.233219e-05 -1.656891e-05 -6.981005e-09
4.233218e-05 -1.656804e-05 -2.356433e-08
4.232203e-05 -1.656500e-05 -6.748565e-09
4.232203e-05 -1.656412e-05 -2.278059e-08
4.231222e-05 -1.656122e-05 -6.514499e-09
4.231222e-05 -1.656033e-05 -2.199211e-08
4.230276e-05 -1.655758e-05 -6.278889e-09
4.230276e-05 -1.655669e-05 -2.119893e-08
4.229366e-05 -1.655408e-05 -6.041769e-09
4.229365e-05 -1.655318e-05 -2.040104e-08
4.228490e-05 -1.655071e-05 -5.803153e-09
4.228489e-05 -1.654981e-05 -1.959839e-08
4.227635e-05 -1.654743e-05 8.013051e-09
4.227650e-05 -1.654657e-05 -1.879096e-08
4.226846e-05 -1.654440e-05 -5.321478e-09
4.226845e-05 -1.654348e-05 -1.797863e-08
4.226078e-05 -1.654145e-05 -5.078440e-09
4.226077e-05 -1.654053e-05 -1.716130e-08
4.225330e-05 -1.653859e-05 6.963992e-09
4.225345e-05 -1.653772e-05 -1.633897e-08
4.224650e-05 -1.653599e-05 -4.587663e-09
4.224650e-05 -1.653506e-05 -1.551152e-08
4.223991e-05 -1.653347e-05 -4.339931e-09
4.223990e-05 -1.653254e-05 -1.467885e-08
4.223368e-05 -1.653110e-05 -4.090633e-09
4.223368e-05 -1.653016e-05 -1.384091e-08
4.222783e-05 -1.652887e-05 -3.839755e-09
4.222783e-05 -1.652792e-05 -1.299763e-08
4.222235e-05 -1.652679e-05 -3.587297e-09
4.222235e-05 -1.652584e-05 -1.214894e-08
4.221724e-05 -1.652485e-05 -3.333284e-09
4.221724e-05 -1.652389e-05 -1.129481e-08
4.221251e-05 -1.652307e-05 -3.077763e-09
4.221251e-05 -1.652210e-05 -1.043523e-08
4.220816e-05 -1.652142e-05 -2.820820e-09
4.220816e-05 -1.652045e-05 -9.570250e-09
4.220419e-05 -1.651993e-05 -2.562576e-09
4.220418e-05 -1.651895e-05 -8.699987e-09
4.220060e-05 -1.651859e-05 -2.303236e-09
4.220059e-05 -1.651760e-05 -7.824688e-09
4.219739e-05 -1.651739e-05 -2.043107e-09
4.219739e-05 -1.651640e-05 -6.944728e-09
4.219457e-05 -1.651633e-05 -1.782577e-09
4.219457e-05 -1.651534e-05 -6.060704e-09
4.219213e-05 -1.651542e-05 -1.522151e-09
4.219213e-05 -1.651443e-05 -5.173526e-09
4.219008e-05 -1.651465e-05 -1.262526e-09
4.219008e-05 -1.651366e-05 -4.284417e-09
4.218823e-05 -1.651396e-05 1.445819e-09
4.218840e-05 -1.651302e-05 -3.395060e-09
4.218694e-05 -1.651346e-05 1.074922e-09
4.218711e-05 -1.651252e-05 -2.507647e-09
4.218620e-05 -1.651314e-05 -4.982029e-10
4.218620e-05 -1.651215e-05 -1.624905e-09
4.218548e-05 -1.651281e-05 3.487627e-10
4.218565e-05 -1.651190e-05 -7.500566e-10
4.218546e-05 -1.651271e-05 -1.270680e-11
4.218546e-05 -1.651175e-05 1.133213e-10
4.218563e-05 -1.651265e-05 2.194513e-10
4.218563e-05 -1.651171e-05 9.616113e-10
4.218613e-05 -1.651267e-05 4.438375e-10
4.218613e-05 -1.651175e-05 1.791508e-09
4.218696e-05 -1.651276e-05 6.605987e-10
4.218696e-05 -1.651187e-05 2.600252e-09
4.218811e-05 -1.651293e-05 8.702644e-10
4.218811e-05 -1.651206e-05 3.385555e-09
4.218957e-05 -1.651316e-05 1.073403e-09
4.218957e-05 -1.651233e-05 4.145153e-09
4.219083e-05 -1.651330e-05 1.180861e-09
4.219132e-05 -1.651266e-05 4.876380e-09
4.219337e-05 -1.651383e-05 1.460496e-09
4.219337e-05 -1.651307e-05 5.576025e-09
4.219569e-05 -1.651427e-05 1.643290e-09
4.219569e-05 -1.651355e-05 6.240484e-09
4.219816e-05 -1.651475e-05 -2.710738e-09
4.219827e-05 -1.651411e-05 6.866119e-09
4.220111e-05 -1.651538e-05 1.981748e-09
4.220111e-05 -1.651475e-05 7.449609e-09
4.220419e-05 -1.651604e-05 2.134881e-09
4.220419e-05 -1.651546e-05 7.988103e-09
4.220748e-05 -1.651677e-05 2.275776e-09
4.220748e-05 -1.651625e-05 8.479291e-09
4.221097e-05 -1.651757e-05 2.403506e-09
4.221097e-05 -1.651710e-05 8.921358e-09
4.221465e-05 -1.651844e-05 2.517338e-09
4.221464e-05 -1.651803e-05 9.312961e-09
4.221848e-05 -1.651936e-05 2.616699e-09
4.221847e-05 -1.651900e-05 9.653109e-09
4.222244e-05 -1.652033e-05 2.701154e-09
4.222244e-05 -1.652003e-05 9.941109e-09
4.222652e-05 -1.652134e-05 2.770376e-09
4.222652e-05 -1.652110e-05 1.017650e-08
4.223069e-05 -1.652239e-05 2.824169e-09
4.223069e-05 -1.652221e-05 1.035895e-08
4.223493e-05 -1.652346e-05 2.862369e-09
4.223493e-05 -1.652334e-05 1.048825e-08
4.223922e-05 -1.652455e-05 2.884813e-09
4.223922e-05 -1.652449e-05 1.056431e-08
4.224353e-05 -1.652565e-05 2.891417e-09
4.224352e-05 -1.652565e-05 1.058701e-08
4.224783e-05 -1.652674e-05 2.882154e-09
4.224783e-05 -1.652681e-05 1.055629e-08
4.225211e-05 -1.652783e-05 2.856978e-09
4.225211e-05 -1.652795e-05 1.047211e-08
4.225638e-05 -1.652891e-05 -4.161653e-09
4.225635e-05 -1.652908e-05 1.033440e-08
4.226055e-05 -1.652996e-05 -4.079549e-09
4.226051e-05 -1.653018e-05 1.014309e-08
4.226457e-05 -1.653094e-05 2.685550e-09
4.226457e-05 -1.653124e-05 9.898081e-09
4.226858e-05 -1.653192e-05 -3.846183e-09
4.226852e-05 -1.653226e-05 9.599268e-09
4.227232e-05 -1.653279e-05 2.491037e-09
4.227232e-05 -1.653322e-05 9.246522e-09
4.227596e-05 -1.653363e-05 2.369638e-09
4.227596e-05 -1.653411e-05 8.839691e-09
4.227940e-05 -1.653438e-05 2.232148e-09
4.227940e-05 -1.653493e-05 8.378650e-09
4.228263e-05 -1.653505e-05 2.078639e-09
4.228263e-05 -1.653566e-05 7.863264e-09
4.228563e-05 -1.653563e-05 1.909207e-09
4.228562e-05 -1.653630e-05 7.293450e-09
4.228836e-05 -1.653611e-05 1.724014e-09
4.228836e-05 -1.653684e-05 6.669275e-09
4.229094e-05 -1.653653e-05 -2.301979e-09
4.229080e-05 -1.653726e-05 5.990924e-09
4.229294e-05 -1.653673e-05 1.307824e-09
4.229294e-05 -1.653758e-05 5.258868e-09
4.229475e-05 -1.653686e-05 1.078091e-09
4.229475e-05 -1.653776e-05 4.473989e-09
4.229638e-05 -1.653692e-05 -1.306376e-09
4.229621e-05 -1.653782e-05 3.637744e-09
4.229729e-05 -1.653674e-05 5.808391e-10
4.229729e-05 -1.653775e-05 2.752400e-09
4.229800e-05 -1.653649e-05 3.168747e-10
4.229800e-05 -1.653755e-05 1.821290e-09
4.229830e-05 -1.653612e-05 4.608380e-11
4.229830e-05 -1.653722e-05 8.491767e-10
4.229820e-05 -1.653564e-05 -2.280791e-10
4.229820e-05 -1.653678e-05 -1.574414e-10
4.229769e-05 -1.653507e-05 -5.013246e-10
4.229769e-05 -1.653623e-05 -1.189953e-09
4.229676e-05 -1.653443e-05 -7.686265e-10
4.229676e-05 -1.653560e-05 -2.237448e-09
4.229545e-05 -1.653374e-05 -1.024437e-09
4.229545e-05 -1.653491e-05 -3.286683e-09
4.229375e-05 -1.653306e-05 -1.263207e-09
4.229375e-05 -1.653421e-05 -4.322521e-09
4.229170e-05 -1.653241e-05 -1.480185e-09
4.229170e-05 -1.653351e-05 -5.328962e-09
4.228934e-05 -1.653184e-05 -1.672482e-09
4.228934e-05 -1.653288e-05 -6.290671e-09
4.228670e-05 -1.653138e-05 -1.839689e-09
4.228670e-05 -1.653235e-05 -7.194414e-09
4.228382e-05 -1.653105e-05 -1.983520e-09
4.228381e-05 -1.653194e-05 -8.029398e-09
4.228072e-05 -1.653088e-05 -2.106553e-09
4.228072e-05 -1.653168e-05 -8.785959e-09
4.227744e-05 -1.653086e-05 -2.210638e-09
4.227744e-05 -1.653155e-05 -9.453500e-09
4.227401e-05 -1.653098e-05 -2.295598e-09
4.227401e-05 -1.653155e-05 -1.001911e-08
4.227046e-05 -1.653122e-05 -2.358765e-09
4.227046e-05 -1.653165e-05 -1.046769e-08
4.226689e-05 -1.653160e-05 3.787536e-09
4.226682e-05 -1.653186e-05 -1.078338e-08
4.226318e-05 -1.653205e-05 3.813935e-09
4.226314e-05 -1.653214e-05 -1.095109e-08
4.225948e-05 -1.653260e-05 -2.367983e-09
4.225948e-05 -1.653251e-05 -1.095760e-08
4.225585e-05 -1.653324e-05 3.685533e-09
4.225589e-05 -1.653297e-05 -1.079192e-08
4.225244e-05 -1.653402e-05 -2.170967e-09
4.225244e-05 -1.653353e-05 -1.044536e-08
4.224921e-05 -1.653490e-05 -1.998333e-09
4.224921e-05 -1.653420e-05 -9.911314e-09
4.224611e-05 -1.653587e-05 2.955747e-09
4.224626e-05 -1.653500e-05 -9.184754e-09
4.224370e-05 -1.653712e-05 -1.489627e-09
4.224370e-05 -1.653598e-05 -8.261854e-09
4.224159e-05 -1.653851e-05 -1.148938e-09
4.224159e-05 -1.653714e-05 -7.139585e-09
4.223975e-05 -1.654003e-05 1.493319e-09
4.224002e-05 -1.653853e-05 -5.815249e-09
4.223910e-05 -1.654202e-05 -2.848178e-10
4.223909e-05 -1.654019e-05 -4.286014e-09
4.223890e-05 -1.654421e-05 2.428367e-10
4.223890e-05 -1.654215e-05 -2.548538e-09
4.223952e-05 -1.654675e-05 8.375718e-10
4.223952e-05 -1.654445e-05 -5.984905e-10
4.224107e-05 -1.654970e-05 1.502644e-09
4.224107e-05 -1.654715e-05 1.570003e-09
4.224365e-05 -1.655310e-05 2.242095e-09
4.224365e-05 -1.655029e-05 3.964878e-09
4.224737e-05 -1.655703e-05 3.060988e-09
4.224737e-05 -1.655394e-05 6.596815e-09
4.225236e-05 -1.656153e-05 3.965602e-09
4.225236e-05 -1.655816e-05 9.479924e-09
4.225873e-05 -1.656671e-05 4.963539e-09
4.225873e-05 -1.656302e-05 1.263249e-08
4.226663e-05 -1.657264e-05 6.063692e-09
4.226663e-05 -1.656861e-05 1.607784e-08
4.227622e-05 -1.657941e-05 7.276239e-09
4.227622e-05 -1.657500e-05 1.984498e-08
4.228766e-05 -1.658714e-05 8.612296e-09
4.228766e-05 -1.658231e-05 2.396906e-08
4.230115e-05 -1.659594e-05 1.008309e-08
4.230114e-05 -1.659063e-05 2.849161e-08
4.231687e-05 -1.660591e-05 1.169868e-08
4.231686e-05 -1.660008e-05 3.345977e-08
4.233506e-05 -1.661715e-05 1.346583e-08
4.233505e-05 -1.661073e-05 3.892454e-08
4.235594e-05 -1.662975e-05 1.538474e-08
4.235592e-05 -1.662269e-05 4.493704e-08
4.237972e-05 -1.664373e-05 1.744424e-08
4.237969e-05 -1.663598e-05 5.154215e-08
4.240661e-05 -1.665905e-05 1.961496e-08
4.240658e-05 -1.665058e-05 5.876805e-08
4.243676e-05 -1.667550e-05 2.184004e-08
4.243671e-05 -1.666636e-05 6.661035e-08
4.246829e-05 -1.669205e-05 -3.402726e-08
4.247014e-05 -1.668299e-05 7.500882e-08
4.250470e-05 -1.670931e-05 -3.722474e-08
4.250673e-05 -1.669993e-05 8.381417e-08
4.254619e-05 -1.672633e-05 2.759714e-08
4.254610e-05 -1.671625e-05 9.274366e-08
4.258517e-05 -1.673925e-05 -4.210040e-08
4.258744e-05 -1.673052e-05 1.013255e-07
4.262951e-05 -1.674871e-05 2.833406e-08
4.262938e-05 -1.674066e-05 1.088314e-07
4.266985e-05 -1.674931e-05 2.688733e-08
4.266970e-05 -1.674378e-05 1.141916e-07
4.270560e-05 -1.673539e-05 -3.910059e-08
4.270725e-05 -1.673666e-05 1.159781e-07
4.276373e-05 -1.666696e-05 -6.716433e-08
4.270045e-05 -1.663120e-05 5.654878e-08
4.272343e-05 -1.669544e-05 2.233177e-08
4.272727e-05 -1.669247e-05 -3.050432e-08
4.278200e-05 -1.667406e-05 6.158039e-08
4.270379e-05 -1.673657e-05 2.473089e-08
4.273543e-05 -1.672505e-05 -5.684855e-08
4.266805e-05 -1.674855e-05 -4.238980e-08
4.269947e-05 -1.674683e-05 -5.181618e-08
4.262716e-05 -1.674801e-05 -4.302940e-08
4.265853e-05 -1.675111e-05 -4.733261e-08
4.258755e-05 -1.674000e-05 2.848163e-08
4.261584e-05 -1.674540e-05 -4.304228e-08
4.253223e-05 -1.671855e-05 2.144927e-08
4.257330e-05 -1.673343e-05 -3.888411e-08
4.250681e-05 -1.671003e-05 2.601454e-08
4.253222e-05 -1.671791e-05 -3.483425e-08
4.247020e-05 -1.669272e-05 2.402314e-08
4.249359e-05 -1.670078e-05 -3.097485e-08
4.243504e-05 -1.667489e-05 -3.069769e-08
4.245800e-05 -1.668333e-05 -2.737221e-08
4.240509e-05 -1.665849e-05 -2.740736e-08
4.242570e-05 -1.666641e-05 -2.406105e-08
4.237836e-05 -1.664324e-05 -2.426061e-08
4.239673e-05 -1.665050e-05 -2.104806e-08
4.235473e-05 -1.662931e-05 -2.131406e-08
4.237100e-05 -1.663588e-05 -1.832146e-08
4.233398e-05 -1.661675e-05 -1.859212e-08
4.234834e-05 -1.662264e-05 -1.585959e-08
4.231590e-05 -1.660554e-05 -1.609877e-08
4.232852e-05 -1.661077e-05 -1.363634e-08
4.230026e-05 -1.659561e-05 -1.382586e-08
4.231132e-05 -1.660023e-05 -1.162497e-08
4.228686e-05 -1.658685e-05 -1.175893e-08
4.229650e-05 -1.659091e-05 -9.800355e-09
4.227549e-05 -1.657914e-05 -9.880935e-09
4.228386e-05 -1.658271e-05 -8.140099e-09
4.226596e-05 -1.657239e-05 -8.174593e-09
4.227319e-05 -1.657551e-05 -6.625042e-09
4.225703e-05 -1.656397e-05 2.094990e-09
4.226430e-05 -1.656921e-05 -5.239377e-09
4.225123e-05 -1.655914e-05 1.387711e-09
4.225703e-05 -1.656371e-05 -3.970325e-09
4.224686e-05 -1.655684e-05 -3.932895e-09
4.225123e-05 -1.655890e-05 -2.807619e-09
4.224318e-05 -1.655293e-05 -2.770769e-09
4.224677e-05 -1.655473e-05 -1.743437e-09
4.224064e-05 -1.654954e-05 -1.719190e-09
4.224351e-05 -1.655110e-05 -7.719815e-10
4.223913e-05 -1.654661e-05 -7.715941e-10
4.224134e-05 -1.654796e-05 1.111674e-10
4.223855e-05 -1.654408e-05 7.713988e-11
4.224015e-05 -1.654524e-05 9.092425e-10
4.223879e-05 -1.654190e-05 8.310435e-10
4.223984e-05 -1.654290e-05 1.624508e-09
4.224002e-05 -1.654013e-05 -7.480064e-10
4.224030e-05 -1.654089e-05 2.258564e-09
4.224135e-05 -1.653843e-05 2.066621e-09
4.224145e-05 -1.653916e-05 2.812551e-09
4.224350e-05 -1.653705e-05 2.553320e-09
4.224318e-05 -1.653768e-05 3.287323e-09
4.224627e-05 -1.653593e-05 -1.772044e-09
4.224542e-05 -1.653641e-05 3.683597e-09
4.224909e-05 -1.653486e-05 3.276450e-09
4.224808e-05 -1.653532e-05 4.002128e-09
4.225432e-05 -1.653361e-05 -3.046726e-09
4.225107e-05 -1.653439e-05 4.243889e-09
4.225589e-05 -1.653326e-05 -2.292942e-09
4.225432e-05 -1.653358e-05 4.410310e-09
4.225948e-05 -1.653260e-05 3.782156e-09
4.225774e-05 -1.653289e-05 4.503127e-09
4.226315e-05 -1.653204e-05 -2.400499e-09
4.226128e-05 -1.653230e-05 4.524773e-09
4.226682e-05 -1.653158e-05 -2.395570e-09
4.226486e-05 -1.653180e-05 4.478717e-09
4.227056e-05 -1.653125e-05 3.710330e-09
4.226843e-05 -1.653140e-05 4.369316e-09
4.227414e-05 -1.653102e-05 3.589832e-09
4.227195e-05 -1.653110e-05 4.201801e-09
4.227759e-05 -1.653091e-05 3.432705e-09
4.227537e-05 -1.653092e-05 3.982181e-09
4.228089e-05 -1.653094e-05 3.243516e-09
4.227866e-05 -1.653088e-05 3.716810e-09
4.228400e-05 -1.653111e-05 3.024010e-09
4.228179e-05 -1.653098e-05 3.411874e-09
4.228690e-05 -1.653144e-05 2.773554e-09
4.228474e-05 -1.653124e-05 3.073026e-09
4.228955e-05 -1.653191e-05 2.490659e-09
4.228748e-05 -1.653164e-05 2.705514e-09
4.229192e-05 -1.653248e-05 2.174874e-09
4.228996e-05 -1.653217e-05 2.314579e-09
4.229402e-05 -1.653340e-05 -9.219826e-10
4.229215e-05 -1.653279e-05 1.905987e-09
4.229553e-05 -1.653409e-05 -6.369317e-10
4.229402e-05 -1.653347e-05 1.486008e-09
4.229698e-05 -1.653450e-05 1.063668e-09
4.229553e-05 -1.653417e-05 1.060988e-09
4.229790e-05 -1.653514e-05 6.601845e-10
4.229667e-05 -1.653484e-05 6.369553e-10
4.229841e-05 -1.653571e-05 2.524585e-10
4.229740e-05 -1.653545e-05 2.192146e-10
4.229850e-05 -1.653619e-05 -1.529913e-10
4.229773e-05 -1.653598e-05 -1.879037e-10
4.229819e-05 -1.653655e-05 -5.506915e-10
4.229766e-05 -1.653640e-05 -5.810338e-10
4.229747e-05 -1.653680e-05 -9.362739e-10
4.229718e-05 -1.653671e-05 -9.576345e-10
4.229621e-05 -1.653686e-05 8.352580e-10
4.229631e-05 -1.653690e-05 -1.315880e-09
4.229491e-05 -1.653691e-05 -1.658483e-09
4.229506e-05 -1.653695e-05 -1.654522e-09
4.229309e-05 -1.653678e-05 -1.990777e-09
4.229346e-05 -1.653688e-05 -1.972723e-09
4.229080e-05 -1.653648e-05 1.523378e-09
4.229151e-05 -1.653669e-05 -2.269980e-09
4.228848e-05 -1.653616e-05 -2.591220e-09
4.228925e-05 -1.653637e-05 -2.545982e-09
4.228385e-05 -1.653537e-05 1.972220e-09
4.228669e-05 -1.653595e-05 -2.800613e-09
4.228077e-05 -1.653474e-05 2.104076e-09
4.228385e-05 -1.653541e-05 -3.033906e-09
4.227950e-05 -1.653442e-05 -3.322661e-09
4.228077e-05 -1.653478e-05 -3.245846e-09
4.227604e-05 -1.653366e-05 -3.520334e-09
4.227746e-05 -1.653406e-05 -3.436404e-09
4.227240e-05 -1.653282e-05 -3.694836e-09
4.227394e-05 -1.653326e-05 -3.605713e-09
4.226852e-05 -1.653190e-05 2.596334e-09
4.227025e-05 -1.653239e-05 -3.753884e-09
4.226463e-05 -1.653096e-05 -3.974407e-09
4.226640e-05 -1.653145e-05 -3.880963e-09
4.226051e-05 -1.652994e-05 2.758708e-09
4.226242e-05 -1.653047e-05 -3.987015e-09
4.225635e-05 -1.652890e-05 2.815840e-09
4.225833e-05 -1.652944e-05 -4.072093e-09
4.225214e-05 -1.652784e-05 -4.220768e-09
4.225416e-05 -1.652838e-05 -4.136236e-09
4.224785e-05 -1.652675e-05 -4.256935e-09
4.224993e-05 -1.652730e-05 -4.179475e-09
4.224353e-05 -1.652565e-05 -4.270194e-09
4.224567e-05 -1.652620e-05 -4.201831e-09
4.223921e-05 -1.652455e-05 -4.260608e-09
4.224139e-05 -1.652509e-05 -4.203293e-09
4.223288e-05 -1.652292e-05 2.662378e-09
4.223712e-05 -1.652399e-05 -4.183904e-09
4.222870e-05 -1.652186e-05 2.624227e-09
4.223288e-05 -1.652291e-05 -4.143757e-09
4.222648e-05 -1.652132e-05 -4.095598e-09
4.222870e-05 -1.652184e-05 -4.082788e-09
4.222239e-05 -1.652031e-05 -3.995614e-09
4.222460e-05 -1.652081e-05 -4.000945e-09
4.221842e-05 -1.651933e-05 -3.873549e-09
4.222060e-05 -1.651981e-05 -3.898381e-09
4.221458e-05 -1.651841e-05 -3.729777e-09
4.221673e-05 -1.651886e-05 -3.775238e-09
4.221090e-05 -1.651754e-05 -3.564822e-09
4.221301e-05 -1.651796e-05 -3.631654e-09
4.220739e-05 -1.651674e-05 -3.379392e-09
4.220945e-05 -1.651712e-05 -3.467880e-09
4.220409e-05 -1.651600e-05 -3.174415e-09
4.220608e-05 -1.651635e-05 -3.284298e-09
4.220101e-05 -1.651534e-05 -2.951060e-09
4.220292e-05 -1.651565e-05 -3.081427e-09
4.219828e-05 -1.651479e-05 1.817470e-09
4.219999e-05 -1.651502e-05 -2.859977e-09
4.219556e-05 -1.651423e-05 -2.455080e-09
4.219730e-05 -1.651447e-05 -2.620856e-09
4.219323e-05 -1.651378e-05 -2.185830e-09
4.219487e-05 -1.651399e-05 -2.365190e-09
4.219271e-05 -1.651358e-05 -2.094319e-09
4.219132e-05 -1.651346e-05 1.270256e-09
4.218924e-05 -1.651303e-05 9.889019e-10
4.219083e-05 -1.651324e-05 -1.809718e-09
4.218796e-05 -1.651287e-05 -1.311088e-09
4.218924e-05 -1.651297e-05 -1.512787e-09
4.218681e-05 -1.651271e-05 -9.994750e-10
4.218795e-05 -1.651277e-05 -1.204868e-09
4.218597e-05 -1.651261e-05 -6.777132e-10
4.218697e-05 -1.651264e-05 -8.872469e-10
4.218546e-05 -1.651259e-05 -3.455276e-10
4.218631e-05 -1.651258e-05 -5.611123e-10
4.218530e-05 -1.651265e-05 -3.093454e-12
4.218599e-05 -1.651260e-05 -2.277083e-10
4.218565e-05 -1.651287e-05 -2.522262e-10
4.218600e-05 -1.651270e-05 1.115936e-10
4.218603e-05 -1.651308e-05 7.086631e-10
4.218637e-05 -1.651291e-05 4.553200e-10
4.218711e-05 -1.651352e-05 -7.494221e-10
4.218710e-05 -1.651323e-05 8.020542e-10
4.218841e-05 -1.651402e-05 -1.004599e-09
4.218821e-05 -1.651367e-05 1.150519e-09
4.218990e-05 -1.651459e-05 1.819768e-09
4.218969e-05 -1.651424e-05 1.499621e-09
4.219196e-05 -1.651536e-05 2.195402e-09
4.219155e-05 -1.651494e-05 1.848494e-09
4.219642e-05 -1.651683e-05 -1.591546e-09
4.219379e-05 -1.651578e-05 2.196471e-09
4.219943e-05 -1.651795e-05 -1.806954e-09
4.219642e-05 -1.651676e-05 2.543149e-09
4.220043e-05 -1.651852e-05 3.322538e-09
4.219943e-05 -1.651788e-05 2.888159e-09
4.220402e-05 -1.651987e-05 3.696112e-09
4.220282e-05 -1.651916e-05 3.231209e-09
4.220799e-05 -1.652137e-05 4.067923e-09
4.220660e-05 -1.652058e-05 3.572195e-09
4.221235e-05 -1.652301e-05 4.437746e-09
4.221076e-05 -1.652214e-05 3.911076e-09
4.221708e-05 -1.652480e-05 4.805432e-09
4.221530e-05 -1.652386e-05 4.247793e-09
4.222219e-05 -1.652673e-05 5.170889e-09
4.222022e-05 -1.652572e-05 4.582346e-09
4.222767e-05 -1.652881e-05 5.534075e-09
4.222551e-05 -1.652773e-05 4.914742e-09
4.223353e-05 -1.653104e-05 5.894968e-09
4.223117e-05 -1.652989e-05 5.245004e-09
4.223975e-05 -1.653341e-05 6.253575e-09
4.223721e-05 -1.653219e-05 5.573163e-09
4.224634e-05 -1.653593e-05 6.609911e-09
4.224361e-05 -1.653463e-05 5.899254e-09
4.225346e-05 -1.653865e-05 -4.833840e-09
4.225038e-05 -1.653722e-05 6.223256e-09
4.226502e-05 -1.654289e-05 -4.284357e-09
4.225752e-05 -1.653995e-05 6.545246e-09
4.226830e-05 -1.654434e-05 7.665522e-09
4.226502e-05 -1.654283e-05 6.865404e-09
4.227650e-05 -1.654748e-05 -5.563042e-09
4.227288e-05 -1.654584e-05 7.183654e-09
4.228475e-05 -1.655065e-05 8.358437e-09
4.228110e-05 -1.654900e-05 7.499861e-09
4.229350e-05 -1.655402e-05 8.701711e-09
4.228967e-05 -1.655230e-05 7.814189e-09
4.230261e-05 -1.655752e-05 9.042878e-09
4.229860e-05 -1.655573e-05 8.126741e-09
4.231208e-05 -1.656117e-05 9.381926e-09
4.230788e-05 -1.655931e-05 8.437485e-09
4.232189e-05 -1.656494e-05 9.718813e-09
4.231752e-05 -1.656302e-05 8.746451e-09
4.233205e-05 -1.656886e-05 1.005346e-08
4.232750e-05 -1.656686e-05 9.053650e-09
4.234270e-05 -1.657296e-05 -7.211701e-09
4.233783e-05 -1.657085e-05 9.359083e-09
4.235340e-05 -1.657709e-05 1.071541e-08
4.234850e-05 -1.657496e-05 9.662722e-09
4.236473e-05 -1.658145e-05 -7.667040e-09
4.235951e-05 -1.657921e-05 9.964491e-09
4.237625e-05 -1.658589e-05 -7.891041e-09
4.237087e-05 -1.658358e-05 1.026419e-08
4.239458e-05 -1.659277e-05 -6.774307e-09
4.238256e-05 -1.658809e-05 1.056167e-08
4.240692e-05 -1.659751e-05 -6.957973e-09
4.239458e-05 -1.659271e-05 1.085685e-08
4.241267e-05 -1.659988e-05 1.230787e-08
4.240692e-05 -1.659745e-05 1.114906e-08
4.242550e-05 -1.660478e-05 1.260900e-08
4.241959e-05 -1.660230e-05 1.143740e-08
4.243864e-05 -1.660978e-05 1.290112e-08
4.243257e-05 -1.660726e-05 1.172122e-08
4.245208e-05 -1.661487e-05 1.318239e-08
4.244584e-05 -1.661231e-05 1.199951e-08
4.246580e-05 -1.662003e-05 1.345093e-08
4.245941e-05 -1.661743e-05 1.227085e-08
4.247979e-05 -1.662526e-05 1.370512e-08
4.247326e-05 -1.662263e-05 1.253371e-08
4.249404e-05 -1.663053e-05 1.394386e-08
4.248736e-05 -1.662788e-05 1.278651e-08
4.250852e-05 -1.663585e-05 1.416674e-08
4.250170e-05 -1.663318e-05 1.302770e-08
4.252323e-05 -1.664119e-05 1.437392e-08
4.251628e-05 -1.663851e-05 1.325586e-08
4.253814e-05 -1.664655e-05 1.456575e-08
4.253106e-05 -1.664386e-05 1.346966e-08
4.255324e-05 -1.665193e-05 1.474225e-08
4.254603e-05 -1.664924e-05 1.366768e-08
4.257651e-05 -1.666008e-05 -8.815415e-09
4.256119e-05 -1.665463e-05 1.384855e-08
4.257651e-05 -1.666005e-05 1.401097e-08
4.258403e-05 -1.666279e-05 -1.037597e-08
4.259954e-05 -1.666821e-05 1.517068e-08
4.259198e-05 -1.666548e-05 1.415306e-08
4.261524e-05 -1.667368e-05 1.527423e-08
4.260758e-05 -1.667094e-05 1.427300e-08
4.263108e-05 -1.667918e-05 -1.058084e-08
4.262329e-05 -1.667642e-05 1.436977e-08
4.264693e-05 -1.668466e-05 1.541163e-08
4.263909e-05 -1.668191e-05 1.444238e-08
4.266286e-05 -1.669017e-05 1.544250e-08
4.265495e-05 -1.668741e-05 1.448990e-08
4.267881e-05 -1.669568e-05 1.544660e-08
4.267085e-05 -1.669292e-05 1.451166e-08
4.269477e-05 -1.670118e-05 1.542311e-08
4.268676e-05 -1.669843e-05 1.450721e-08
4.271069e-05 -1.670666e-05 1.537139e-08
4.270265e-05 -1.670392e-05 1.447621e-08
4.272655e-05 -1.671212e-05 1.529097e-08
4.271849e-05 -1.670940e-05 1.441841e-08
4.274226e-05 -1.671752e-05 -1.045384e-08
4.273426e-05 -1.671484e-05 1.433367e-08
4.275796e-05 -1.672291e-05 1.504278e-08
4.274991e-05 -1.672024e-05 1.422186e-08
4.277337e-05 -1.672819e-05 -1.024030e-08
4.276544e-05 -1.672558e-05 1.408283e-08
4.278079e-05 -1.673086e-05 1.391662e-08
4.278866e-05 -1.673342e-05 -1.010275e-08
4.281087e-05 -1.674112e-05 -8.519770e-09
4.279594e-05 -1.673606e-05 1.372346e-08
4.281870e-05 -1.674367e-05 1.419229e-08
4.281086e-05 -1.674117e-05 1.350304e-08
4.283327e-05 -1.674862e-05 1.390534e-08
4.282553e-05 -1.674618e-05 1.325504e-08
4.284753e-05 -1.675345e-05 1.358855e-08
4.283989e-05 -1.675107e-05 1.297971e-08
4.286145e-05 -1.675814e-05 1.324188e-08
4.285394e-05 -1.675583e-05 1.267712e-08
4.287499e-05 -1.676269e-05 1.286525e-08
4.286763e-05 -1.676046e-05 1.234711e-08
4.288814e-05 -1.676708e-05 1.245863e-08
4.288092e-05 -1.676493e-05 1.198962e-08
4.290085e-05 -1.677130e-05 1.202195e-08
4.289380e-05 -1.676924e-05 1.160460e-08
4.291309e-05 -1.677533e-05 1.155521e-08
4.290623e-05 -1.677337e-05 1.119196e-08
4.292483e-05 -1.677917e-05 1.105837e-08
4.291818e-05 -1.677731e-05 1.075164e-08
4.293604e-05 -1.678281e-05 1.053147e-08
4.292961e-05 -1.678105e-05 1.028356e-08
4.294669e-05 -1.678622e-05 9.974632e-09
4.294049e-05 -1.678458e-05 9.787596e-09
4.296048e-05 -1.679082e-05 -5.535524e-09
4.295079e-05 -1.678788e-05 9.263785e-09
4.296953e-05 -1.679363e-05 -5.173779e-09
4.296048e-05 -1.679094e-05 8.712274e-09
4.297494e-05 -1.679502e-05 8.127218e-09
4.296953e-05 -1.679375e-05 8.132917e-09
4.298271e-05 -1.679733e-05 -5.086395e-09
4.297791e-05 -1.679631e-05 7.525730e-09
4.299039e-05 -1.679960e-05 6.754874e-09
4.298559e-05 -1.679860e-05 6.891242e-09
4.299702e-05 -1.680148e-05 6.030408e-09
4.299254e-05 -1.680062e-05 6.230051e-09
4.300253e-05 -1.680296e-05 -3.586643e-09
4.299874e-05 -1.680236e-05 5.542959e-09
4.300795e-05 -1.680442e-05 4.517090e-09
4.300416e-05 -1.680383e-05 4.831258e-09
4.301221e-05 -1.680548e-05 3.735534e-09
4.300878e-05 -1.680502e-05 4.096780e-09
4.301566e-05 -1.680629e-05 2.943750e-09
4.301260e-05 -1.680596e-05 3.342028e-09
4.301828e-05 -1.680687e-05 2.147530e-09
4.301560e-05 -1.680664e-05 2.570263e-09
4.302007e-05 -1.680722e-05 1.353086e-09
4.301778e-05 -1.680710e-05 1.785555e-09
4.302065e-05 -1.680725e-05 -3.766486e-10
4.301915e-05 -1.680735e-05 9.926734e-10
4.301951e-05 -1.680722e-05 3.861261e-10
4.301972e-05 -1.680743e-05 1.968677e-10
4.302022e-05 -1.680713e-05 6.455688e-10
4.301951e-05 -1.680737e-05 -5.966655e-10
4.301885e-05 -1.680689e-05 1.139126e-09
4.301853e-05 -1.680718e-05 -1.383102e-09
4.301712e-05 -1.680668e-05 -2.443354e-09
4.301680e-05 -1.680688e-05 -2.157944e-09
4.301426e-05 -1.680623e-05 -3.161094e-09
4.301434e-05 -1.680648e-05 -2.916880e-09
4.301066e-05 -1.680565e-05 -3.864796e-09
4.301116e-05 -1.680597e-05 -3.655390e-09
4.300636e-05 -1.680495e-05 -4.551183e-09
4.300727e-05 -1.680534e-05 -4.368447e-09
4.300136e-05 -1.680409e-05 -5.215056e-09
4.300268e-05 -1.680456e-05 -5.050779e-09
4.299568e-05 -1.680307e-05 -5.850309e-09
4.299742e-05 -1.680363e-05 -5.697322e-09
4.298937e-05 -1.680188e-05 -6.450846e-09
4.299150e-05 -1.680252e-05 -6.303566e-09
4.298246e-05 -1.680051e-05 -7.011166e-09
4.298497e-05 -1.680124e-05 -6.865782e-09
4.297499e-05 -1.679896e-05 -7.526628e-09
4.297787e-05 -1.679978e-05 -7.381031e-09
4.296701e-05 -1.679725e-05 -7.993505e-09
4.297023e-05 -1.679815e-05 -7.847112e-09
4.295857e-05 -1.679538e-05 -8.408929e-09
4.296211e-05 -1.679636e-05 -8.262391e-09
4.294464e-05 -1.679227e-05 5.771634e-09
4.295356e-05 -1.679441e-05 -8.625849e-09
4.293541e-05 -1.679008e-05 5.933135e-09
4.294464e-05 -1.679233e-05 -8.936977e-09
4.293107e-05 -1.678898e-05 -9.328177e-09
4.293540e-05 -1.679013e-05 -9.195212e-09
4.292137e-05 -1.678665e-05 -9.521865e-09
4.292591e-05 -1.678784e-05 -9.400111e-09
4.291144e-05 -1.678424e-05 6.522301e-09
4.291621e-05 -1.678547e-05 -9.551779e-09
4.290151e-05 -1.678182e-05 -9.736972e-09
4.290638e-05 -1.678304e-05 -9.650296e-09
4.289148e-05 -1.677936e-05 -9.757971e-09
4.289646e-05 -1.678059e-05 -9.695657e-09
4.288149e-05 -1.677692e-05 6.565947e-09
4.288653e-05 -1.677813e-05 -9.687935e-09
4.287152e-05 -1.677448e-05 -9.626494e-09
4.287664e-05 -1.677568e-05 -9.627225e-09
4.286170e-05 -1.677211e-05 -9.474009e-09
4.286685e-05 -1.677328e-05 -9.513607e-09
4.285208e-05 -1.676981e-05 -9.263714e-09
4.285722e-05 -1.677094e-05 -9.347159e-09
4.284271e-05 -1.676762e-05 -8.995612e-09
4.284782e-05 -1.676868e-05 -9.127923e-09
4.283365e-05 -1.676554e-05 -8.669732e-09
4.283869e-05 -1.676654e-05 -8.855884e-09
4.282991e-05 -1.676453e-05 -8.531117e-09
4.282515e-05 -1.676368e-05 5.568746e-09
4.281362e-05 -1.676110e-05 5.016783e-09
4.282153e-05 -1.676268e-05 -8.153761e-09
4.280918e-05 -1.676037e-05 4.915029e-09
4.281362e-05 -1.676101e-05 -7.723586e-09
4.280200e-05 -1.675903e-05 4.528180e-09
4.280622e-05 -1.675954e-05 -7.240389e-09
4.279514e-05 -1.675782e-05 -6.174504e-09
4.279941e-05 -1.675831e-05 -6.704301e-09
4.278921e-05 -1.675697e-05 -5.502965e-09
4.279324e-05 -1.675732e-05 -6.115314e-09
4.278401e-05 -1.675640e-05 -4.774608e-09
4.278776e-05 -1.675660e-05 -5.473354e-09
4.277960e-05 -1.675614e-05 -3.990139e-09
4.278305e-05 -1.675618e-05 -4.778465e-09
4.277603e-05 -1.675620e-05 -3.150625e-09
4.277915e-05 -1.675607e-05 -4.030807e-09
4.277336e-05 -1.675659e-05 -2.257643e-09
4.277612e-05 -1.675630e-05 -3.230725e-09
4.277164e-05 -1.675734e-05 -1.313428e-09
4.277402e-05 -1.675686e-05 -2.378838e-09
4.277093e-05 -1.675844e-05 -3.210733e-10
4.277290e-05 -1.675779e-05 -1.476143e-09
4.277127e-05 -1.675992e-05 7.152580e-10
4.277280e-05 -1.675908e-05 -5.242002e-10
4.277584e-05 -1.676296e-05 -7.788578e-10
4.277377e-05 -1.676073e-05 4.747284e-10
4.277905e-05 -1.676533e-05 -1.468990e-09
4.277584e-05 -1.676275e-05 1.517582e-09
4.277897e-05 -1.676647e-05 4.027907e-09
4.277905e-05 -1.676512e-05 2.600249e-09
4.278385e-05 -1.676932e-05 5.173942e-09
4.278341e-05 -1.676781e-05 3.717310e-09
4.278991e-05 -1.677245e-05 6.326210e-09
4.278894e-05 -1.677081e-05 4.862331e-09
4.279715e-05 -1.677583e-05 7.477062e-09
4.279564e-05 -1.677407e-05 6.028090e-09
4.280615e-05 -1.677963e-05 -6.012879e-09
4.280349e-05 -1.677757e-05 7.206971e-09
4.281513e-05 -1.678320e-05 9.758079e-09
4.281249e-05 -1.678126e-05 8.391678e-09
4.282585e-05 -1.678714e-05 1.088777e-08
4.282263e-05 -1.678512e-05 9.575570e-09
4.283830e-05 -1.679147e-05 -8.264245e-09
4.283389e-05 -1.678916e-05 1.075244e-08
4.285072e-05 -1.679558e-05 1.313177e-08
4.284629e-05 -1.679337e-05 1.191593e-08
4.286488e-05 -1.680011e-05 1.424304e-08
4.285982e-05 -1.679778e-05 1.305909e-08
4.288017e-05 -1.680488e-05 1.533970e-08
4.287447e-05 -1.680242e-05 1.417434e-08
4.289658e-05 -1.680994e-05 1.641324e-08
4.289024e-05 -1.680733e-05 1.525397e-08
4.292507e-05 -1.681823e-05 -1.099327e-08
4.290711e-05 -1.681253e-05 1.629101e-08
4.293314e-05 -1.682113e-05 -1.261488e-08
4.292506e-05 -1.681804e-05 1.727981e-08
4.295229e-05 -1.682696e-05 1.940734e-08
4.294405e-05 -1.682387e-05 1.821515e-08
4.297326e-05 -1.683343e-05 -1.388546e-08
4.296404e-05 -1.683003e-05 1.909278e-08
4.299473e-05 -1.684006e-05 -1.446332e-08
4.298496e-05 -1.683652e-05 1.991017e-08
4.301672e-05 -1.684688e-05 2.191785e-08
4.300678e-05 -1.684332e-05 2.066546e-08
4.303986e-05 -1.685412e-05 2.262658e-08
4.302941e-05 -1.685042e-05 2.135708e-08
4.306372e-05 -1.686164e-05 2.326715e-08
4.305280e-05 -1.685781e-05 2.198405e-08
4.308823e-05 -1.686940e-05 2.383812e-08
4.307687e-05 -1.686545e-05 2.254576e-08
4.311333e-05 -1.687738e-05 2.433845e-08
4.310156e-05 -1.687333e-05 2.304179e-08
4.313892e-05 -1.688556e-05 2.476747e-08
4.312679e-05 -1.688142e-05 2.347190e-08
4.316495e-05 -1.689391e-05 2.512469e-08
4.315249e-05 -1.688969e-05 2.383591e-08
4.319134e-05 -1.690240e-05 2.540975e-08
4.317858e-05 -1.689812e-05 2.413369e-08
4.321801e-05 -1.691100e-05 2.562243e-08
4.320499e-05 -1.690667e-05 2.436499e-08
4.325849e-05 -1.692405e-05 -1.561008e-08
4.323165e-05 -1.691532e-05 2.452988e-08
4.328540e-05 -1.693279e-05 -1.563007e-08
4.325848e-05 -1.692404e-05 2.462873e-08
4.329894e-05 -1.693717e-05 2.582458e-08
4.328540e-05 -1.693279e-05 2.466095e-08
4.332598e-05 -1.694591e-05 2.574610e-08
4.331233e-05 -1.694155e-05 2.462583e-08
4.335291e-05 -1.695462e-05 2.559449e-08
4.333920e-05 -1.695028e-05 2.452371e-08
4.337967e-05 -1.696325e-05 2.536958e-08
4.336593e-05 -1.695896e-05 2.435458e-08
4.340601e-05 -1.697173e-05 -1.718106e-08
4.339244e-05 -1.696755e-05 2.411804e-08
4.343233e-05 -1.698019e-05 2.469926e-08
4.341866e-05 -1.697603e-05 2.381383e-08
4.345808e-05 -1.698843e-05 2.425370e-08
4.344450e-05 -1.698436e-05 2.344172e-08
4.348309e-05 -1.699639e-05 -1.625227e-08
4.346989e-05 -1.699251e-05 2.300147e-08
4.350802e-05 -1.700430e-05 2.314204e-08
4.349475e-05 -1.700046e-05 2.249286e-08
4.353206e-05 -1.701188e-05 2.247653e-08
4.351900e-05 -1.700816e-05 2.191574e-08
4.355537e-05 -1.701917e-05 2.173885e-08
4.354255e-05 -1.701561e-05 2.126994e-08
4.358730e-05 -1.702943e-05 -1.258220e-08
4.356534e-05 -1.702276e-05 2.055574e-08
4.360833e-05 -1.703592e-05 -1.204886e-08
4.358729e-05 -1.702959e-05 1.977388e-08
4.362016e-05 -1.703915e-05 1.910833e-08
4.360832e-05 -1.703609e-05 1.892466e-08
4.363933e-05 -1.704494e-05 -1.235672e-08
4.362837e-05 -1.704223e-05 1.800898e-08
4.365836e-05 -1.705069e-05 1.703715e-08
4.364736e-05 -1.704800e-05 1.702924e-08
4.367524e-05 -1.705572e-05 -1.086258e-08
4.366523e-05 -1.705340e-05 1.598842e-08
4.369143e-05 -1.706056e-05 -1.007298e-08
4.368195e-05 -1.705843e-05 1.489036e-08
4.370697e-05 -1.706526e-05 1.357116e-08
4.369745e-05 -1.706310e-05 1.374030e-08
4.372068e-05 -1.706944e-05 1.235554e-08
4.371172e-05 -1.706743e-05 1.254485e-08
4.373312e-05 -1.707333e-05 1.112600e-08
4.372472e-05 -1.707146e-05 1.131183e-08
4.374426e-05 -1.707696e-05 9.889933e-09
4.373646e-05 -1.707521e-05 1.004979e-08
4.375412e-05 -1.708037e-05 8.651115e-09
4.374693e-05 -1.707872e-05 8.767282e-09
4.376269e-05 -1.708357e-05 7.409687e-09
4.375612e-05 -1.708203e-05 7.472263e-09
4.376997e-05 -1.708657e-05 6.163956e-09
4.376405e-05 -1.708513e-05 6.171941e-09
4.377604e-05 -1.709046e-05 -2.140664e-09
4.377069e-05 -1.708803e-05 4.873451e-09
4.378010e-05 -1.709286e-05 -1.315975e-09
4.377604e-05 -1.709069e-05 3.584406e-09
4.378395e-05 -1.709413e-05 2.406711e-09
4.378010e-05 -1.709309e-05 2.313020e-09
4.378598e-05 -1.709605e-05 1.166404e-09
4.378286e-05 -1.709519e-05 1.068031e-09
4.378671e-05 -1.709762e-05 -5.227129e-11
4.378431e-05 -1.709694e-05 -1.421382e-10
4.378616e-05 -1.709880e-05 -1.239427e-09
4.378449e-05 -1.709832e-05 -1.310228e-09
4.378386e-05 -1.709940e-05 1.467280e-09
4.378341e-05 -1.709930e-05 -2.430283e-09
4.378139e-05 -1.709996e-05 -3.485418e-09
4.378112e-05 -1.709988e-05 -3.497644e-09
4.377726e-05 -1.709994e-05 -4.531115e-09
4.377767e-05 -1.710006e-05 -4.508848e-09
4.377162e-05 -1.709937e-05 3.626825e-09
4.377310e-05 -1.709984e-05 -5.461425e-09
4.376582e-05 -1.709874e-05 -6.445566e-09
4.376749e-05 -1.709924e-05 -6.353700e-09
4.375864e-05 -1.709759e-05 -7.308741e-09
4.376089e-05 -1.709826e-05 -7.184584e-09
4.375057e-05 -1.709610e-05 -8.106836e-09
4.375336e-05 -1.709694e-05 -7.953426e-09
4.374169e-05 -1.709430e-05 -8.838795e-09
4.374499e-05 -1.709528e-05 -8.659819e-09
4.372599e-05 -1.709099e-05 6.394881e-09
4.373585e-05 -1.709333e-05 -9.303673e-09
4.371550e-05 -1.708853e-05 6.718477e-09
4.372599e-05 -1.709110e-05 -9.885201e-09
4.371087e-05 -1.708727e-05 -1.063272e-08
4.371550e-05 -1.708862e-05 -1.040431e-08
4.369945e-05 -1.708448e-05 -1.109595e-08
4.370445e-05 -1.708593e-05 -1.086086e-08
4.368741e-05 -1.708144e-05 7.768495e-09
4.369290e-05 -1.708303e-05 -1.125518e-08
4.367532e-05 -1.707838e-05 -1.182020e-08
4.368094e-05 -1.707998e-05 -1.158749e-08
4.366265e-05 -1.707510e-05 8.178002e-09
4.366863e-05 -1.707679e-05 -1.185786e-08
4.364988e-05 -1.707178e-05 8.312672e-09
4.365605e-05 -1.707349e-05 -1.206639e-08
4.363698e-05 -1.706840e-05 -1.240197e-08
4.364327e-05 -1.707011e-05 -1.221317e-08
4.362392e-05 -1.706496e-05 -1.246162e-08
4.363036e-05 -1.706669e-05 -1.229829e-08
4.361084e-05 -1.706152e-05 -1.245425e-08
4.361739e-05 -1.706324e-05 -1.232179e-08
4.359780e-05 -1.705809e-05 -1.237993e-08
4.360443e-05 -1.705979e-05 -1.228372e-08
4.358488e-05 -1.705471e-05 -1.223878e-08
4.359156e-05 -1.705638e-05 -1.218402e-08
4.356635e-05 -1.704982e-05 7.588775e-09
4.357884e-05 -1.705303e-05 -1.202280e-08
4.355415e-05 -1.704669e-05 7.411169e-09
4.356634e-05 -1.704977e-05 -1.180031e-08
4.354756e-05 -1.704513e-05 -1.141660e-08
4.355415e-05 -1.704662e-05 -1.151636e-08
4.353582e-05 -1.704220e-05 -1.101097e-08
4.354232e-05 -1.704362e-05 -1.117080e-08
4.352455e-05 -1.703946e-05 -1.054087e-08
4.353092e-05 -1.704078e-05 -1.076409e-08
4.351382e-05 -1.703691e-05 -1.000760e-08
4.352002e-05 -1.703812e-05 -1.029665e-08
4.350368e-05 -1.703458e-05 -9.413029e-09
4.350969e-05 -1.703568e-05 -9.768973e-09
4.349451e-05 -1.703259e-05 5.882737e-09
4.349999e-05 -1.703346e-05 -9.181930e-09
4.348546e-05 -1.703063e-05 -8.051140e-09
4.349098e-05 -1.703148e-05 -8.536856e-09
4.347749e-05 -1.702903e-05 -7.291738e-09
4.348272e-05 -1.702975e-05 -7.835665e-09
4.347072e-05 -1.702782e-05 4.327720e-09
4.347525e-05 -1.702828e-05 -7.081006e-09
4.346405e-05 -1.702658e-05 -5.643822e-09
4.346862e-05 -1.702706e-05 -6.276405e-09
4.345867e-05 -1.702571e-05 -4.769283e-09
4.346287e-05 -1.702608e-05 -5.426351e-09
4.345421e-05 -1.702507e-05 -3.870885e-09
4.345803e-05 -1.702533e-05 -4.536232e-09
4.345112e-05 -1.702460e-05 1.757680e-09
4.345410e-05 -1.702479e-05 -3.612208e-09
4.344908e-05 -1.702441e-05 1.120388e-09
4.345112e-05 -1.702442e-05 -2.660638e-09
4.344655e-05 -1.702421e-05 -1.083361e-09
4.344908e-05 -1.702423e-05 -1.687428e-09
4.344594e-05 -1.702424e-05 -1.278680e-10
4.344800e-05 -1.702418e-05 -6.980599e-10
4.344632e-05 -1.702444e-05 8.423929e-10
4.344790e-05 -1.702429e-05 3.022480e-10
4.344819e-05 -1.702500e-05 -1.238354e-09
4.344878e-05 -1.702458e-05 1.308218e-09
4.345013e-05 -1.702543e-05 2.823771e-09
4.345067e-05 -1.702506e-05 2.314046e-09
4.345407e-05 -1.702646e-05 -2.587577e-09
4.345359e-05 -1.702579e-05 3.313471e-09
4.345857e-05 -1.702760e-05 -3.268904e-09
4.345754e-05 -1.702678e-05 4.300266e-09
4.346367e-05 -1.702888e-05 5.821162e-09
4.346253e-05 -1.702806e-05 5.268769e-09
4.347027e-05 -1.703066e-05 6.798947e-09
4.346856e-05 -1.702967e-05 6.214182e-09
4.347790e-05 -1.703278e-05 7.755436e-09
4.347562e-05 -1.703162e-05 7.132683e-09
4.348652e-05 -1.703525e-05 8.685798e-09
4.348368e-05 -1.703391e-05 8.021366e-09
4.349611e-05 -1.703807e-05 9.586266e-09
4.349273e-05 -1.703656e-05 8.878046e-09
4.351365e-05 -1.704304e-05 -6.676480e-09
4.350273e-05 -1.703955e-05 9.701304e-09
4.352545e-05 -1.704671e-05 -7.147768e-09
4.351365e-05 -1.704289e-05 1.049040e-08
4.353036e-05 -1.704858e-05 1.208390e-08
4.352545e-05 -1.704657e-05 1.124457e-08
4.354349e-05 -1.705274e-05 1.284350e-08
4.353810e-05 -1.705057e-05 1.196318e-08
4.355741e-05 -1.705720e-05 1.356525e-08
4.355156e-05 -1.705488e-05 1.264623e-08
4.357208e-05 -1.706196e-05 1.424874e-08
4.356579e-05 -1.705950e-05 1.329377e-08
4.358746e-05 -1.706699e-05 1.489373e-08
4.358076e-05 -1.706440e-05 1.390572e-08
4.360351e-05 -1.707229e-05 1.550007e-08
4.359642e-05 -1.706957e-05 1.448209e-08
4.362043e-05 -1.707793e-05 -1.103466e-08
4.361272e-05 -1.707500e-05 1.502293e-08
4.363747e-05 -1.708362e-05 1.659659e-08
4.362964e-05 -1.708067e-05 1.552829e-08
4.365530e-05 -1.708961e-05 1.708674e-08
4.364713e-05 -1.708656e-05 1.599820e-08
4.367382e-05 -1.709588e-05 -1.205550e-08
4.366515e-05 -1.709266e-05 1.643267e-08
4.369244e-05 -1.710219e-05 1.795080e-08
4.368367e-05 -1.709895e-05 1.683170e-08
4.371168e-05 -1.710874e-05 1.832467e-08
4.370263e-05 -1.710542e-05 1.719516e-08
4.374174e-05 -1.711888e-05 -1.124992e-08
4.372200e-05 -1.711205e-05 1.752312e-08
4.376180e-05 -1.712577e-05 -1.141032e-08
4.374173e-05 -1.711882e-05 1.781590e-08
4.377155e-05 -1.712923e-05 1.921356e-08
4.376180e-05 -1.712572e-05 1.807311e-08
4.379209e-05 -1.713629e-05 1.943217e-08
4.378215e-05 -1.713273e-05 1.829428e-08
4.381286e-05 -1.714344e-05 1.961194e-08
4.380274e-05 -1.713984e-05 1.847969e-08
4.383386e-05 -1.715068e-05 -1.359210e-08
4.382354e-05 -1.714703e-05 1.862941e-08
4.385491e-05 -1.715794e-05 1.985508e-08
4.384451e-05 -1.715429e-05 1.874324e-08
4.387611e-05 -1.716526e-05 -1.370721e-08
4.386559e-05 -1.716159e-05 1.882112e-08
4.389735e-05 -1.717260e-05 -1.372495e-08
4.388676e-05 -1.716892e-05 1.886304e-08
4.391863e-05 -1.717996e-05 1.993111e-08
4.390796e-05 -1.717628e-05 1.886903e-08
4.393989e-05 -1.718731e-05 1.988098e-08
4.392917e-05 -1.718364e-05 1.883923e-08
4.396108e-05 -1.719465e-05 1.979430e-08
4.395033e-05 -1.719099e-05 1.877387e-08
4.398218e-05 -1.720197e-05 1.967220e-08
4.397142e-05 -1.719832e-05 1.867334e-08
4.400314e-05 -1.720924e-05 1.951616e-08
4.399238e-05 -1.720562e-05 1.853814e-08
4.403384e-05 -1.722005e-05 -1.145899e-08
4.401320e-05 -1.721288e-05 1.836928e-08
4.405425e-05 -1.722721e-05 -1.130864e-08
4.403383e-05 -1.722009e-05 1.816827e-08
4.406486e-05 -1.723081e-05 1.886409e-08
4.405425e-05 -1.722725e-05 1.793623e-08
4.408495e-05 -1.723789e-05 1.859278e-08
4.407442e-05 -1.723436e-05 1.767457e-08
4.410474e-05 -1.724492e-05 1.829760e-08
4.409431e-05 -1.724142e-05 1.738560e-08
4.412423e-05 -1.725189e-05 1.797929e-08
4.411391e-05 -1.724842e-05 1.707137e-08
4.414338e-05 -1.725880e-05 1.763780e-08
4.413319e-05 -1.725536e-05 1.673354e-08
4.416216e-05 -1.726563e-05 1.727266e-08
4.415212e-05 -1.726224e-05 1.637371e-08
4.418036e-05 -1.727231e-05 -1.166680e-08
4.417068e-05 -1.726903e-05 1.599349e-08
4.419853e-05 -1.727903e-05 1.647132e-08
4.418884e-05 -1.727574e-05 1.559463e-08
4.421607e-05 -1.728556e-05 1.603707e-08
4.420658e-05 -1.728233e-05 1.517903e-08
4.423291e-05 -1.729186e-05 -1.078115e-08
4.422386e-05 -1.728879e-05 1.474870e-08
4.424971e-05 -1.729817e-05 1.511151e-08
4.424066e-05 -1.729510e-05 1.430551e-08
4.426577e-05 -1.730422e-05 1.462479e-08
4.425696e-05 -1.730125e-05 1.385111e-08
4.428131e-05 -1.731009e-05 1.412487e-08
4.427275e-05 -1.730721e-05 1.338673e-08
4.430272e-05 -1.731846e-05 -7.789455e-09
4.428801e-05 -1.731298e-05 1.291351e-08
4.431688e-05 -1.732382e-05 -7.483334e-09
4.430272e-05 -1.731855e-05 1.243244e-08
4.432464e-05 -1.732648e-05 1.256057e-08
4.431688e-05 -1.732391e-05 1.194378e-08
4.433794e-05 -1.733151e-05 1.202096e-08
4.433046e-05 -1.732906e-05 1.144767e-08
4.435042e-05 -1.733622e-05 -7.941030e-09
4.434346e-05 -1.733398e-05 1.094462e-08
4.436279e-05 -1.734089e-05 1.091793e-08
4.435588e-05 -1.733867e-05 1.043486e-08
4.437406e-05 -1.734514e-05 -7.165211e-09
4.436770e-05 -1.734312e-05 9.918360e-09
4.438497e-05 -1.734923e-05 -6.769547e-09
4.437890e-05 -1.734734e-05 9.395171e-09
4.439553e-05 -1.735318e-05 9.207514e-09
4.438950e-05 -1.735132e-05 8.865307e-09
4.440519e-05 -1.735679e-05 8.622923e-09
4.439947e-05 -1.735506e-05 8.328767e-09
4.441422e-05 -1.736016e-05 8.031168e-09
4.440880e-05 -1.735855e-05 7.785547e-09
4.442261e-05 -1.736327e-05 7.432262e-09
4.441750e-05 -1.736178e-05 7.235641e-09
4.443034e-05 -1.736612e-05 6.826193e-09
4.442555e-05 -1.736477e-05 6.679036e-09
4.443741e-05 -1.736871e-05 6.212967e-09
4.443294e-05 -1.736749e-05 6.115693e-09
4.444571e-05 -1.737204e-05 -3.127486e-09
4.443966e-05 -1.736995e-05 5.545662e-09
4.445108e-05 -1.737397e-05 -2.763080e-09
4.444571e-05 -1.737215e-05 4.969019e-09
4.445457e-05 -1.737491e-05 4.330194e-09
4.445108e-05 -1.737409e-05 4.385627e-09
4.445891e-05 -1.737644e-05 3.688221e-09
4.445576e-05 -1.737575e-05 3.795418e-09
4.446255e-05 -1.737769e-05 3.039073e-09
4.445975e-05 -1.737714e-05 3.198521e-09
4.446549e-05 -1.737866e-05 2.382756e-09
4.446302e-05 -1.737826e-05 2.594946e-09
4.446740e-05 -1.737925e-05 -1.172506e-09
4.446558e-05 -1.737909e-05 1.984666e-09
4.446889e-05 -1.737966e-05 -7.073073e-10
4.446743e-05 -1.737964e-05 1.367692e-09
4.446995e-05 -1.737989e-05 3.712762e-10
4.446854e-05 -1.737991e-05 7.440355e-10
4.446996e-05 -1.737972e-05 -3.130268e-10
4.446891e-05 -1.737989e-05 1.137432e-10
4.446892e-05 -1.737915e-05 7.163287e-10
4.446854e-05 -1.737958e-05 -5.231281e-10
4.446743e-05 -1.737840e-05 1.199497e-09
4.446742e-05 -1.737897e-05 -1.166467e-09
4.446549e-05 -1.737747e-05 -2.403669e-09
4.446554e-05 -1.737808e-05 -1.816103e-09
4.446248e-05 -1.737614e-05 -3.111337e-09
4.446290e-05 -1.737689e-05 -2.471742e-09
4.445531e-05 -1.737350e-05 2.354374e-09
4.445949e-05 -1.737540e-05 -3.132994e-09
4.445035e-05 -1.737144e-05 2.775719e-09
4.445531e-05 -1.737363e-05 -3.799393e-09
4.444880e-05 -1.737039e-05 -5.252784e-09
4.445035e-05 -1.737157e-05 -4.470133e-09
4.444269e-05 -1.736791e-05 -5.967449e-09
4.444462e-05 -1.736923e-05 -5.144053e-09
4.443581e-05 -1.736516e-05 -6.679169e-09
4.443812e-05 -1.736661e-05 -5.819882e-09
4.442783e-05 -1.736204e-05 5.122611e-09
4.443086e-05 -1.736373e-05 -6.496075e-09
4.441975e-05 -1.735890e-05 -8.085540e-09
4.442283e-05 -1.736060e-05 -7.170808e-09
4.441027e-05 -1.735530e-05 6.074426e-09
4.441405e-05 -1.735722e-05 -7.842210e-09
4.440039e-05 -1.735158e-05 6.540900e-09
4.440454e-05 -1.735361e-05 -8.508520e-09
4.439009e-05 -1.734775e-05 -1.013575e-08
4.439430e-05 -1.734978e-05 -9.168140e-09
4.437875e-05 -1.734360e-05 -1.080319e-08
4.438333e-05 -1.734574e-05 -9.819567e-09
4.436671e-05 -1.733922e-05 -1.146268e-08
4.437166e-05 -1.734147e-05 -1.046124e-08
4.435396e-05 -1.733462e-05 -1.211324e-08
4.435929e-05 -1.733698e-05 -1.109143e-08
4.434052e-05 -1.732978e-05 -1.275314e-08
4.434622e-05 -1.733226e-05 -1.170821e-08
4.431805e-05 -1.732203e-05 8.117602e-09
4.433246e-05 -1.732732e-05 -1.230986e-08
4.430297e-05 -1.731662e-05 8.474013e-09
4.431804e-05 -1.732214e-05 -1.289504e-08
4.429618e-05 -1.731390e-05 -1.458816e-08
4.430297e-05 -1.731673e-05 -1.346221e-08
4.428012e-05 -1.730814e-05 -1.516531e-08
4.428726e-05 -1.731108e-05 -1.401001e-08
4.426346e-05 -1.730215e-05 -1.572277e-08
4.427093e-05 -1.730521e-05 -1.453792e-08
4.424621e-05 -1.729594e-05 -1.625957e-08
4.425401e-05 -1.729911e-05 -1.504549e-08
4.422841e-05 -1.728952e-05 -1.677498e-08
4.423652e-05 -1.729279e-05 -1.553227e-08
4.420984e-05 -1.728282e-05 1.191543e-08
4.421847e-05 -1.728626e-05 -1.599803e-08
4.419120e-05 -1.727607e-05 -1.773976e-08
4.419991e-05 -1.727953e-05 -1.644262e-08
4.417186e-05 -1.726905e-05 -1.818858e-08
4.418084e-05 -1.727261e-05 -1.686601e-08
4.415187e-05 -1.726179e-05 1.284996e-08
4.416130e-05 -1.726550e-05 -1.726816e-08
4.413181e-05 -1.725449e-05 -1.901836e-08
4.414132e-05 -1.725822e-05 -1.764910e-08
4.411116e-05 -1.724696e-05 -1.939925e-08
4.412090e-05 -1.725077e-05 -1.800887e-08
4.409012e-05 -1.723928e-05 -1.975745e-08
4.410009e-05 -1.724316e-05 -1.834751e-08
4.406872e-05 -1.723146e-05 -2.009299e-08
4.407890e-05 -1.723541e-05 -1.866495e-08
4.403551e-05 -1.721945e-05 1.208199e-08
4.405737e-05 -1.722752e-05 -1.896138e-08
4.401335e-05 -1.721132e-05 1.224040e-08
4.403550e-05 -1.721950e-05 -1.923723e-08
4.400259e-05 -1.720724e-05 -2.096411e-08
4.401335e-05 -1.721136e-05 -1.949222e-08
4.397999e-05 -1.719895e-05 -2.120947e-08
4.399091e-05 -1.720312e-05 -1.972597e-08
4.395705e-05 -1.719053e-05 1.480785e-08
4.396823e-05 -1.719478e-05 -1.993893e-08
4.393410e-05 -1.718210e-05 -2.163297e-08
4.394532e-05 -1.718635e-05 -2.013130e-08
4.391078e-05 -1.717353e-05 1.507134e-08
4.392220e-05 -1.717784e-05 -2.030301e-08
4.388739e-05 -1.716493e-05 1.517986e-08
4.389892e-05 -1.716927e-05 -2.045408e-08
4.386391e-05 -1.715629e-05 -2.210082e-08
4.387547e-05 -1.716063e-05 -2.058458e-08
4.384025e-05 -1.714758e-05 -2.221230e-08
4.385191e-05 -1.715194e-05 -2.069457e-08
4.381650e-05 -1.713884e-05 -2.230163e-08
4.382823e-05 -1.714322e-05 -2.078409e-08
4.379267e-05 -1.713007e-05 -2.236884e-08
4.380448e-05 -1.713446e-05 -2.085320e-08
4.376881e-05 -1.712128e-05 -2.241393e-08
4.378067e-05 -1.712568e-05 -2.090193e-08
4.374492e-05 -1.711248e-05 -2.243697e-08
4.375682e-05 -1.711688e-05 -2.093020e-08
4.370914e-05 -1.709930e-05 1.313087e-08
4.373297e-05 -1.710808e-05 -2.093820e-08
4.368533e-05 -1.709053e-05 1.311014e-08
4.370913e-05 -1.709929e-05 -2.092638e-08
4.367336e-05 -1.708614e-05 -2.237385e-08
4.368533e-05 -1.709052e-05 -2.089437e-08
4.364962e-05 -1.707741e-05 -2.230875e-08
4.366159e-05 -1.708176e-05 -2.084175e-08
4.362598e-05 -1.706871e-05 -2.222159e-08
4.363793e-05 -1.707304e-05 -2.076899e-08
4.360250e-05 -1.706008e-05 1.528350e-08
4.361438e-05 -1.706437e-05 -2.067624e-08
4.357908e-05 -1.705147e-05 -2.198094e-08
4.359096e-05 -1.705575e-05 -2.056335e-08
4.355587e-05 -1.704294e-05 -2.182733e-08
4.356770e-05 -1.704718e-05 -2.043029e-08
4.353292e-05 -1.703452e-05 1.496357e-08
4.354462e-05 -1.703870e-05 -2.027705e-08
4.351003e-05 -1.702613e-05 -2.145333e-08
4.352173e-05 -1.703029e-05 -2.010358e-08
4.348745e-05 -1.701786e-05 -2.123293e-08
4.349907e-05 -1.702197e-05 -1.990987e-08
4.346514e-05 -1.700970e-05 -2.099030e-08
4.347666e-05 -1.701375e-05 -1.969587e-08
4.344311e-05 -1.700165e-05 -2.072551e-08
4.345452e-05 -1.700564e-05 -1.946157e-08
4.342138e-05 -1.699372e-05 -2.043857e-08
4.343268e-05 -1.699765e-05 -1.920695e-08
4.339998e-05 -1.698592e-05 -2.012951e-08
4.341115e-05 -1.698978e-05 -1.893184e-08
4.336914e-05 -1.697453e-05 1.150400e-08
4.338996e-05 -1.698205e-05 -1.863635e-08
4.334869e-05 -1.696710e-05 1.129398e-08
4.336913e-05 -1.697446e-05 -1.832079e-08
4.333797e-05 -1.696340e-05 -1.906920e-08
4.334869e-05 -1.696703e-05 -1.798474e-08
4.331828e-05 -1.695627e-05 1.289341e-08
4.332866e-05 -1.695975e-05 -1.762780e-08
4.329870e-05 -1.694919e-05 -1.825077e-08
4.330905e-05 -1.695265e-05 -1.725035e-08
4.327974e-05 -1.694236e-05 -1.780795e-08
4.328990e-05 -1.694572e-05 -1.685250e-08
4.326148e-05 -1.693579e-05 1.197103e-08
4.327123e-05 -1.693898e-05 -1.643410e-08
4.324333e-05 -1.692928e-05 -1.685488e-08
4.325306e-05 -1.693244e-05 -1.599516e-08
4.322591e-05 -1.692305e-05 -1.634461e-08
4.323541e-05 -1.692610e-05 -1.553569e-08
4.320905e-05 -1.691703e-05 -1.581182e-08
4.321830e-05 -1.691998e-05 -1.505569e-08
4.319277e-05 -1.691125e-05 -1.525652e-08
4.320177e-05 -1.691407e-05 -1.455518e-08
4.317709e-05 -1.690570e-05 -1.467870e-08
4.318582e-05 -1.690840e-05 -1.403415e-08
4.316204e-05 -1.690039e-05 -1.407834e-08
4.317049e-05 -1.690297e-05 -1.349262e-08
4.314763e-05 -1.689534e-05 -1.345541e-08
4.315580e-05 -1.689779e-05 -1.293057e-08
4.313390e-05 -1.689055e-05 -1.280993e-08
4.314177e-05 -1.689287e-05 -1.234794e-08
4.311578e-05 -1.688396e-05 7.013004e-09
4.312842e-05 -1.688821e-05 -1.174480e-08
4.310386e-05 -1.687987e-05 6.611249e-09
4.311577e-05 -1.688384e-05 -1.112133e-08
4.309696e-05 -1.687785e-05 -1.073774e-08
4.310386e-05 -1.687974e-05 -1.047725e-08
4.308614e-05 -1.687421e-05 -1.000160e-08
4.309270e-05 -1.687594e-05 -9.812306e-09
4.307644e-05 -1.687099e-05 6.345310e-09
4.308231e-05 -1.687245e-05 -9.126714e-09
4.306690e-05 -1.686785e-05 -8.460946e-09
4.307272e-05 -1.686927e-05 -8.420466e-09
4.305851e-05 -1.686516e-05 -7.656271e-09
4.306396e-05 -1.686641e-05 -7.693399e-09
4.305134e-05 -1.686293e-05 4.668085e-09
4.305604e-05 -1.686388e-05 -6.945418e-09
4.304433e-05 -1.686079e-05 -5.977951e-09
4.304898e-05 -1.686169e-05 -6.176422e-09
4.303859e-05 -1.685913e-05 -5.104269e-09
4.304282e-05 -1.685986e-05 -5.386301e-09
4.303377e-05 -1.685784e-05 -4.207633e-09
4.303758e-05 -1.685838e-05 -4.574946e-09
4.302991e-05 -1.685691e-05 -3.288211e-09
4.303328e-05 -1.685727e-05 -3.742263e-09
4.302702e-05 -1.685637e-05 -2.346316e-09
4.302994e-05 -1.685653e-05 -2.888183e-09
4.302512e-05 -1.685621e-05 -1.382481e-09
4.302758e-05 -1.685618e-05 -2.012705e-09
4.302425e-05 -1.685644e-05 -3.975660e-10
4.302623e-05 -1.685621e-05 -1.115930e-09
4.302665e-05 -1.685766e-05 -3.861621e-10
4.302592e-05 -1.685664e-05 -1.981448e-10
4.302609e-05 -1.685826e-05 -1.200401e-09
4.302665e-05 -1.685747e-05 7.402157e-10
4.302794e-05 -1.685951e-05 2.668225e-09
4.302845e-05 -1.685869e-05 1.698392e-09
4.303180e-05 -1.686149e-05 -2.641652e-09
4.303133e-05 -1.686031e-05 2.675045e-09
4.303630e-05 -1.686368e-05 -3.369163e-09
4.303530e-05 -1.686231e-05 3.668329e-09
4.304141e-05 -1.686605e-05 5.837822e-09
4.304037e-05 -1.686468e-05 4.675726e-09
4.304811e-05 -1.686894e-05 6.894830e-09
4.304654e-05 -1.686741e-05 5.693830e-09
4.305590e-05 -1.687214e-05 7.941169e-09
4.305380e-05 -1.687046e-05 6.718355e-09
4.306476e-05 -1.687562e-05 8.970120e-09
4.306213e-05 -1.687381e-05 7.744160e-09
4.307468e-05 -1.687934e-05 9.976202e-09
4.307152e-05 -1.687742e-05 8.765542e-09
4.308562e-05 -1.688327e-05 1.095625e-08
4.308193e-05 -1.688125e-05 9.776646e-09
4.309755e-05 -1.688738e-05 1.190969e-08
4.309334e-05 -1.688528e-05 1.077196e-08
4.311045e-05 -1.689166e-05 1.283762e-08
4.310571e-05 -1.688947e-05 1.174646e-08
4.312429e-05 -1.689609e-05 1.374111e-08
4.311903e-05 -1.689383e-05 1.269527e-08
4.314840e-05 -1.690320e-05 -9.223837e-09
4.313326e-05 -1.689835e-05 1.361344e-08
4.316440e-05 -1.690807e-05 -9.767378e-09
4.314840e-05 -1.690304e-05 1.449573e-08
4.317124e-05 -1.691047e-05 1.628648e-08
4.316440e-05 -1.690792e-05 1.533598e-08
4.318895e-05 -1.691579e-05 -1.164459e-08
4.318125e-05 -1.691300e-05 1.612801e-08
4.320676e-05 -1.692107e-05 1.779073e-08
4.319891e-05 -1.691830e-05 1.686680e-08
4.322566e-05 -1.692671e-05 1.846504e-08
4.321732e-05 -1.692383e-05 1.754806e-08
4.324550e-05 -1.693265e-05 -1.302210e-08
4.323645e-05 -1.692957e-05 1.816809e-08
4.326545e-05 -1.693861e-05 1.963048e-08
4.325623e-05 -1.693553e-05 1.872416e-08
4.328621e-05 -1.694486e-05 2.011359e-08
4.327659e-05 -1.694168e-05 1.921423e-08
4.330745e-05 -1.695127e-05 2.052645e-08
4.329748e-05 -1.694802e-05 1.963686e-08
4.332910e-05 -1.695784e-05 2.086706e-08
4.331881e-05 -1.695452e-05 1.999102e-08
4.335109e-05 -1.696453e-05 2.113399e-08
4.334051e-05 -1.696115e-05 2.027601e-08
4.337333e-05 -1.697131e-05 2.132622e-08
4.336250e-05 -1.696790e-05 2.049138e-08
4.339575e-05 -1.697816e-05 2.144300e-08
4.338471e-05 -1.697472e-05 2.063681e-08
4.341827e-05 -1.698505e-05 2.148385e-08
4.340706e-05 -1.698160e-05 2.071195e-08
4.342947e-05 -1.698850e-05 2.071680e-08
4.344076e-05 -1.699194e-05 -1.465428e-08
4.347414e-05 -1.700222e-05 -1.305974e-08
4.345186e-05 -1.699540e-05 2.065166e-08
4.348549e-05 -1.700560e-05 -1.444508e-08
4.347414e-05 -1.700225e-05 2.051600e-08
4.350756e-05 -1.701232e-05 -1.426062e-08
4.349623e-05 -1.700903e-05 2.030926e-08
4.352949e-05 -1.701897e-05 2.053966e-08
4.351806e-05 -1.701571e-05 2.003177e-08
4.355090e-05 -1.702543e-05 2.011991e-08
4.353953e-05 -1.702225e-05 1.968356e-08
4.357182e-05 -1.703169e-05 1.962286e-08
4.356058e-05 -1.702862e-05 1.926433e-08
4.359219e-05 -1.703774e-05 1.904838e-08
4.358111e-05 -1.703479e-05 1.877390e-08
4.361192e-05 -1.704354e-05 1.839634e-08
4.360104e-05 -1.704072e-05 1.821210e-08
4.363092e-05 -1.704906e-05 1.766665e-08
4.362029e-05 -1.704638e-05 1.757873e-08
4.364912e-05 -1.705425e-05 1.685925e-08
4.363877e-05 -1.705175e-05 1.687362e-08
4.366642e-05 -1.705910e-05 1.597420e-08
4.365640e-05 -1.705678e-05 1.609656e-08
4.368275e-05 -1.706357e-05 1.501164e-08
4.367309e-05 -1.706144e-05 1.524740e-08
4.369802e-05 -1.706762e-05 1.397198e-08
4.368877e-05 -1.706571e-05 1.432602e-08
4.371215e-05 -1.707123e-05 1.285588e-08
4.370335e-05 -1.706955e-05 1.333239e-08
4.372505e-05 -1.707437e-05 1.166449e-08
4.371674e-05 -1.707294e-05 1.226657e-08
4.373965e-05 -1.707798e-05 -6.446019e-09
4.372887e-05 -1.707583e-05 1.112903e-08
4.373965e-05 -1.707822e-05 9.920608e-09
4.374623e-05 -1.707892e-05 -6.062551e-09
4.375561e-05 -1.708073e-05 7.660138e-09
4.374902e-05 -1.708008e-05 8.642183e-09
4.376284e-05 -1.708177e-05 6.194083e-09
4.375689e-05 -1.708140e-05 7.295447e-09
4.376776e-05 -1.708200e-05 -3.037115e-09
4.376321e-05 -1.708217e-05 5.883368e-09
4.377247e-05 -1.708220e-05 3.101931e-09
4.376792e-05 -1.708238e-05 4.409803e-09
4.377478e-05 -1.708161e-05 1.493988e-09
4.377097e-05 -1.708205e-05 2.879865e-09
4.377536e-05 -1.708052e-05 -1.404944e-10
4.377232e-05 -1.708120e-05 1.300265e-09
4.377421e-05 -1.707896e-05 -1.789628e-09
4.377196e-05 -1.707987e-05 -3.207422e-10
4.377132e-05 -1.707698e-05 -3.442621e-09
4.376988e-05 -1.707808e-05 -1.973626e-09
4.376669e-05 -1.707462e-05 -5.091817e-09
4.376608e-05 -1.707590e-05 -3.648222e-09
4.376034e-05 -1.707192e-05 -6.734015e-09
4.376056e-05 -1.707336e-05 -5.334608e-09
4.375227e-05 -1.706889e-05 -8.369860e-09
4.375335e-05 -1.707049e-05 -7.023731e-09
4.374168e-05 -1.706526e-05 6.861721e-09
4.374446e-05 -1.706731e-05 -8.707260e-09
4.373104e-05 -1.706188e-05 -1.162892e-08
4.373388e-05 -1.706381e-05 -1.037673e-08
4.372163e-05 -1.705997e-05 -1.202306e-08
4.371708e-05 -1.705755e-05 9.043377e-09
4.370769e-05 -1.705573e-05 -1.363667e-08
4.370224e-05 -1.705311e-05 1.012876e-08
4.368648e-05 -1.704848e-05 -1.643152e-08
4.369209e-05 -1.705106e-05 -1.520733e-08
4.366830e-05 -1.704310e-05 -1.797137e-08
4.367484e-05 -1.704593e-05 -1.672529e-08
4.364853e-05 -1.703723e-05 -1.946183e-08
4.365598e-05 -1.704031e-05 -1.818280e-08
4.362722e-05 -1.703085e-05 -2.089323e-08
4.363557e-05 -1.703418e-05 -1.957358e-08
4.360445e-05 -1.702396e-05 -2.225763e-08
4.361365e-05 -1.702754e-05 -2.089262e-08
4.358028e-05 -1.701657e-05 -2.354884e-08
4.359031e-05 -1.702040e-05 -2.213635e-08
4.355479e-05 -1.700870e-05 -2.476225e-08
4.356562e-05 -1.701277e-05 -2.330232e-08
4.352809e-05 -1.700038e-05 -2.589450e-08
4.353966e-05 -1.700467e-05 -2.438890e-08
4.350025e-05 -1.699163e-05 -2.694327e-08
4.351252e-05 -1.699612e-05 -2.539515e-08
4.347136e-05 -1.698247e-05 -2.790702e-08
4.348429e-05 -1.698716e-05 -2.632056e-08
4.344152e-05 -1.697295e-05 -2.878480e-08
4.345507e-05 -1.697781e-05 -2.716497e-08
4.341049e-05 -1.696298e-05 2.026765e-08
4.342494e-05 -1.696811e-05 -2.792839e-08
4.337937e-05 -1.695294e-05 -3.028049e-08
4.339400e-05 -1.695810e-05 -2.861083e-08
4.333007e-05 -1.693717e-05 1.883844e-08
4.336234e-05 -1.694780e-05 -2.921272e-08
4.333005e-05 -1.693726e-05 -2.973501e-08
4.331431e-05 -1.693181e-05 2.155563e-08
4.328134e-05 -1.692105e-05 -3.187349e-08
4.329724e-05 -1.692651e-05 -3.017746e-08
4.324776e-05 -1.691006e-05 -3.223146e-08
4.326399e-05 -1.691559e-05 -3.053971e-08
4.321388e-05 -1.689895e-05 -3.250329e-08
4.323039e-05 -1.690453e-05 -3.082271e-08
4.317979e-05 -1.688777e-05 -3.268921e-08
4.319654e-05 -1.689338e-05 -3.102697e-08
4.314558e-05 -1.687654e-05 -3.278943e-08
4.316252e-05 -1.688216e-05 -3.115256e-08
4.311135e-05 -1.686529e-05 -3.280417e-08
4.312843e-05 -1.687091e-05 -3.119972e-08
4.307718e-05 -1.685408e-05 -3.273367e-08
4.309436e-05 -1.685967e-05 -3.116868e-08
4.304316e-05 -1.684292e-05 -3.257821e-08
4.306040e-05 -1.684848e-05 -3.105966e-08
4.300950e-05 -1.683191e-05 2.219088e-08
4.302663e-05 -1.683736e-05 -3.087283e-08
4.297592e-05 -1.682092e-05 -3.201373e-08
4.299315e-05 -1.682635e-05 -3.060842e-08
4.294308e-05 -1.681023e-05 2.168341e-08
4.296004e-05 -1.681549e-05 -3.026662e-08
4.291058e-05 -1.679966e-05 2.134343e-08
4.292738e-05 -1.680480e-05 -2.984769e-08
4.287839e-05 -1.678921e-05 -3.054192e-08
4.289527e-05 -1.679432e-05 -2.935197e-08
4.284710e-05 -1.677910e-05 -2.988881e-08
4.286378e-05 -1.678408e-05 -2.877978e-08
4.280301e-05 -1.676456e-05 1.737107e-08
4.283300e-05 -1.677410e-05 -2.813202e-08
4.277387e-05 -1.675519e-05 1.686958e-08
4.280300e-05 -1.676441e-05 -2.741026e-08
4.275802e-05 -1.675050e-05 -2.747271e-08
4.277386e-05 -1.675502e-05 -2.661540e-08
4.273016e-05 -1.674159e-05 -2.652795e-08
4.274565e-05 -1.674595e-05 -2.574898e-08
4.270334e-05 -1.673302e-05 -2.552294e-08
4.271844e-05 -1.673721e-05 -2.481448e-08
4.267759e-05 -1.672477e-05 -2.446525e-08
4.269227e-05 -1.672880e-05 -2.381593e-08
4.265298e-05 -1.671683e-05 -2.336361e-08
4.266720e-05 -1.672071e-05 -2.275805e-08
4.262952e-05 -1.670918e-05 -2.222740e-08
4.264327e-05 -1.671293e-05 -2.164694e-08
4.260725e-05 -1.670181e-05 -2.106554e-08
4.262050e-05 -1.670542e-05 -2.048970e-08
4.258619e-05 -1.669467e-05 -1.988508e-08
4.259890e-05 -1.669817e-05 -1.929412e-08
4.256696e-05 -1.668796e-05 1.289829e-08
4.257850e-05 -1.669114e-05 -1.806801e-08
4.254770e-05 -1.668101e-05 -1.748024e-08
4.255930e-05 -1.668432e-05 -1.681865e-08
4.253030e-05 -1.667447e-05 -1.625466e-08
4.254131e-05 -1.667768e-05 -1.555262e-08
4.251479e-05 -1.666837e-05 1.044989e-08
4.252455e-05 -1.667124e-05 -1.427626e-08
4.249928e-05 -1.666206e-05 -1.375235e-08
4.250902e-05 -1.666503e-05 -1.299618e-08
4.248179e-05 -1.665366e-05 6.413982e-09
4.249477e-05 -1.665908e-05 -1.171983e-08
4.247010e-05 -1.664834e-05 5.615889e-09
4.248179e-05 -1.665342e-05 -1.045511e-08
4.246242e-05 -1.664564e-05 -9.933200e-09
4.247010e-05 -1.664810e-05 -9.209242e-09
4.245273e-05 -1.664090e-05 -8.674895e-09
4.245971e-05 -1.664315e-05 -7.988842e-09
4.244433e-05 -1.663656e-05 -7.438361e-09
4.245059e-05 -1.663861e-05 -6.799812e-09
4.243718e-05 -1.663264e-05 -6.230675e-09
4.244274e-05 -1.663448e-05 -5.646651e-09
4.243125e-05 -1.662915e-05 -5.057593e-09
4.243612e-05 -1.663077e-05 -4.532641e-09
4.242699e-05 -1.662627e-05 2.883038e-09
4.243071e-05 -1.662750e-05 -3.460214e-09
4.242337e-05 -1.662362e-05 2.127135e-09
4.242646e-05 -1.662465e-05 -2.431046e-09
4.242040e-05 -1.662122e-05 -1.785445e-09
4.242333e-05 -1.662222e-05 -1.446234e-09
4.241896e-05 -1.661940e-05 -7.854552e-10
4.242127e-05 -1.662020e-05 -5.064400e-10
4.241891e-05 -1.661811e-05 4.646770e-11
4.242025e-05 -1.661857e-05 3.879756e-10
4.241940e-05 -1.661703e-05 -5.812400e-10
4.242020e-05 -1.661732e-05 1.236855e-09
4.242044e-05 -1.661618e-05 1.924909e-09
4.242109e-05 -1.661644e-05 2.040181e-09
4.242272e-05 -1.661580e-05 2.730166e-09
4.242285e-05 -1.661590e-05 2.798004e-09
4.242579e-05 -1.661573e-05 3.485970e-09
4.242545e-05 -1.661568e-05 3.510391e-09
4.243293e-05 -1.661626e-05 -3.168465e-09
4.242882e-05 -1.661577e-05 4.177471e-09
4.243771e-05 -1.661690e-05 -3.527578e-09
4.243293e-05 -1.661614e-05 4.799466e-09
4.243935e-05 -1.661724e-05 5.456571e-09
4.243771e-05 -1.661678e-05 5.376413e-09
4.244513e-05 -1.661823e-05 6.014513e-09
4.244312e-05 -1.661767e-05 5.908229e-09
4.245147e-05 -1.661945e-05 6.523054e-09
4.244910e-05 -1.661878e-05 6.395052e-09
4.245831e-05 -1.662086e-05 6.982229e-09
4.245561e-05 -1.662010e-05 6.836958e-09
4.246560e-05 -1.662245e-05 7.392048e-09
4.246260e-05 -1.662161e-05 7.233916e-09
4.247329e-05 -1.662419e-05 7.752539e-09
4.247001e-05 -1.662328e-05 7.585900e-09
4.248144e-05 -1.662611e-05 -5.442364e-09
4.247780e-05 -1.662509e-05 7.892875e-09
4.248967e-05 -1.662807e-05 8.325725e-09
4.248590e-05 -1.662704e-05 8.154798e-09
4.249825e-05 -1.663016e-05 8.538617e-09
4.249429e-05 -1.662909e-05 8.371620e-09
4.250708e-05 -1.663235e-05 -5.886935e-09
4.250289e-05 -1.663123e-05 8.543304e-09
4.251596e-05 -1.663457e-05 8.818134e-09
4.251166e-05 -1.663344e-05 8.669852e-09
4.252499e-05 -1.663684e-05 8.885663e-09
4.252056e-05 -1.663570e-05 8.751326e-09
4.253406e-05 -1.663915e-05 8.906020e-09
4.252953e-05 -1.663799e-05 8.787878e-09
4.254314e-05 -1.664146e-05 8.880380e-09
4.253853e-05 -1.664030e-05 8.779758e-09
4.255642e-05 -1.664491e-05 -5.546542e-09
4.254751e-05 -1.664262e-05 8.727537e-09
4.256522e-05 -1.664719e-05 -5.456207e-09
4.255642e-05 -1.664493e-05 8.632183e-09
4.256992e-05 -1.664836e-05 8.546583e-09
4.256522e-05 -1.664722e-05 8.494677e-09
4.257843e-05 -1.665058e-05 -5.670504e-09
4.257387e-05 -1.664950e-05 8.316475e-09
4.258700e-05 -1.665287e-05 8.140019e-09
4.258234e-05 -1.665175e-05 8.099962e-09
4.259504e-05 -1.665504e-05 -5.366546e-09
4.259059e-05 -1.665398e-05 7.848009e-09
4.260297e-05 -1.665725e-05 -5.193281e-09
4.259861e-05 -1.665620e-05 7.563960e-09
4.261082e-05 -1.665954e-05 7.339735e-09
4.260637e-05 -1.665842e-05 7.251691e-09
4.261821e-05 -1.666178e-05 7.038513e-09
4.261385e-05 -1.666065e-05 6.915292e-09
4.262529e-05 -1.666404e-05 6.723166e-09
4.262105e-05 -1.666290e-05 6.558703e-09
4.263206e-05 -1.666633e-05 6.393226e-09
4.262795e-05 -1.666518e-05 6.185534e-09
4.263849e-05 -1.666864e-05 6.047782e-09
4.263453e-05 -1.666748e-05 5.799120e-09
4.264458e-05 -1.667094e-05 5.686690e-09
4.264078e-05 -1.666979e-05 5.402861e-09
4.265029e-05 -1.667323e-05 5.311449e-09
4.264668e-05 -1.667210e-05 5.000460e-09
4.265562e-05 -1.667548e-05 4.925342e-09
4.265221e-05 -1.667437e-05 4.595952e-09
4.266056e-05 -1.667766e-05 4.532844e-09
4.265736e-05 -1.667659e-05 4.193406e-09
4.266647e-05 -1.668070e-05 -2.071817e-09
4.266212e-05 -1.667873e-05 3.796665e-09
4.267043e-05 -1.668264e-05 -1.831916e-09
4.266647e-05 -1.668078e-05 3.409087e-09
4.267296e-05 -1.668362e-05 3.364135e-09
4.267043e-05 -1.668272e-05 3.033266e-09
4.267630e-05 -1.668538e-05 2.990987e-09
4.267400e-05 -1.668453e-05 2.671250e-09
4.267909e-05 -1.668694e-05 -1.889844e-09
4.267719e-05 -1.668622e-05 2.324677e-09
4.268187e-05 -1.668851e-05 2.286561e-09
4.268000e-05 -1.668779e-05 1.994660e-09
4.268412e-05 -1.668988e-05 1.958852e-09
4.268246e-05 -1.668923e-05 1.681941e-09
4.268589e-05 -1.669108e-05 -1.210909e-09
4.268458e-05 -1.669054e-05 1.387011e-09
4.268766e-05 -1.669227e-05 1.358022e-09
4.268638e-05 -1.669173e-05 1.110171e-09
4.268898e-05 -1.669329e-05 1.086182e-09
4.268788e-05 -1.669281e-05 8.515975e-10
4.269002e-05 -1.669420e-05 8.338917e-10
4.268909e-05 -1.669377e-05 6.113630e-10
4.269082e-05 -1.669502e-05 6.013566e-10
4.269005e-05 -1.669464e-05 3.894875e-10
4.269138e-05 -1.669575e-05 3.886885e-10
4.269076e-05 -1.669541e-05 1.859603e-10
4.269174e-05 -1.669640e-05 1.959396e-10
4.269125e-05 -1.669609e-05 7.405014e-13
4.269190e-05 -1.669697e-05 2.313007e-11
4.269154e-05 -1.669670e-05 -1.662020e-10
4.269182e-05 -1.669744e-05 2.455799e-11
4.269165e-05 -1.669723e-05 -3.149126e-10
4.269142e-05 -1.669810e-05 4.172402e-10
4.269161e-05 -1.669771e-05 -4.454216e-10
4.269140e-05 -1.669829e-05 1.955776e-10
4.269142e-05 -1.669812e-05 -5.577799e-10
4.269102e-05 -1.669864e-05 2.603420e-10
4.269112e-05 -1.669850e-05 -6.519980e-10
4.269060e-05 -1.669898e-05 -5.422458e-10
4.269072e-05 -1.669883e-05 -7.280739e-10
4.269006e-05 -1.669928e-05 -5.957076e-10
4.269024e-05 -1.669913e-05 -7.860139e-10
4.268948e-05 -1.669955e-05 -6.293511e-10
4.268971e-05 -1.669942e-05 -8.258352e-10
4.268887e-05 -1.669982e-05 -6.432050e-10
4.268914e-05 -1.669968e-05 -8.475248e-10
4.268826e-05 -1.670008e-05 -6.373226e-10
4.268856e-05 -1.669995e-05 -8.510818e-10
4.268766e-05 -1.670035e-05 -6.117758e-10
4.268799e-05 -1.670021e-05 -8.365051e-10
4.268710e-05 -1.670063e-05 -5.666810e-10
4.268744e-05 -1.670049e-05 -8.037945e-10
4.268659e-05 -1.670094e-05 -5.022179e-10
4.268694e-05 -1.670078e-05 -7.529808e-10
4.268616e-05 -1.670127e-05 -4.186531e-10
4.268651e-05 -1.670109e-05 -6.841168e-10
4.268583e-05 -1.670164e-05 -3.163647e-10
4.268616e-05 -1.670144e-05 -5.973005e-10
4.268562e-05 -1.670204e-05 -1.958803e-10
4.268591e-05 -1.670183e-05 -4.926974e-10
4.268553e-05 -1.670249e-05 -5.791211e-11
4.268580e-05 -1.670225e-05 -3.705614e-10
4.268560e-05 -1.670299e-05 9.658666e-11
4.268582e-05 -1.670273e-05 -2.312725e-10
4.268600e-05 -1.670325e-05 -7.537298e-11
4.268590e-05 -1.670357e-05 -2.433540e-10
4.268689e-05 -1.670449e-05 -1.191139e-10
4.268635e-05 -1.670383e-05 9.642130e-11
4.268686e-05 -1.670480e-05 6.460403e-10
4.268689e-05 -1.670445e-05 2.831772e-10
4.268777e-05 -1.670553e-05 -6.396785e-10
4.268763e-05 -1.670513e-05 4.837107e-10
4.268872e-05 -1.670625e-05 1.067401e-09
4.268858e-05 -1.670586e-05 6.966420e-10
4.268997e-05 -1.670704e-05 1.289828e-09
4.268975e-05 -1.670663e-05 9.204804e-10
4.269146e-05 -1.670787e-05 1.518966e-09
4.269113e-05 -1.670744e-05 1.153721e-09
4.269317e-05 -1.670873e-05 1.754781e-09
4.269275e-05 -1.670829e-05 1.394966e-09
4.269514e-05 -1.670964e-05 1.997590e-09
4.269460e-05 -1.670917e-05 1.642950e-09
4.269735e-05 -1.671059e-05 2.247633e-09
4.269669e-05 -1.671010e-05 1.896433e-09
4.269982e-05 -1.671159e-05 2.504660e-09
4.269904e-05 -1.671107e-05 2.154118e-09
4.270255e-05 -1.671266e-05 2.767740e-09
4.270164e-05 -1.671210e-05 2.414551e-09
4.270567e-05 -1.671383e-05 -2.102940e-09
4.270451e-05 -1.671320e-05 2.676223e-09
4.270885e-05 -1.671501e-05 3.305833e-09
4.270766e-05 -1.671437e-05 2.937666e-09
4.271252e-05 -1.671635e-05 -2.473643e-09
4.271108e-05 -1.671563e-05 3.197575e-09
4.271637e-05 -1.671774e-05 -2.659948e-09
4.271478e-05 -1.671698e-05 3.454862e-09
4.272039e-05 -1.671919e-05 4.117180e-09
4.271875e-05 -1.671842e-05 3.708631e-09
4.272754e-05 -1.672164e-05 -2.639645e-09
4.272301e-05 -1.671995e-05 3.958256e-09
4.273234e-05 -1.672338e-05 -2.789822e-09
4.272754e-05 -1.672159e-05 4.203355e-09
4.273442e-05 -1.672426e-05 4.902614e-09
4.273234e-05 -1.672333e-05 4.443539e-09
4.273963e-05 -1.672615e-05 5.155102e-09
4.273742e-05 -1.672518e-05 4.678480e-09
4.274510e-05 -1.672814e-05 5.402257e-09
4.274275e-05 -1.672712e-05 4.908129e-09
4.275083e-05 -1.673023e-05 5.643859e-09
4.274834e-05 -1.672916e-05 5.132446e-09
4.275681e-05 -1.673242e-05 5.879759e-09
4.275418e-05 -1.673130e-05 5.351360e-09
4.276303e-05 -1.673470e-05 6.109867e-09
4.276027e-05 -1.673353e-05 5.564860e-09
4.276949e-05 -1.673708e-05 6.334129e-09
4.276660e-05 -1.673586e-05 5.772950e-09
4.277618e-05 -1.673954e-05 6.552523e-09
4.277317e-05 -1.673828e-05 5.975646e-09
4.278309e-05 -1.674210e-05 6.765036e-09
4.277996e-05 -1.674080e-05 6.172962e-09
4.279023e-05 -1.674474e-05 6.971666e-09
4.278698e-05 -1.674339e-05 6.364913e-09
4.279758e-05 -1.674746e-05 7.172422e-09
4.279421e-05 -1.674608e-05 6.551518e-09
4.280520e-05 -1.675029e-05 -5.100619e-09
4.280165e-05 -1.674884e-05 6.732787e-09
4.281289e-05 -1.675315e-05 7.556344e-09
4.280930e-05 -1.675169e-05 6.908734e-09
4.282090e-05 -1.675614e-05 -5.359230e-09
4.281714e-05 -1.675461e-05 7.079307e-09
4.282518e-05 -1.675761e-05 7.244559e-09
4.282904e-05 -1.675917e-05 -5.482395e-09
4.283736e-05 -1.676228e-05 -5.601460e-09
4.283341e-05 -1.676068e-05 7.404643e-09
4.284581e-05 -1.676543e-05 8.253962e-09
4.284181e-05 -1.676382e-05 7.559424e-09
4.285449e-05 -1.676867e-05 8.413782e-09
4.285039e-05 -1.676703e-05 7.708728e-09
4.286333e-05 -1.677198e-05 8.567796e-09
4.285914e-05 -1.677031e-05 7.852706e-09
4.287233e-05 -1.677535e-05 8.716031e-09
4.286805e-05 -1.677365e-05 7.991409e-09
4.288152e-05 -1.677880e-05 -6.136553e-09
4.287712e-05 -1.677705e-05 8.124791e-09
4.289078e-05 -1.678227e-05 8.995331e-09
4.288634e-05 -1.678051e-05 8.252852e-09
4.290027e-05 -1.678584e-05 -6.322911e-09
4.289570e-05 -1.678403e-05 8.375612e-09
4.290981e-05 -1.678942e-05 9.252309e-09
4.290520e-05 -1.678760e-05 8.493108e-09
4.291952e-05 -1.679308e-05 9.372790e-09
4.291484e-05 -1.679123e-05 8.605397e-09
4.292939e-05 -1.679680e-05 -6.574952e-09
4.292461e-05 -1.679491e-05 8.712567e-09
4.293932e-05 -1.680054e-05 9.598964e-09
4.293450e-05 -1.679865e-05 8.814752e-09
4.294942e-05 -1.680436e-05 -6.726982e-09
4.294451e-05 -1.680243e-05 8.912132e-09
4.295961e-05 -1.680822e-05 -6.799125e-09
4.295463e-05 -1.680626e-05 9.004963e-09
4.296990e-05 -1.681213e-05 -6.869218e-09
4.296487e-05 -1.681015e-05 9.093553e-09
4.298029e-05 -1.681608e-05 1.000359e-08
4.297521e-05 -1.681408e-05 9.178220e-09
4.299621e-05 -1.682213e-05 -5.832788e-09
4.298566e-05 -1.681807e-05 9.259470e-09
4.300687e-05 -1.682622e-05 -5.877816e-09
4.299621e-05 -1.682211e-05 9.337940e-09
4.301211e-05 -1.682829e-05 1.027990e-08
4.300687e-05 -1.682621e-05 9.413894e-09
4.302292e-05 -1.683247e-05 1.036804e-08
4.301762e-05 -1.683036e-05 9.487528e-09
4.303384e-05 -1.683670e-05 -7.260045e-09
4.302848e-05 -1.683457e-05 9.559401e-09
4.304482e-05 -1.684098e-05 1.053805e-08
4.303943e-05 -1.683882e-05 9.629978e-09
4.305593e-05 -1.684532e-05 -7.378663e-09
4.305047e-05 -1.684314e-05 9.699595e-09
4.306709e-05 -1.684970e-05 1.070063e-08
4.306160e-05 -1.684749e-05 9.768709e-09
4.307836e-05 -1.685412e-05 1.078015e-08
4.307283e-05 -1.685190e-05 9.837771e-09
4.308973e-05 -1.685860e-05 -7.547801e-09
4.308414e-05 -1.685634e-05 9.907206e-09
4.310117e-05 -1.686310e-05 -7.603315e-09
4.309554e-05 -1.686083e-05 9.977369e-09
4.311270e-05 -1.686765e-05 -7.658999e-09
4.310703e-05 -1.686536e-05 1.004856e-08
4.312430e-05 -1.687222e-05 1.109829e-08
4.311860e-05 -1.686992e-05 1.012099e-08
4.313600e-05 -1.687684e-05 1.117986e-08
4.313027e-05 -1.687452e-05 1.019484e-08
4.314780e-05 -1.688150e-05 1.126280e-08
4.314202e-05 -1.687916e-05 1.027023e-08
4.315969e-05 -1.688619e-05 1.134725e-08
4.315386e-05 -1.688384e-05 1.034721e-08
4.317167e-05 -1.689092e-05 1.143335e-08
4.316580e-05 -1.688855e-05 1.042579e-08
4.318996e-05 -1.689810e-05 -6.596465e-09
4.317783e-05 -1.689330e-05 1.050606e-08
4.318996e-05 -1.689808e-05 1.058825e-08
4.319593e-05 -1.690051e-05 -8.071256e-09
4.320819e-05 -1.690534e-05 1.170213e-08
4.320218e-05 -1.690291e-05 1.067218e-08
4.322058e-05 -1.691024e-05 -8.199380e-09
4.321451e-05 -1.690777e-05 1.075761e-08
4.323303e-05 -1.691515e-05 1.189048e-08
4.322693e-05 -1.691268e-05 1.084478e-08
4.324562e-05 -1.692012e-05 1.198745e-08
4.323947e-05 -1.691762e-05 1.093376e-08
4.325833e-05 -1.692514e-05 -8.401218e-09
4.325210e-05 -1.692261e-05 1.102447e-08
4.327113e-05 -1.693019e-05 -8.471108e-09
4.326485e-05 -1.692764e-05 1.111692e-08
4.328404e-05 -1.693529e-05 -8.542321e-09
4.327771e-05 -1.693271e-05 1.121111e-08
4.329704e-05 -1.694042e-05 1.239425e-08
4.329067e-05 -1.693783e-05 1.130706e-08
4.331017e-05 -1.694560e-05 1.250073e-08
4.330376e-05 -1.694299e-05 1.140478e-08
4.332343e-05 -1.695083e-05 1.260916e-08
4.331696e-05 -1.694820e-05 1.150428e-08
4.333681e-05 -1.695611e-05 1.271953e-08
4.333028e-05 -1.695346e-05 1.160559e-08
4.335031e-05 -1.696144e-05 1.283186e-08
4.334372e-05 -1.695876e-05 1.170873e-08
4.336393e-05 -1.696681e-05 1.294613e-08
4.335728e-05 -1.696411e-05 1.181371e-08
4.337771e-05 -1.697225e-05 -9.078314e-09
4.337097e-05 -1.696951e-05 1.192057e-08
4.339156e-05 -1.697771e-05 1.318033e-08
4.338479e-05 -1.697496e-05 1.202923e-08
4.339874e-05 -1.698046e-05 1.213979e-08
4.340560e-05 -1.698325e-05 -9.243036e-09
4.341974e-05 -1.698883e-05 -9.326831e-09
4.341282e-05 -1.698601e-05 1.225246e-08
4.343399e-05 -1.699444e-05 1.354396e-08
4.342703e-05 -1.699161e-05 1.236697e-08
4.344840e-05 -1.700012e-05 1.366741e-08
4.344138e-05 -1.699726e-05 1.248296e-08
4.346298e-05 -1.700585e-05 -9.581400e-09
4.345586e-05 -1.700296e-05 1.260049e-08
4.347766e-05 -1.701162e-05 -9.665557e-09
4.347048e-05 -1.700871e-05 1.271939e-08
4.349248e-05 -1.701743e-05 -9.748106e-09
4.348523e-05 -1.701450e-05 1.283912e-08
4.350739e-05 -1.702326e-05 1.415452e-08
4.350011e-05 -1.702033e-05 1.295908e-08
4.352247e-05 -1.702913e-05 1.426846e-08
4.351512e-05 -1.702619e-05 1.307843e-08
4.353766e-05 -1.703502e-05 1.437577e-08
4.353026e-05 -1.703207e-05 1.319606e-08
4.355297e-05 -1.704092e-05 1.447434e-08
4.354551e-05 -1.703797e-05 1.331059e-08
4.356838e-05 -1.704681e-05 1.456217e-08
4.356086e-05 -1.704387e-05 1.342040e-08
4.358391e-05 -1.705270e-05 -1.013776e-08
4.357630e-05 -1.704975e-05 1.352369e-08
4.359945e-05 -1.705853e-05 1.470023e-08
4.359182e-05 -1.705562e-05 1.361870e-08
4.361510e-05 -1.706435e-05 -1.019971e-08
4.360741e-05 -1.706145e-05 1.370376e-08
4.363077e-05 -1.707010e-05 -1.021728e-08
4.362304e-05 -1.706723e-05 1.377737e-08
4.364646e-05 -1.707581e-05 1.481056e-08
4.363871e-05 -1.707297e-05 1.383804e-08
4.366219e-05 -1.708147e-05 1.482182e-08
4.365439e-05 -1.707865e-05 1.388411e-08
4.367009e-05 -1.708429e-05 1.391391e-08
4.367791e-05 -1.708709e-05 -1.022038e-08
4.368579e-05 -1.708989e-05 1.392590e-08
4.369362e-05 -1.709266e-05 -1.020258e-08
4.370931e-05 -1.709819e-05 -1.017321e-08
4.370146e-05 -1.709544e-05 1.391808e-08
4.372500e-05 -1.710369e-05 1.470575e-08
4.371710e-05 -1.710096e-05 1.388860e-08
4.374059e-05 -1.710914e-05 1.462644e-08
4.373268e-05 -1.710643e-05 1.383649e-08
4.375608e-05 -1.711453e-05 1.452349e-08
4.374817e-05 -1.711185e-05 1.376086e-08
4.377146e-05 -1.711987e-05 1.439566e-08
4.376357e-05 -1.711722e-05 1.366085e-08
4.378669e-05 -1.712515e-05 1.424200e-08
4.377883e-05 -1.712253e-05 1.353590e-08
4.380164e-05 -1.713032e-05 -9.677369e-09
4.379393e-05 -1.712777e-05 1.338565e-08
4.381660e-05 -1.713548e-05 1.385449e-08
4.380885e-05 -1.713294e-05 1.320982e-08
4.383110e-05 -1.714046e-05 -9.369833e-09
4.382355e-05 -1.713802e-05 1.300825e-08
4.384546e-05 -1.714539e-05 -9.187466e-09
4.383800e-05 -1.714300e-05 1.278083e-08
4.385967e-05 -1.715025e-05 1.306705e-08
4.385218e-05 -1.714787e-05 1.252749e-08
4.387343e-05 -1.715494e-05 1.274879e-08
4.386605e-05 -1.715263e-05 1.224819e-08
4.388666e-05 -1.715943e-05 -8.524288e-09
4.387959e-05 -1.715725e-05 1.194293e-08
4.389967e-05 -1.716382e-05 -8.264321e-09
4.389276e-05 -1.716173e-05 1.161166e-08
4.391227e-05 -1.716806e-05 -7.984841e-09
4.390553e-05 -1.716606e-05 1.125432e-08
4.392977e-05 -1.717411e-05 -6.624284e-09
4.391788e-05 -1.717022e-05 1.087099e-08
4.394117e-05 -1.717789e-05 -6.352538e-09
4.392977e-05 -1.717419e-05 1.046183e-08
4.394753e-05 -1.717977e-05 1.024862e-08
4.394117e-05 -1.717798e-05 1.002661e-08
4.395818e-05 -1.718325e-05 9.733214e-09
4.395205e-05 -1.718157e-05 9.565099e-09
4.396828e-05 -1.718650e-05 9.189558e-09
4.396239e-05 -1.718494e-05 9.077506e-09
4.397749e-05 -1.718942e-05 -5.896471e-09
4.397214e-05 -1.718808e-05 8.563863e-09
4.398664e-05 -1.719230e-05 8.017409e-09
4.398127e-05 -1.719098e-05 8.024056e-09
4.399455e-05 -1.719471e-05 -5.043477e-09
4.398977e-05 -1.719363e-05 7.458048e-09
4.400205e-05 -1.719695e-05 -4.587641e-09
4.399759e-05 -1.719601e-05 6.865800e-09
4.400917e-05 -1.719903e-05 6.047366e-09
4.400471e-05 -1.719812e-05 6.247291e-09
4.401522e-05 -1.720070e-05 5.334604e-09
4.401109e-05 -1.719995e-05 5.602518e-09
4.402014e-05 -1.720195e-05 -3.104295e-09
4.401671e-05 -1.720147e-05 4.931507e-09
4.402459e-05 -1.720300e-05 -2.572207e-09
4.402153e-05 -1.720269e-05 4.234356e-09
4.402820e-05 -1.720373e-05 -2.022178e-09
4.402553e-05 -1.720359e-05 3.511244e-09
4.403133e-05 -1.720427e-05 2.213673e-09
4.402868e-05 -1.720416e-05 2.762492e-09
4.403320e-05 -1.720434e-05 1.370635e-09
4.403095e-05 -1.720440e-05 1.988613e-09
4.403414e-05 -1.720407e-05 5.057633e-10
4.403231e-05 -1.720430e-05 1.190391e-09
4.403415e-05 -1.720347e-05 -3.783090e-10
4.403275e-05 -1.720386e-05 3.689761e-10
4.403077e-05 -1.720181e-05 7.633122e-10
4.403224e-05 -1.720309e-05 -4.740265e-10
4.403077e-05 -1.720198e-05 -1.336554e-09
4.403084e-05 -1.720110e-05 1.578985e-09
4.402839e-05 -1.719968e-05 -3.109657e-09
4.402833e-05 -1.720055e-05 -2.215932e-09
4.402405e-05 -1.719763e-05 2.836541e-09
4.402491e-05 -1.719881e-05 -3.108784e-09
4.401918e-05 -1.719547e-05 3.462662e-09
4.402052e-05 -1.719679e-05 -4.011377e-09
4.401380e-05 -1.719320e-05 -5.872032e-09
4.401516e-05 -1.719449e-05 -4.919869e-09
4.400699e-05 -1.719052e-05 -6.786171e-09
4.400883e-05 -1.719193e-05 -5.830541e-09
4.399876e-05 -1.718744e-05 5.318471e-09
4.400154e-05 -1.718913e-05 -6.740032e-09
4.399003e-05 -1.718427e-05 5.932719e-09
4.399329e-05 -1.718608e-05 -7.645200e-09
4.398034e-05 -1.718086e-05 6.546303e-09
4.398410e-05 -1.718279e-05 -8.542793e-09
4.397014e-05 -1.717733e-05 -1.040822e-08
4.397396e-05 -1.717925e-05 -9.429237e-09
4.395854e-05 -1.717336e-05 -1.129928e-08
4.396287e-05 -1.717543e-05 -1.030070e-08
4.394600e-05 -1.716911e-05 -1.217756e-08
4.395084e-05 -1.717132e-05 -1.115338e-08
4.393254e-05 -1.716454e-05 -1.303861e-08
4.393788e-05 -1.716691e-05 -1.198386e-08
4.391817e-05 -1.715967e-05 -1.387830e-08
4.392401e-05 -1.716219e-05 -1.278925e-08
4.390255e-05 -1.715435e-05 1.010037e-08
4.390925e-05 -1.715716e-05 -1.356726e-08
4.388683e-05 -1.714899e-05 -1.548029e-08
4.389363e-05 -1.715183e-05 -1.431619e-08
4.386957e-05 -1.714308e-05 1.116853e-08
4.387718e-05 -1.714618e-05 -1.503479e-08
4.385188e-05 -1.713699e-05 1.167142e-08
4.385993e-05 -1.714023e-05 -1.572211e-08
4.382316e-05 -1.712735e-05 1.072376e-08
4.384191e-05 -1.713399e-05 -1.637769e-08
4.381460e-05 -1.712407e-05 -1.831636e-08
4.382315e-05 -1.712747e-05 -1.700156e-08
4.379447e-05 -1.711706e-05 1.304398e-08
4.380370e-05 -1.712068e-05 -1.759328e-08
4.377401e-05 -1.710990e-05 1.345480e-08
4.378360e-05 -1.711364e-05 -1.815236e-08
4.375294e-05 -1.710250e-05 1.384176e-08
4.376287e-05 -1.710635e-05 -1.867916e-08
4.373155e-05 -1.709497e-05 -2.061342e-08
4.374156e-05 -1.709884e-05 -1.917386e-08
4.370938e-05 -1.708714e-05 -2.110141e-08
4.371970e-05 -1.709111e-05 -1.963643e-08
4.368672e-05 -1.707912e-05 -2.155485e-08
4.369734e-05 -1.708318e-05 -2.006694e-08
4.366360e-05 -1.707093e-05 -2.197378e-08
4.367450e-05 -1.707507e-05 -2.046550e-08
4.364008e-05 -1.706257e-05 -2.235827e-08
4.365124e-05 -1.706679e-05 -2.083219e-08
4.361601e-05 -1.705401e-05 1.566071e-08
4.362758e-05 -1.705836e-05 -2.116711e-08
4.359194e-05 -1.704543e-05 -2.302416e-08
4.360356e-05 -1.704978e-05 -2.147034e-08
4.356727e-05 -1.703663e-05 1.607603e-08
4.357922e-05 -1.704108e-05 -2.174196e-08
4.354247e-05 -1.702778e-05 1.624807e-08
4.355460e-05 -1.703227e-05 -2.198204e-08
4.351756e-05 -1.701887e-05 -2.376632e-08
4.352974e-05 -1.702336e-05 -2.219064e-08
4.349234e-05 -1.700985e-05 -2.394554e-08
4.350466e-05 -1.701437e-05 -2.236783e-08
4.346688e-05 -1.700074e-05 1.662242e-08
4.347941e-05 -1.700532e-05 -2.251367e-08
4.344140e-05 -1.699162e-05 1.670025e-08
4.345403e-05 -1.699621e-05 -2.262805e-08
4.342854e-05 -1.698706e-05 -2.271122e-08
4.341584e-05 -1.698246e-05 1.675467e-08
4.337742e-05 -1.696870e-05 1.432470e-08
4.340299e-05 -1.697788e-05 -2.276369e-08
4.336462e-05 -1.696410e-05 -2.433578e-08
4.337741e-05 -1.696870e-05 -2.278516e-08
4.333900e-05 -1.695492e-05 -2.431443e-08
4.335183e-05 -1.695951e-05 -2.277529e-08
4.331344e-05 -1.694576e-05 -2.426109e-08
4.332630e-05 -1.695033e-05 -2.273478e-08
4.328797e-05 -1.693662e-05 -2.417659e-08
4.330084e-05 -1.694118e-05 -2.266412e-08
4.326262e-05 -1.692752e-05 -2.406205e-08
4.327548e-05 -1.693206e-05 -2.256362e-08
4.323748e-05 -1.691848e-05 1.651311e-08
4.325026e-05 -1.692297e-05 -2.243391e-08
4.321241e-05 -1.690945e-05 -2.374910e-08
4.322520e-05 -1.691394e-05 -2.227588e-08
4.318768e-05 -1.690053e-05 1.626801e-08
4.320034e-05 -1.690496e-05 -2.209069e-08
4.316302e-05 -1.689159e-05 -2.333838e-08
4.317569e-05 -1.689603e-05 -2.187982e-08
4.313869e-05 -1.688274e-05 -2.310266e-08
4.315127e-05 -1.688715e-05 -2.164508e-08
4.311474e-05 -1.687398e-05 1.579885e-08
4.312712e-05 -1.687832e-05 -2.138855e-08
4.309097e-05 -1.686522e-05 1.562200e-08
4.310323e-05 -1.686954e-05 -2.111248e-08
4.306749e-05 -1.685651e-05 1.543604e-08
4.307963e-05 -1.686080e-05 -2.081906e-08
4.304418e-05 -1.684778e-05 -2.200406e-08
4.305632e-05 -1.685210e-05 -2.051030e-08
4.302132e-05 -1.683915e-05 -2.169305e-08
4.303333e-05 -1.684345e-05 -2.018807e-08
4.299881e-05 -1.683058e-05 -2.136707e-08
4.301066e-05 -1.683485e-05 -1.985416e-08
4.297665e-05 -1.682208e-05 -2.102671e-08
4.298833e-05 -1.682631e-05 -1.951041e-08
4.294477e-05 -1.680955e-05 1.172665e-08
4.296636e-05 -1.681785e-05 -1.915910e-08
4.293345e-05 -1.680535e-05 -2.030969e-08
4.294477e-05 -1.680948e-05 -1.880278e-08
4.291259e-05 -1.679721e-05 1.385025e-08
4.292356e-05 -1.680122e-05 -1.844314e-08
4.289182e-05 -1.678908e-05 -1.956058e-08
4.290274e-05 -1.679308e-05 -1.808163e-08
4.287176e-05 -1.678120e-05 1.333024e-08
4.288232e-05 -1.678507e-05 -1.772015e-08
4.285180e-05 -1.677335e-05 -1.879807e-08
4.286231e-05 -1.677720e-05 -1.735998e-08
4.283240e-05 -1.676570e-05 -1.841616e-08
4.284271e-05 -1.676948e-05 -1.700183e-08
4.281356e-05 -1.675825e-05 1.253986e-08
4.282351e-05 -1.676190e-05 -1.664622e-08
4.280471e-05 -1.675448e-05 -1.629366e-08
4.279497e-05 -1.675091e-05 1.227757e-08
4.278632e-05 -1.674721e-05 -1.594463e-08
4.277679e-05 -1.674371e-05 1.201681e-08
4.275073e-05 -1.673320e-05 9.494347e-09
4.276832e-05 -1.674009e-05 -1.559906e-08
4.273353e-05 -1.672638e-05 9.283107e-09
4.275073e-05 -1.673313e-05 -1.525693e-08
4.271671e-05 -1.671972e-05 9.074163e-09
4.273352e-05 -1.672632e-05 -1.491838e-08
4.270027e-05 -1.671321e-05 8.867474e-09
4.271671e-05 -1.671966e-05 -1.458341e-08
4.268422e-05 -1.670685e-05 8.663007e-09
4.270027e-05 -1.671315e-05 -1.425198e-08
4.266854e-05 -1.670064e-05 8.460723e-09
4.268422e-05 -1.670679e-05 -1.392408e-08
4.266854e-05 -1.670057e-05 -1.359964e-08
4.266039e-05 -1.669759e-05 1.025520e-08
4.263830e-05 -1.668864e-05 8.062589e-09
4.265323e-05 -1.669450e-05 -1.327865e-08
4.263829e-05 -1.668858e-05 -1.296105e-08
4.263051e-05 -1.668574e-05 9.774260e-09
4.262372e-05 -1.668280e-05 -1.264681e-08
4.261612e-05 -1.668003e-05 9.537532e-09
4.259563e-05 -1.667171e-05 7.481108e-09
4.260950e-05 -1.667715e-05 -1.233590e-08
4.259563e-05 -1.667165e-05 -1.202830e-08
4.258840e-05 -1.666902e-05 9.071477e-09
4.258212e-05 -1.666628e-05 -1.172399e-08
4.257506e-05 -1.666372e-05 8.842116e-09
4.256895e-05 -1.666105e-05 -1.142293e-08
4.256207e-05 -1.665856e-05 8.615177e-09
4.254364e-05 -1.665105e-05 6.734477e-09
4.255613e-05 -1.665596e-05 -1.112512e-08
4.253149e-05 -1.664622e-05 6.552877e-09
4.254364e-05 -1.665099e-05 -1.083054e-08
4.251967e-05 -1.664152e-05 6.373283e-09
4.253149e-05 -1.664616e-05 -1.053918e-08
4.250817e-05 -1.663694e-05 6.195693e-09
4.251967e-05 -1.664146e-05 -1.025102e-08
4.249700e-05 -1.663249e-05 6.020101e-09
4.250817e-05 -1.663688e-05 -9.966040e-09
4.248615e-05 -1.662817e-05 5.846501e-09
4.249700e-05 -1.663243e-05 -9.684227e-09
4.248615e-05 -1.662811e-05 -9.405552e-09
4.248045e-05 -1.662606e-05 7.092613e-09
4.246540e-05 -1.661989e-05 5.505210e-09
4.247562e-05 -1.662391e-05 -9.129982e-09
4.246539e-05 -1.661984e-05 -8.857461e-09
4.246001e-05 -1.661791e-05 6.677586e-09
4.245548e-05 -1.661588e-05 -8.587924e-09
4.245026e-05 -1.661402e-05 6.472996e-09
4.243657e-05 -1.660839e-05 5.007639e-09
4.244587e-05 -1.661205e-05 -8.321276e-09
4.243657e-05 -1.660834e-05 -8.057394e-09
4.243166e-05 -1.660659e-05 6.068878e-09
4.242757e-05 -1.660475e-05 -7.796119e-09
4.242281e-05 -1.660306e-05 5.868946e-09
4.241886e-05 -1.660128e-05 -7.537252e-09
4.241426e-05 -1.659966e-05 5.670129e-09
4.240235e-05 -1.659476e-05 4.368100e-09
4.241046e-05 -1.659794e-05 -7.280562e-09
4.239453e-05 -1.659166e-05 4.211598e-09
4.240234e-05 -1.659471e-05 -7.025794e-09
4.238700e-05 -1.658868e-05 4.056082e-09
4.239453e-05 -1.659161e-05 -6.772685e-09
4.237977e-05 -1.658583e-05 3.901349e-09
4.238700e-05 -1.658863e-05 -6.520984e-09
4.237282e-05 -1.658309e-05 3.747198e-09
4.237977e-05 -1.658578e-05 -6.270471e-09
4.236617e-05 -1.658048e-05 3.593429e-09
4.237282e-05 -1.658304e-05 -6.020930e-09
4.236617e-05 -1.658043e-05 -5.772139e-09
4.236259e-05 -1.657923e-05 4.300098e-09
4.235372e-05 -1.657562e-05 3.286254e-09
4.235980e-05 -1.657794e-05 -5.523854e-09
4.235372e-05 -1.657557e-05 -5.275818e-09
4.235043e-05 -1.657448e-05 3.915844e-09
4.234792e-05 -1.657331e-05 -5.027775e-09
4.234477e-05 -1.657229e-05 3.724545e-09
4.233718e-05 -1.656920e-05 2.823964e-09
4.234241e-05 -1.657117e-05 -4.779488e-09
4.233718e-05 -1.656915e-05 -4.530755e-09
4.233431e-05 -1.656824e-05 3.342493e-09
4.233223e-05 -1.656724e-05 -4.281420e-09
4.232950e-05 -1.656638e-05 3.151333e-09
4.232757e-05 -1.656544e-05 -4.031352e-09
4.232498e-05 -1.656464e-05 2.959858e-09
4.231909e-05 -1.656223e-05 2.200718e-09
4.232319e-05 -1.656375e-05 -3.780458e-09
4.231528e-05 -1.656076e-05 2.043399e-09
4.231909e-05 -1.656218e-05 -3.528671e-09
4.231176e-05 -1.655941e-05 1.885446e-09
4.231528e-05 -1.656071e-05 -3.275941e-09
4.230852e-05 -1.655818e-05 1.726855e-09
4.231176e-05 -1.655936e-05 -3.022235e-09
4.230557e-05 -1.655705e-05 1.567623e-09
4.230852e-05 -1.655813e-05 -2.767530e-09
4.230291e-05 -1.655604e-05 1.407744e-09
4.230557e-05 -1.655700e-05 -2.511810e-09
4.230291e-05 -1.655599e-05 -2.255066e-09
4.230132e-05 -1.655559e-05 1.602935e-09
4.229846e-05 -1.655436e-05 1.086049e-09
4.230054e-05 -1.655509e-05 -1.997285e-09
4.229846e-05 -1.655431e-05 -1.738464e-09
4.229715e-05 -1.655402e-05 1.208537e-09
4.229667e-05 -1.655364e-05 -1.478589e-09
4.229551e-05 -1.655341e-05 1.010113e-09
4.229398e-05 -1.655269e-05 5.986047e-10
4.229518e-05 -1.655308e-05 -1.217655e-09
4.229398e-05 -1.655264e-05 -9.556461e-10
4.229311e-05 -1.655253e-05 6.107514e-10
4.229307e-05 -1.655232e-05 -6.925486e-10
4.229235e-05 -1.655226e-05 4.097908e-10
4.229247e-05 -1.655211e-05 -4.283450e-10
4.229189e-05 -1.655211e-05 2.079589e-10
4.229215e-05 -1.655210e-05 -6.080587e-11
4.229216e-05 -1.655202e-05 -1.630142e-10
4.229244e-05 -1.655225e-05 -2.274476e-10
4.229215e-05 -1.655205e-05 1.034675e-10
4.229304e-05 -1.655251e-05 -3.948477e-10
4.229244e-05 -1.655219e-05 3.711277e-10
4.229393e-05 -1.655289e-05 -5.630304e-10
4.229304e-05 -1.655246e-05 6.399937e-10
4.229513e-05 -1.655339e-05 -7.320280e-10
4.229393e-05 -1.655284e-05 9.100976e-10
4.229664e-05 -1.655401e-05 -9.018687e-10
4.229513e-05 -1.655334e-05 1.181459e-09
4.229664e-05 -1.655396e-05 1.454095e-09
4.229712e-05 -1.655438e-05 -1.229172e-09
4.230058e-05 -1.655561e-05 -1.244186e-09
4.229846e-05 -1.655470e-05 1.727997e-09
4.230058e-05 -1.655556e-05 2.003143e-09
4.230136e-05 -1.655610e-05 -1.646119e-09
4.230301e-05 -1.655654e-05 2.279445e-09
4.230395e-05 -1.655713e-05 -1.854809e-09
4.230880e-05 -1.655889e-05 -1.764281e-09
4.230576e-05 -1.655763e-05 2.556774e-09
4.230880e-05 -1.655884e-05 2.834886e-09
4.231004e-05 -1.655955e-05 -2.270396e-09
4.231216e-05 -1.656016e-05 3.113423e-09
4.231355e-05 -1.656092e-05 -2.475903e-09
4.231582e-05 -1.656159e-05 3.391861e-09
4.231736e-05 -1.656240e-05 -2.678610e-09
4.232404e-05 -1.656479e-05 -2.465802e-09
4.231978e-05 -1.656312e-05 3.669457e-09
4.232858e-05 -1.656650e-05 -2.640418e-09
4.232404e-05 -1.656474e-05 3.945231e-09
4.233340e-05 -1.656827e-05 -2.813351e-09
4.232858e-05 -1.656644e-05 4.217909e-09
4.233848e-05 -1.657010e-05 -2.983539e-09
4.233340e-05 -1.656822e-05 4.485949e-09
4.234382e-05 -1.657198e-05 -3.149717e-09
4.233848e-05 -1.657006e-05 4.747576e-09
4.234382e-05 -1.657194e-05 5.000901e-09
4.234620e-05 -1.657293e-05 -3.756291e-09
4.235516e-05 -1.657581e-05 -3.464373e-09
4.234938e-05 -1.657384e-05 5.244073e-09
4.235516e-05 -1.657577e-05 5.475386e-09
4.235780e-05 -1.657677e-05 -4.034955e-09
4.236731e-05 -1.657968e-05 -3.745689e-09
4.236114e-05 -1.657771e-05 5.693276e-09
4.236731e-05 -1.657965e-05 5.896177e-09
4.237017e-05 -1.658065e-05 -4.273592e-09
4.238014e-05 -1.658358e-05 -3.982011e-09
4.237365e-05 -1.658160e-05 6.082404e-09
4.238014e-05 -1.658355e-05 6.250100e-09
4.238322e-05 -1.658456e-05 -4.473513e-09
4.239355e-05 -1.658751e-05 -4.162653e-09
4.238678e-05 -1.658552e-05 6.397358e-09
4.239355e-05 -1.658750e-05 6.522363e-09
4.239681e-05 -1.658850e-05 -4.626440e-09
4.240042e-05 -1.658948e-05 6.623522e-09
4.240376e-05 -1.659049e-05 -4.681229e-09
4.240737e-05 -1.659148e-05 6.699503e-09
4.241079e-05 -1.659249e-05 -4.719480e-09
4.242143e-05 -1.659549e-05 -4.328679e-09
4.241438e-05 -1.659348e-05 6.749255e-09
4.242848e-05 -1.659748e-05 -4.326774e-09
4.242143e-05 -1.659549e-05 6.771967e-09
4.242848e-05 -1.659748e-05 6.767035e-09
4.243203e-05 -1.659846e-05 -4.722878e-09
4.244247e-05 -1.660140e-05 -4.269431e-09
4.243550e-05 -1.659946e-05 6.734011e-09
4.244247e-05 -1.660141e-05 6.672565e-09
4.244603e-05 -1.660235e-05 -4.623915e-09
4.245611e-05 -1.660516e-05 -4.140116e-09
4.244935e-05 -1.660333e-05 6.582437e-09
4.245610e-05 -1.660519e-05 6.463420e-09
4.245962e-05 -1.660606e-05 -4.438998e-09
4.246914e-05 -1.660867e-05 -3.938225e-09
4.246271e-05 -1.660699e-05 6.315312e-09
4.247534e-05 -1.661031e-05 -3.809818e-09
4.246913e-05 -1.660872e-05 6.137932e-09
4.247534e-05 -1.661035e-05 5.931065e-09
4.247866e-05 -1.661107e-05 -3.995242e-09
4.248696e-05 -1.661325e-05 -3.497334e-09
4.248129e-05 -1.661189e-05 5.694484e-09
4.248696e-05 -1.661331e-05 5.427941e-09
4.249007e-05 -1.661390e-05 -3.586611e-09
4.249230e-05 -1.661461e-05 5.131172e-09
4.249529e-05 -1.661511e-05 -3.348470e-09
4.249730e-05 -1.661576e-05 4.803933e-09
4.250013e-05 -1.661619e-05 -3.088158e-09
4.250609e-05 -1.661752e-05 -2.643337e-09
4.250190e-05 -1.661676e-05 4.446011e-09
4.250983e-05 -1.661819e-05 -2.380543e-09
4.250609e-05 -1.661761e-05 4.057326e-09
4.250983e-05 -1.661828e-05 3.637992e-09
4.251214e-05 -1.661845e-05 -2.182983e-09
4.251585e-05 -1.661903e-05 -1.794437e-09
4.251309e-05 -1.661879e-05 3.188475e-09
4.251585e-05 -1.661913e-05 2.709777e-09
4.251774e-05 -1.661912e-05 -1.496278e-09
4.251979e-05 -1.661924e-05 -1.129206e-09
4.251809e-05 -1.661931e-05 2.203712e-09
4.251979e-05 -1.661935e-05 1.673249e-09
4.252122e-05 -1.661920e-05 -7.834472e-10
4.252162e-05 -1.661904e-05 -3.942226e-10
4.252097e-05 -1.661928e-05 1.122975e-09
4.252179e-05 -1.661893e-05 -7.857880e-12
4.252162e-05 -1.661915e-05 5.596550e-10
4.252179e-05 -1.661902e-05 -7.090982e-12
4.252253e-05 -1.661891e-05 1.693063e-10
4.252093e-05 -1.661912e-05 7.724132e-10
4.252153e-05 -1.661900e-05 -5.640352e-10
4.252093e-05 -1.661919e-05 -1.093600e-09
4.252130e-05 -1.661939e-05 5.340934e-10
4.252011e-05 -1.661974e-05 -1.573275e-09
4.252035e-05 -1.662023e-05 5.657522e-10
4.251924e-05 -1.662084e-05 -1.975608e-09
4.251940e-05 -1.662173e-05 4.633578e-10
4.251813e-05 -1.662550e-05 1.999192e-09
4.251850e-05 -1.662268e-05 -2.269406e-09
4.251826e-05 -1.662938e-05 2.135921e-09
4.251812e-05 -1.662544e-05 -2.424140e-09
4.251831e-05 -1.662933e-05 -2.408697e-09
4.251871e-05 -1.663217e-05 -7.514438e-10
4.252132e-05 -1.664222e-05 1.991751e-09
4.251944e-05 -1.663483e-05 -2.216707e-09
VECTORS stress double
3.248237e+06 -2.539054e+03 -1.779474e+04
3.243297e+06 -1.080921e+03 -2.709556e+03
3.248992e+06 -1.782743e+02 3.022683e+03
3.256677e+06 4.444702e+02 1.139111e+03
3.254589e+06 2.136187e+02 -1.832262e+03
3.249018e+06 -2.340213e+01 -2.673998e+03
3.243877e+06 -2.611712e+02 -1.376321e+03
3.243617e+06 -3.065615e+02 1.362561e+03
3.248704e+06 -2.772406e+02 4.022201e+03
3.258474e+06 -2.463152e+02 6.475837e+03
3.272894e+06 -1.439240e+02 8.599234e+03
3.292168e+06 1.819995e+02 8.660419e+03
3.307512e+06 4.754709e+02 5.817007e+03
3.314949e+06 7.605436e+02 1.717695e+02
3.306464e+06 3.004868e+02 -5.558257e+03
3.292575e+06 -2.945125e+02 -5.483422e+03
3.283851e+06 -8.996781e+02 3.073051e+00
3.294043e+06 -8.712483e+02 1.028211e+04
3.324845e+06 -3.543848e+01 1.531915e+04
3.356026e+06 6.897534e+02 1.291626e+04
3.376071e+06 1.228197e+03 2.853250e+03
3.368295e+06 5.295439e+02 -5.989042e+03
3.351224e+06 -1.430380e+02 -7.638851e+03
3.336412e+06 -8.775204e+02 -2.416713e+03
3.341514e+06 -6.742507e+02 6.103739e+03
3.361489e+06 -2.252213e+02 1.085890e+04
3.387019e+06 2.048061e+02 1.137739e+04
3.409917e+06 4.217505e+02 7.897600e+03
3.422149e+06 4.830124e+02 3.410383e+03
3.424244e+06 5.570681e+02 -1.874039e+03
3.414094e+06 5.241499e+02 -7.601867e+03
3.390982e+06 2.857308e+02 -1.166171e+04
3.364246e+06 5.307319e+01 -1.287321e+04
3.335964e+06 -2.173647e+02 -1.148010e+04
3.313896e+06 -5.110412e+02 -7.275220e+03
3.304010e+06 -7.997451e+02 -2.413804e+02
3.311910e+06 -8.294359e+02 8.562192e+03
3.341099e+06 8.243899e+01 1.300161e+04
3.371258e+06 1.011260e+03 7.171752e+03
3.374309e+06 1.514938e+03 -7.646420e+03
3.339225e+06 5.893898e+02 -1.826045e+04
3.290615e+06 -4.897547e+02 -1.759935e+04
3.260279e+06 -1.175869e+03 -6.992421e+03
3.259820e+06 -5.614955e+02 2.789640e+03
3.273583e+06 7.549532e+01 5.590380e+03
3.284558e+06 3.605707e+02 2.232973e+03
3.284953e+06 1.058389e+02 -3.642645e+02
3.282667e+06 -1.460407e+02 -1.407594e+02
3.285003e+06 -2.137316e+02 2.454504e+03
3.293415e+06 -1.345921e+02 4.460129e+03
3.306328e+06 -5.243041e+01 5.684949e+03
3.321064e+06 -5.614345e+01 6.413345e+03
3.337872e+06 -7.627294e+01 7.403834e+03
3.359192e+06 -8.936660e+00 8.603277e+03
3.380959e+06 3.505756e+02 6.758396e+03
3.392665e+06 7.299495e+02 -1.599692e+02
3.376617e+06 5.750408e+02 -1.016190e+04
3.341263e+06 1.241825e+02 -1.402829e+04
3.302903e+06 -2.796568e+02 -1.170979e+04
3.290629e+06 -2.703329e+02 -9.944777e+03
3.290718e+06 5.402080e+01 -9.675825e+03
3.289334e+06 5.238518e+01 -9.468236e+03
3.287980e+06 5.082014e+01 -9.262684e+03
3.286657e+06 4.931730e+01 -9.059163e+03
3.285363e+06 4.787053e+01 -8.857666e+03
3.282864e+06 4.512359e+01 -8.460698e+03
3.281657e+06 4.381591e+01 -8.265204e+03
3.280480e+06 4.254798e+01 -8.071687e+03
3.279330e+06 4.131802e+01 -7.880137e+03
3.278208e+06 4.012413e+01 -7.690542e+03
3.277115e+06 3.896450e+01 -7.502894e+03
3.273809e+06 -2.469433e+02 -7.161389e+03
3.273996e+06 3.568222e+01 -6.951542e+03
3.273009e+06 3.465006e+01 -6.771596e+03
3.272049e+06 3.364661e+01 -6.593558e+03
3.271115e+06 3.267197e+01 -6.417420e+03
3.270206e+06 3.172398e+01 -6.243176e+03
3.268464e+06 2.990474e+01 -5.900348e+03
3.267630e+06 2.902972e+01 -5.731751e+03
3.266821e+06 2.817605e+01 -5.565021e+03
3.266035e+06 2.734142e+01 -5.400151e+03
3.265274e+06 2.652367e+01 -5.237128e+03
3.264536e+06 2.572078e+01 -5.075941e+03
3.263821e+06 2.493014e+01 -4.916569e+03
3.261551e+06 -2.169976e+02 -4.602681e+03
3.261813e+06 2.262442e+01 -4.449037e+03
3.261187e+06 2.188451e+01 -4.296540e+03
3.260583e+06 2.117616e+01 -4.145552e+03
3.260000e+06 2.052940e+01 -3.995892e+03
3.259438e+06 1.999516e+01 -3.847278e+03
3.258897e+06 1.960486e+01 -3.699326e+03
3.258375e+06 1.933231e+01 -3.551638e+03
3.257395e+06 1.894598e+01 -3.255959e+03
3.256936e+06 1.877958e+01 -3.107649e+03
3.256498e+06 1.861806e+01 -2.958904e+03
3.256082e+06 1.845846e+01 -2.809671e+03
3.255687e+06 1.830107e+01 -2.659914e+03
3.255313e+06 1.814667e+01 -2.509609e+03
3.254961e+06 1.799692e+01 -2.358738e+03
3.254631e+06 1.785369e+01 -2.207289e+03
3.254323e+06 1.771825e+01 -2.055253e+03
3.253772e+06 1.747779e+01 -1.749398e+03
3.253530e+06 1.737537e+01 -1.595570e+03
3.253310e+06 1.728585e+01 -1.441136e+03
3.253112e+06 1.721049e+01 -1.286094e+03
3.252937e+06 1.714935e+01 -1.130441e+03
3.252784e+06 1.710391e+01 -9.741730e+02
3.252653e+06 1.707397e+01 -8.172867e+02
3.252545e+06 1.706040e+01 -6.597789e+02
3.252460e+06 1.706326e+01 -5.016452e+02
3.252357e+06 1.712228e+01 -1.834824e+02
3.252341e+06 1.717955e+01 -2.344268e+01
3.252347e+06 1.725683e+01 1.372436e+02
3.252376e+06 1.735591e+01 2.985830e+02
3.252428e+06 1.747816e+01 4.605822e+02
3.252504e+06 1.762680e+01 6.232484e+02
3.252603e+06 1.780479e+01 7.865880e+02
3.252725e+06 1.801691e+01 9.506068e+02
3.252871e+06 1.826806e+01 1.115309e+03
3.253040e+06 1.856568e+01 1.280694e+03
3.253233e+06 1.891768e+01 1.446756e+03
3.253450e+06 1.933347e+01 1.613482e+03
3.253445e+06 -2.458688e+02 2.067307e+03
3.254245e+06 2.107807e+01 2.117250e+03
3.254560e+06 2.186228e+01 2.286096e+03
3.254899e+06 2.275901e+01 2.455144e+03
3.255265e+06 2.376046e+01 2.624111e+03
3.255657e+06 2.483659e+01 2.792561e+03
3.256078e+06 2.590996e+01 2.959821e+03
3.256526e+06 2.681146e+01 3.124825e+03
3.257004e+06 2.721169e+01 3.285886e+03
3.257512e+06 2.673963e+01 3.440480e+03
3.258048e+06 2.536071e+01 3.585599e+03
3.258611e+06 2.340986e+01 3.718638e+03
3.259196e+06 2.122171e+01 3.837822e+03
3.259801e+06 1.896878e+01 3.942024e+03
3.260423e+06 1.672946e+01 4.030522e+03
3.261872e+06 -5.201613e+01 4.256876e+03
3.262357e+06 1.028326e+01 4.197809e+03
3.263015e+06 8.212936e+00 4.220091e+03
3.263676e+06 6.163258e+00 4.225422e+03
3.264336e+06 4.122683e+00 4.213730e+03
3.264993e+06 2.080636e+00 4.184960e+03
3.265645e+06 2.761830e-02 4.139073e+03
3.266289e+06 -2.043057e+00 4.076034e+03
3.266923e+06 -4.138234e+00 3.995813e+03
3.267545e+06 -6.262740e+00 3.898379e+03
3.268151e+06 -8.422686e+00 3.783702e+03
3.268740e+06 -1.062366e+01 3.651746e+03
3.269309e+06 -1.287379e+01 3.502472e+03
3.269857e+06 -1.518444e+01 3.335837e+03
3.270379e+06 -1.757103e+01 3.151796e+03
3.270875e+06 -2.005605e+01 2.950303e+03
3.271342e+06 -2.266899e+01 2.731317e+03
3.271777e+06 -2.545129e+01 2.494807e+03
3.272178e+06 -2.845541e+01 2.240768e+03
3.272543e+06 -3.174975e+01 1.969236e+03
3.272869e+06 -3.541763e+01 1.680311e+03
3.273153e+06 -3.956098e+01 1.374198e+03
3.273392e+06 -4.429584e+01 1.051255e+03
3.273581e+06 -4.975040e+01 7.120579e+02
3.273718e+06 -5.605616e+01 3.575012e+02
3.273795e+06 -6.333035e+01 -1.107818e+01
3.273805e+06 -7.165176e+01 -3.917200e+02
3.273740e+06 -8.101382e+01 -7.815855e+02
3.273589e+06 -9.125552e+01 -1.176574e+03
3.273336e+06 -1.019350e+02 -1.570724e+03
3.272964e+06 -1.121073e+02 -1.955227e+03
3.272453e+06 -1.198376e+02 -2.316727e+03
3.271782e+06 -1.208389e+02 -2.634423e+03
3.270924e+06 -1.109236e+02 -2.881411e+03
3.269892e+06 -8.788026e+01 -3.008307e+03
3.268907e+06 -2.819870e+00 -2.866808e+03
3.267438e+06 -7.429626e+01 -2.491333e+03
3.256116e+06 -1.258022e+03 -8.235712e+02
3.261155e+06 -7.702721e+01 4.208536e+03
3.253172e+06 -2.449936e+02 1.896229e+03
3.266143e+06 -2.550279e+02 -1.485830e+03
3.251766e+06 -2.328766e+02 -2.679556e+02
3.268766e+06 -2.431033e+03 -1.131050e+02
3.253317e+06 -2.226198e+02 -1.857546e+03
3.270258e+06 -2.316648e+03 -2.215826e+01
3.257073e+06 -2.113501e+02 -3.387063e+03
3.262202e+06 -2.190634e+02 -4.760253e+03
3.271025e+06 -2.141946e+03 -5.988556e-01
3.268243e+06 -2.355285e+02 -6.086766e+03
3.274829e+06 -2.487569e+02 -7.347265e+03
3.269674e+06 -2.522917e+03 -1.589722e+02
3.282731e+06 -2.607715e+02 -8.703571e+03
3.268799e+06 -2.357322e+03 1.223285e+02
3.292051e+06 -2.718798e+02 -1.015884e+04
3.256129e+06 -1.268516e+03 8.300583e+02
3.293503e+06 -2.734045e+02 -1.037494e+04
3.294988e+06 -2.748915e+02 -1.059306e+04
3.261595e+06 -2.034079e+03 1.927107e+03
3.270656e+06 -2.365763e+03 -9.164007e+01
3.296504e+06 -2.763128e+02 -1.081312e+04
3.267449e+06 -5.327455e+01 2.524561e+03
3.298052e+06 -2.776192e+02 -1.103503e+04
3.268742e+06 -1.356049e+01 2.907213e+03
3.299634e+06 -2.787255e+02 -1.125863e+04
3.269879e+06 -8.262668e+01 3.016463e+03
3.301250e+06 -2.794876e+02 -1.148368e+04
3.270911e+06 -1.113577e+02 2.887853e+03
3.304594e+06 -2.788015e+02 -1.193634e+04
3.306328e+06 -2.761671e+02 -1.216232e+04
3.272441e+06 -1.197508e+02 2.318977e+03
3.308111e+06 -2.704265e+02 -1.238610e+04
3.272952e+06 -1.118806e+02 1.956620e+03
3.309950e+06 -2.594089e+02 -1.260501e+04
3.273323e+06 -1.016143e+02 1.571559e+03
3.311849e+06 -2.421489e+02 -1.281540e+04
3.273576e+06 -9.089205e+01 1.177070e+03
3.313800e+06 -2.202934e+02 -1.301381e+04
3.273728e+06 -8.063367e+01 7.818853e+02
3.315794e+06 -1.958665e+02 -1.319780e+04
3.273792e+06 -7.126419e+01 3.919061e+02
3.317822e+06 -1.700251e+02 -1.336586e+04
3.273781e+06 -6.293811e+01 1.119413e+01
3.319879e+06 -1.434328e+02 -1.351707e+04
3.273704e+06 -5.566011e+01 -3.574321e+02
3.321961e+06 -1.164723e+02 -1.365080e+04
3.273568e+06 -4.935109e+01 -7.120229e+02
3.324063e+06 -8.936738e+01 -1.376665e+04
3.273378e+06 -4.389408e+01 -1.051246e+03
3.326183e+06 -6.225003e+01 -1.386435e+04
3.273140e+06 -3.915754e+01 -1.374211e+03
3.328317e+06 -3.519824e+01 -1.394370e+04
3.330463e+06 -8.258480e+00 -1.400456e+04
3.272530e+06 -3.134618e+01 -1.969277e+03
3.332616e+06 1.854314e+01 -1.404681e+04
3.272165e+06 -2.805289e+01 -2.240819e+03
3.334776e+06 4.519206e+01 -1.407037e+04
3.336939e+06 7.168232e+01 -1.407518e+04
3.271329e+06 -2.227068e+01 -2.731380e+03
3.339102e+06 9.801192e+01 -1.406117e+04
3.270863e+06 -1.965999e+01 -2.950369e+03
3.343418e+06 1.501970e+02 -1.397651e+04
3.270367e+06 -1.717788e+01 -3.151864e+03
3.345567e+06 1.760602e+02 -1.390576e+04
3.269844e+06 -1.479432e+01 -3.335906e+03
3.347704e+06 2.017767e+02 -1.381601e+04
3.269297e+06 -1.248662e+01 -3.502541e+03
3.349829e+06 2.273522e+02 -1.370723e+04
3.268728e+06 -1.023928e+01 -3.651816e+03
3.351938e+06 2.527928e+02 -1.357935e+04
3.268139e+06 -8.041583e+00 -3.783771e+03
3.354028e+06 2.781051e+02 -1.343235e+04
3.267533e+06 -5.884845e+00 -3.898448e+03
3.356096e+06 3.032954e+02 -1.326618e+04
3.266911e+06 -3.763369e+00 -3.995881e+03
3.358140e+06 3.283714e+02 -1.308080e+04
3.266277e+06 -1.671031e+00 -4.076101e+03
3.360157e+06 3.533410e+02 -1.287617e+04
3.362144e+06 3.782129e+02 -1.265225e+04
3.264981e+06 2.446595e+00 -4.185025e+03
3.364098e+06 4.029971e+02 -1.240900e+04
3.366016e+06 4.277038e+02 -1.214637e+04
3.367896e+06 4.523452e+02 -1.186434e+04
3.263004e+06 8.571080e+00 -4.220152e+03
3.369734e+06 4.769336e+02 -1.156286e+04
3.262346e+06 1.063894e+01 -4.197868e+03
3.371529e+06 5.014830e+02 -1.124191e+04
3.373276e+06 5.260078e+02 -1.090144e+04
3.374973e+06 5.505226e+02 -1.054145e+04
3.260412e+06 1.707848e+01 -4.030574e+03
3.378205e+06 5.995733e+02 -9.762796e+03
3.259790e+06 1.931581e+01 -3.942073e+03
3.379735e+06 6.241264e+02 -9.344154e+03
3.259185e+06 2.156633e+01 -3.837868e+03
3.381203e+06 6.486964e+02 -8.906013e+03
3.258600e+06 2.375255e+01 -3.718681e+03
3.382607e+06 6.732642e+02 -8.448453e+03
3.258038e+06 2.570154e+01 -3.585639e+03
3.383942e+06 6.977836e+02 -7.971611e+03
3.385206e+06 7.221628e+02 -7.475710e+03
3.256994e+06 2.754893e+01 -3.285917e+03
3.386394e+06 7.462333e+02 -6.961101e+03
3.256516e+06 2.714741e+01 -3.124853e+03
3.387502e+06 7.696922e+02 -6.428335e+03
3.388523e+06 7.920003e+02 -5.878281e+03
3.255647e+06 2.517003e+01 -2.792583e+03
3.389451e+06 8.121959e+02 -5.312332e+03
3.390274e+06 8.285624e+02 -4.732755e+03
3.254889e+06 2.308984e+01 -2.455160e+03
3.390977e+06 8.380060e+02 -4.143313e+03
3.254549e+06 2.219231e+01 -2.286110e+03
3.391547e+06 8.372436e+02 -3.549711e+03
3.254235e+06 2.140703e+01 -2.117262e+03
3.391987e+06 8.271583e+02 -2.958406e+03
3.392312e+06 8.115349e+02 -2.374469e+03
3.253680e+06 2.015146e+01 -1.780853e+03
3.392535e+06 7.928812e+02 -1.801059e+03
3.253439e+06 1.966000e+01 -1.613490e+03
3.392664e+06 7.725984e+02 -1.240108e+03
3.253223e+06 1.924342e+01 -1.446763e+03
3.392706e+06 7.514734e+02 -6.928214e+02
3.253030e+06 1.889106e+01 -1.280700e+03
3.392545e+06 7.082768e+02 3.579474e+02
3.252860e+06 1.859299e+01 -1.115315e+03
3.392350e+06 6.865948e+02 8.605980e+02
3.252715e+06 1.834135e+01 -9.506128e+02
3.392082e+06 6.649791e+02 1.347762e+03
3.252592e+06 1.812893e+01 -7.865940e+02
3.391745e+06 6.434671e+02 1.819294e+03
3.252493e+06 1.795056e+01 -6.232546e+02
3.391339e+06 6.220731e+02 2.275097e+03
3.390868e+06 6.007979e+02 2.715109e+03
3.390334e+06 5.796346e+02 3.139291e+03
3.252336e+06 1.757984e+01 -1.372509e+02
3.389739e+06 5.585719e+02 3.547620e+03
3.252330e+06 1.750237e+01 2.343488e+01
3.389086e+06 5.375963e+02 3.940082e+03
3.388377e+06 5.166938e+02 4.316673e+03
3.252387e+06 1.740605e+01 3.428726e+02
3.387614e+06 4.958501e+02 4.677391e+03
3.252449e+06 1.738544e+01 5.016360e+02
3.386799e+06 4.750520e+02 5.022239e+03
3.252535e+06 1.738181e+01 6.597692e+02
3.385935e+06 4.542869e+02 5.351221e+03
3.252643e+06 1.739552e+01 8.172765e+02
3.385024e+06 4.335429e+02 5.664343e+03
3.384069e+06 4.128094e+02 5.961613e+03
3.252926e+06 1.747040e+01 1.130430e+03
3.383071e+06 3.920766e+02 6.243038e+03
3.253102e+06 1.753106e+01 1.286083e+03
3.382034e+06 3.713348e+02 6.508629e+03
3.253300e+06 1.760611e+01 1.441124e+03
3.379848e+06 3.297906e+02 6.992348e+03
3.253520e+06 1.769555e+01 1.595557e+03
3.378705e+06 3.089723e+02 7.210499e+03
3.377532e+06 2.881130e+02 7.412859e+03
3.254026e+06 1.791204e+01 1.902610e+03
3.376330e+06 2.672054e+02 7.599443e+03
3.254313e+06 1.803753e+01 2.055238e+03
3.375102e+06 2.462429e+02 7.770265e+03
3.254621e+06 1.817260e+01 2.207273e+03
3.373851e+06 2.252183e+02 7.925339e+03
3.254951e+06 1.831565e+01 2.358722e+03
3.372578e+06 2.041264e+02 8.064685e+03
3.255303e+06 1.846509e+01 2.509592e+03
3.371286e+06 1.829616e+02 8.188323e+03
3.255676e+06 1.861912e+01 2.659897e+03
3.369977e+06 1.617206e+02 8.296278e+03
3.256071e+06 1.877632e+01 2.809653e+03
3.368654e+06 1.404025e+02 8.388582e+03
3.256488e+06 1.893550e+01 2.958885e+03
3.367319e+06 1.190109e+02 8.465278e+03
3.365974e+06 9.755683e+01 8.526423e+03
3.364622e+06 7.606147e+01 8.572098e+03
3.257865e+06 1.944087e+01 3.403892e+03
3.363265e+06 5.456488e+01 8.602415e+03
3.258365e+06 1.964839e+01 3.551615e+03
3.361905e+06 3.313727e+01 8.617537e+03
3.360547e+06 1.190008e+01 8.617704e+03
3.259428e+06 2.031021e+01 3.847254e+03
3.357846e+06 -2.900703e+01 8.574812e+03
3.356513e+06 -4.766913e+01 8.533192e+03
3.260573e+06 2.149052e+01 4.145525e+03
3.355201e+06 -6.378525e+01 8.479844e+03
3.261177e+06 2.219846e+01 4.296512e+03
3.353917e+06 -7.555946e+01 8.417072e+03
3.261803e+06 2.293787e+01 4.449009e+03
3.352666e+06 -8.236631e+01 8.347874e+03
3.351442e+06 -8.563822e+01 8.274986e+03
3.263119e+06 2.446348e+01 4.758958e+03
3.350239e+06 -8.691573e+01 8.200245e+03
3.263811e+06 2.524241e+01 4.916538e+03
3.349054e+06 -8.706492e+01 8.124760e+03
3.264526e+06 2.603230e+01 5.075909e+03
3.347884e+06 -8.657608e+01 8.049211e+03
3.346727e+06 -8.572876e+01 7.974020e+03
3.266025e+06 2.765199e+01 5.400117e+03
3.345582e+06 -8.468355e+01 7.899457e+03
3.266811e+06 2.848621e+01 5.564987e+03
3.344449e+06 -8.353383e+01 7.825691e+03
3.267620e+06 2.933956e+01 5.731716e+03
3.343327e+06 -8.233336e+01 7.752834e+03
3.342215e+06 -8.111343e+01 7.680954e+03
3.269312e+06 3.111063e+01 6.070786e+03
3.341114e+06 -7.989096e+01 7.610094e+03
3.340023e+06 -7.867470e+01 7.540280e+03
3.271105e+06 3.297938e+01 6.417383e+03
3.338942e+06 -7.746849e+01 7.471525e+03
3.272039e+06 3.395370e+01 6.593520e+03
3.336811e+06 -7.508737e+01 7.337209e+03
3.272999e+06 3.495622e+01 6.771559e+03
3.335759e+06 -7.390953e+01 7.271647e+03
3.273986e+06 3.598800e+01 6.951504e+03
3.334718e+06 -7.273798e+01 7.207145e+03
3.333685e+06 -7.157011e+01 7.143698e+03
3.276038e+06 3.814336e+01 7.317144e+03
3.332663e+06 -7.040426e+01 7.081302e+03
3.277105e+06 3.926885e+01 7.502854e+03
3.331649e+06 -6.923873e+01 7.019952e+03
3.330644e+06 -6.807212e+01 6.959646e+03
3.279320e+06 4.162116e+01 7.880096e+03
3.329648e+06 -6.690306e+01 6.900378e+03
3.280470e+06 4.285057e+01 8.071646e+03
3.328662e+06 -6.573060e+01 6.842147e+03
3.281648e+06 4.411786e+01 8.265162e+03
3.327683e+06 -6.455396e+01 6.784948e+03
3.282854e+06 4.542507e+01 8.460656e+03
3.326713e+06 -6.337250e+01 6.728781e+03
3.325752e+06 -6.218516e+01 6.673643e+03
3.285353e+06 4.817098e+01 8.857623e+03
3.324798e+06 -6.099179e+01 6.619533e+03
3.286647e+06 4.961748e+01 9.059120e+03
3.323853e+06 -5.979133e+01 6.566449e+03
3.287971e+06 5.111953e+01 9.262640e+03
3.322916e+06 -5.858370e+01 6.514390e+03
3.289324e+06 5.268421e+01 9.468193e+03
3.321986e+06 -5.736795e+01 6.463356e+03
3.290708e+06 5.431964e+01 9.675782e+03
3.320149e+06 -5.490990e+01 6.364355e+03
3.319242e+06 -5.366720e+01 6.316385e+03
3.318342e+06 -5.241553e+01 6.269431e+03
3.317449e+06 -5.115619e+01 6.223486e+03
3.316563e+06 -4.989153e+01 6.178542e+03
3.315683e+06 -4.862655e+01 6.134586e+03
3.314810e+06 -4.736966e+01 6.091596e+03
3.301282e+06 6.869556e+01 1.118359e+04
3.313943e+06 -4.613642e+01 6.049541e+03
3.302926e+06 7.127739e+01 1.140545e+04
3.313082e+06 -4.495149e+01 6.008372e+03
3.312227e+06 -4.385907e+01 5.968016e+03
3.311377e+06 -4.293398e+01 5.928359e+03
3.310531e+06 -4.230686e+01 5.889217e+03
3.309688e+06 -4.220594e+01 5.850300e+03
3.308847e+06 -4.303466e+01 5.811127e+03
3.308006e+06 -4.516980e+01 5.770991e+03
3.307165e+06 -4.845568e+01 5.729126e+03
3.305495e+06 -5.679987e+01 5.638099e+03
3.304669e+06 -6.139682e+01 5.588359e+03
3.303849e+06 -6.612580e+01 5.535592e+03
3.303037e+06 -7.093123e+01 5.479714e+03
3.302233e+06 -7.578083e+01 5.420670e+03
3.301438e+06 -8.065583e+01 5.358427e+03
3.300653e+06 -8.554491e+01 5.292963e+03
3.299877e+06 -9.044153e+01 5.224267e+03
3.299111e+06 -9.534238e+01 5.152330e+03
3.298357e+06 -1.002453e+02 5.077151e+03
3.337955e+06 6.218931e+01 1.383504e+04
3.297614e+06 -1.051492e+02 4.998727e+03
3.340047e+06 5.988012e+01 1.381210e+04
3.296882e+06 -1.100537e+02 4.917059e+03
3.296162e+06 -1.149592e+02 4.832149e+03
3.295456e+06 -1.198654e+02 4.744000e+03
3.294762e+06 -1.247730e+02 4.652612e+03
3.294081e+06 -1.296818e+02 4.557988e+03
3.292763e+06 -1.395042e+02 4.359037e+03
3.292125e+06 -1.444181e+02 4.254714e+03
3.291503e+06 -1.493343e+02 4.147158e+03
3.290897e+06 -1.542529e+02 4.036372e+03
3.290307e+06 -1.591745e+02 3.922354e+03
3.289733e+06 -1.640995e+02 3.805103e+03
3.289177e+06 -1.690287e+02 3.684618e+03
3.288638e+06 -1.739634e+02 3.560896e+03
3.288116e+06 -1.789044e+02 3.433936e+03
3.287613e+06 -1.838528e+02 3.303735e+03
3.287129e+06 -1.888103e+02 3.170291e+03
3.286664e+06 -1.937776e+02 3.033603e+03
3.286218e+06 -1.987557e+02 2.893672e+03
3.374407e+06 -6.259939e+00 1.018057e+04
3.285793e+06 -2.037433e+02 2.750504e+03
3.285388e+06 -2.087375e+02 2.604108e+03
3.284641e+06 -2.187125e+02 2.301724e+03
3.284300e+06 -2.236566e+02 2.145822e+03
3.283981e+06 -2.285241e+02 1.986880e+03
3.283687e+06 -2.332462e+02 1.825026e+03
3.283416e+06 -2.377081e+02 1.660457e+03
3.283172e+06 -2.417111e+02 1.493482e+03
3.282957e+06 -2.449148e+02 1.324586e+03
3.282772e+06 -2.467254e+02 1.154547e+03
3.282624e+06 -2.461025e+02 9.846298e+02
3.282517e+06 -2.414967e+02 8.168580e+02
3.282454e+06 -2.325519e+02 6.538025e+02
3.282427e+06 -2.206198e+02 4.977456e+02
3.282430e+06 -2.069832e+02 3.502062e+02
3.282459e+06 -1.923698e+02 2.121091e+02
3.282510e+06 -1.771970e+02 8.402903e+01
3.282580e+06 -1.617068e+02 -3.367139e+01
3.390668e+06 -6.188578e+01 9.527109e+02
3.282768e+06 -1.302824e+02 -2.370844e+02
3.390730e+06 -5.948291e+01 4.215046e+02
3.282883e+06 -1.144811e+02 -3.225475e+02
3.283009e+06 -9.866615e+01 -3.970851e+02
3.283145e+06 -8.285417e+01 -4.606558e+02
3.283288e+06 -6.705466e+01 -5.132344e+02
3.283438e+06 -5.127117e+01 -5.548049e+02
3.283593e+06 -3.550584e+01 -5.853587e+02
3.283751e+06 -1.975807e+01 -6.048916e+02
3.283911e+06 -4.026346e+00 -6.134009e+02
3.284071e+06 1.169090e+01 -6.108862e+02
3.284230e+06 2.739656e+01 -5.973471e+02
3.284387e+06 4.309254e+01 -5.727833e+02
3.284538e+06 5.878171e+01 -5.371947e+02
3.284684e+06 7.446727e+01 -4.905797e+02
3.284823e+06 9.015176e+01 -4.329372e+02
3.285072e+06 1.215327e+02 -2.845585e+02
3.285179e+06 1.372377e+02 -1.938156e+02
3.285272e+06 1.529588e+02 -9.203076e+01
3.381582e+06 -1.504263e+01 -6.270768e+03
3.285350e+06 1.687020e+02 2.080059e+01
3.380583e+06 -1.231506e+01 -6.524255e+03
3.285412e+06 1.844745e+02 1.446840e+02
3.285456e+06 2.002829e+02 2.796242e+02
3.285479e+06 2.161355e+02 4.256239e+02
3.285482e+06 2.320400e+02 5.826839e+02
3.285462e+06 2.480036e+02 7.507989e+02
3.285419e+06 2.640303e+02 9.299549e+02
3.285349e+06 2.801211e+02 1.120124e+03
3.285252e+06 2.962679e+02 1.321258e+03
3.285127e+06 3.124500e+02 1.533275e+03
3.284971e+06 3.286242e+02 1.756048e+03
3.284782e+06 3.447108e+02 1.989381e+03
3.284296e+06 3.759630e+02 2.486368e+03
3.283992e+06 3.904741e+02 2.748864e+03
3.283641e+06 4.033885e+02 3.019373e+03
3.283236e+06 4.134621e+02 3.296173e+03
3.282765e+06 4.185234e+02 3.576499e+03
3.361230e+06 2.597838e+01 -8.475588e+03
3.282214e+06 4.147769e+02 3.855828e+03
3.359932e+06 2.813704e+01 -8.468628e+03
3.281570e+06 3.991542e+02 4.127653e+03
3.280844e+06 3.735077e+02 4.385153e+03
3.280053e+06 3.419506e+02 4.623258e+03
3.279212e+06 3.070017e+02 4.838854e+03
3.278332e+06 2.700960e+02 5.030027e+03
3.277421e+06 2.320558e+02 5.195591e+03
3.276485e+06 1.933541e+02 5.334798e+03
3.275530e+06 1.542654e+02 5.447176e+03
3.274561e+06 1.149485e+02 5.532431e+03
3.272599e+06 3.595739e+01 5.620918e+03
3.271613e+06 -3.637515e+00 5.623990e+03
3.270631e+06 -4.327560e+01 5.599578e+03
3.269655e+06 -8.295154e+01 5.547682e+03
3.268689e+06 -1.226636e+02 5.468320e+03
3.267737e+06 -1.624126e+02 5.361514e+03
3.266803e+06 -2.021984e+02 5.227293e+03
3.265890e+06 -2.420213e+02 5.065687e+03
3.339724e+06 2.557747e+01 -7.383274e+03
3.265003e+06 -2.818797e+02 4.876724e+03
3.338644e+06 2.508147e+01 -7.316093e+03
3.264145e+06 -3.217710e+02 4.660431e+03
3.263320e+06 -3.616911e+02 4.416828e+03
3.262531e+06 -4.016344e+02 4.145936e+03
3.261783e+06 -4.415945e+02 3.847766e+03
3.261080e+06 -4.815635e+02 3.522327e+03
3.260424e+06 -5.215335e+02 3.169620e+03
3.259271e+06 -6.014404e+02 2.382378e+03
3.258781e+06 -6.413585e+02 1.947815e+03
3.258354e+06 -6.812406e+02 1.485931e+03
3.257994e+06 -7.210761e+02 9.966984e+02
3.257704e+06 -7.608528e+02 4.800886e+02
3.257487e+06 -8.005573e+02 -6.392616e+01
3.257348e+06 -8.401702e+02 -6.353665e+02
3.257291e+06 -8.796645e+02 -1.234240e+03
3.257318e+06 -9.189992e+02 -1.860528e+03
3.257434e+06 -9.581129e+02 -2.514169e+03
3.322627e+06 1.905931e+01 -6.382098e+03
3.257643e+06 -9.969076e+02 -3.195039e+03
3.321698e+06 1.873729e+01 -6.332375e+03
3.257951e+06 -1.035230e+03 -3.902911e+03
3.258361e+06 -1.072833e+03 -4.637404e+03
3.258880e+06 -1.109319e+03 -5.397904e+03
3.259516e+06 -1.144032e+03 -6.183431e+03
3.261181e+06 -1.202946e+03 -7.822364e+03
3.262241e+06 -1.222013e+03 -8.669181e+03
3.263485e+06 -1.227382e+03 -9.526159e+03
3.264946e+06 -1.211156e+03 -1.038265e+04
3.266628e+06 -1.172496e+03 -1.122537e+04
3.268497e+06 -1.118923e+03 -1.204282e+04
3.270525e+06 -1.056844e+03 -1.282743e+04
3.272688e+06 -9.899121e+02 -1.357452e+04
3.274971e+06 -9.202577e+02 -1.428118e+04
3.277362e+06 -8.491348e+02 -1.494549e+04
3.279850e+06 -7.772949e+02 -1.556621e+04
3.282427e+06 -7.051986e+02 -1.614247e+04
3.307719e+06 1.386399e+01 -5.654540e+03
3.285085e+06 -6.331331e+02 -1.667369e+04
3.306890e+06 1.414319e+01 -5.612127e+03
3.287816e+06 -5.612797e+02 -1.715942e+04
3.293474e+06 -4.186326e+02 -1.799323e+04
3.296387e+06 -3.479603e+02 -1.834084e+04
3.299348e+06 -2.777679e+02 -1.864201e+04
3.302351e+06 -2.080740e+02 -1.889658e+04
3.305388e+06 -1.388889e+02 -1.910440e+04
3.308454e+06 -7.021830e+01 -1.926532e+04
3.311542e+06 -2.063145e+00 -1.937918e+04
3.314646e+06 6.557754e+01 -1.944584e+04
3.317759e+06 1.327091e+02 -1.946514e+04
3.320874e+06 1.993381e+02 -1.943692e+04
3.323984e+06 2.654753e+02 -1.936101e+04
3.327083e+06 3.311340e+02 -1.923726e+04
3.330163e+06 3.963315e+02 -1.906549e+04
3.333218e+06 4.610889e+02 -1.884555e+04
3.336241e+06 5.254316e+02 -1.857725e+04
3.294762e+06 1.705038e+01 -4.528321e+03
3.342162e+06 6.529985e+02 -1.789497e+04
3.294100e+06 1.711070e+01 -4.433669e+03
3.345047e+06 7.162978e+02 -1.748066e+04
3.347870e+06 7.793314e+02 -1.701737e+04
3.350627e+06 8.421476e+02 -1.650498e+04
3.353308e+06 9.047963e+02 -1.594335e+04
3.355908e+06 9.673257e+02 -1.533242e+04
3.358419e+06 1.029778e+03 -1.467212e+04
3.360834e+06 1.092183e+03 -1.396247e+04
3.363144e+06 1.154542e+03 -1.320356e+04
3.365342e+06 1.216811e+03 -1.239562e+04
3.367420e+06 1.278863e+03 -1.153902e+04
3.369368e+06 1.340438e+03 -1.063442e+04
3.371174e+06 1.401038e+03 -9.682864e+03
3.372827e+06 1.459752e+03 -8.685991e+03
3.375600e+06 1.563648e+03 -6.568362e+03
3.376669e+06 1.600605e+03 -5.458692e+03
3.286126e+06 1.832443e+01 -2.632140e+03
3.377474e+06 1.616563e+03 -4.328765e+03
3.285745e+06 1.856255e+01 -2.486572e+03
3.377988e+06 1.605168e+03 -3.194704e+03
3.378232e+06 1.571920e+03 -2.072968e+03
3.378248e+06 1.526404e+03 -9.755067e+02
3.378067e+06 1.474223e+03 9.038088e+01
3.377709e+06 1.418513e+03 1.120191e+03
3.377190e+06 1.361025e+03 2.111093e+03
3.376522e+06 1.302737e+03 3.061272e+03
3.375715e+06 1.244187e+03 3.969549e+03
3.374778e+06 1.185663e+03 4.835152e+03
3.373718e+06 1.127305e+03 5.657579e+03
3.372542e+06 1.069170e+03 6.436510e+03
3.369871e+06 9.535516e+02 7.863197e+03
3.368388e+06 8.960025e+02 8.510801e+03
3.366816e+06 8.385639e+02 9.114559e+03
3.365160e+06 7.811848e+02 9.674497e+03
3.363427e+06 7.238143e+02 1.019066e+04
3.361624e+06 6.664046e+02 1.066311e+04
3.283022e+06 1.288956e+01 8.405291e+01
3.359757e+06 6.089114e+02 1.109193e+04
3.357831e+06 5.512949e+02 1.147717e+04
3.355854e+06 4.935196e+02 1.181895e+04
3.353832e+06 4.355535e+02 1.211733e+04
3.351770e+06 3.773693e+02 1.237241e+04
3.349676e+06 3.189426e+02 1.258429e+04
3.347556e+06 2.602529e+02 1.275305e+04
3.345416e+06 2.012819e+02 1.287879e+04
3.343261e+06 1.420151e+02 1.296162e+04
3.338935e+06 2.254344e+01 1.299887e+04
3.336776e+06 -3.767920e+01 1.295350e+04
3.334627e+06 -9.823350e+01 1.286557e+04
3.332494e+06 -1.591206e+02 1.273521e+04
3.330384e+06 -2.203355e+02 1.256250e+04
3.328302e+06 -2.818656e+02 1.234758e+04
3.326254e+06 -3.436855e+02 1.209058e+04
3.284624e+06 -7.087267e+00 3.904595e+02
3.324247e+06 -4.057518e+02 1.179167e+04
3.322286e+06 -4.679915e+02 1.145107e+04
3.320378e+06 -5.302862e+02 1.106910e+04
3.318531e+06 -5.924445e+02 1.064616e+04
3.316750e+06 -6.541547e+02 1.018286e+04
3.315046e+06 -7.149024e+02 9.680079e+03
3.313428e+06 -7.738226e+02 9.139164e+03
3.310507e+06 -8.791829e+02 7.952475e+03
3.309244e+06 -9.185604e+02 7.315409e+03
3.308146e+06 -9.417402e+02 6.659378e+03
3.307215e+06 -9.486690e+02 5.994390e+03
3.306429e+06 -9.450860e+02 5.328726e+03
3.305768e+06 -9.354347e+02 4.667665e+03
3.305219e+06 -9.222288e+02 4.014398e+03
3.304773e+06 -9.069089e+02 3.370882e+03
3.283979e+06 -2.643047e+01 -1.843347e+03
3.304425e+06 -8.903078e+02 2.738332e+03
3.283727e+06 -2.822884e+01 -2.077791e+03
3.304169e+06 -8.729144e+02 2.117510e+03
3.304003e+06 -8.550190e+02 1.508890e+03
3.303922e+06 -8.367958e+02 9.127657e+02
3.303925e+06 -8.183502e+02 3.293107e+02
3.304174e+06 -7.810183e+02 -7.992649e+02
3.304416e+06 -7.621907e+02 -1.344334e+03
3.304735e+06 -7.432752e+02 -1.876598e+03
3.305128e+06 -7.242788e+02 -2.396083e+03
3.305594e+06 -7.052052e+02 -2.902818e+03
3.306131e+06 -6.860582e+02 -3.396836e+03
3.306738e+06 -6.668401e+02 -3.878171e+03
3.307413e+06 -6.475541e+02 -4.346852e+03
3.308154e+06 -6.282041e+02 -4.802907e+03
3.308960e+06 -6.087946e+02 -5.246361e+03
3.309828e+06 -5.893302e+02 -5.677234e+03
3.274701e+06 -1.381597e+00 -5.393200e+03
3.310758e+06 -5.698165e+02 -6.095545e+03
3.273834e+06 2.441558e+00 -5.463685e+03
3.311747e+06 -5.502595e+02 -6.501306e+03
3.312793e+06 -5.306657e+02 -6.894529e+03
3.315053e+06 -4.913926e+02 -7.643385e+03
3.316262e+06 -4.717266e+02 -7.999027e+03
3.317522e+06 -4.520496e+02 -8.342144e+03
3.318831e+06 -4.323685e+02 -8.672734e+03
3.320187e+06 -4.126894e+02 -8.990792e+03
3.321589e+06 -3.930184e+02 -9.296313e+03
3.323034e+06 -3.733619e+02 -9.589287e+03
3.324522e+06 -3.537252e+02 -9.869706e+03
3.326050e+06 -3.341148e+02 -1.013756e+04
3.327616e+06 -3.145361e+02 -1.039283e+04
3.329219e+06 -2.949958e+02 -1.063551e+04
3.330858e+06 -2.754999e+02 -1.086559e+04
3.332529e+06 -2.560560e+02 -1.108306e+04
3.262061e+06 4.130791e+01 -3.286175e+03
3.334232e+06 -2.366734e+02 -1.128789e+04
3.261533e+06 4.345071e+01 -2.925953e+03
3.337724e+06 -1.981480e+02 -1.165967e+04
3.339509e+06 -1.790524e+02 -1.182663e+04
3.341319e+06 -1.601266e+02 -1.198100e+04
3.343150e+06 -1.414501e+02 -1.212286e+04
3.345001e+06 -1.230680e+02 -1.225230e+04
3.346870e+06 -1.049314e+02 -1.236943e+04
3.348755e+06 -8.696725e+01 -1.247432e+04
3.350656e+06 -6.913402e+01 -1.256700e+04
3.352571e+06 -5.140961e+01 -1.264746e+04
3.354497e+06 -3.378126e+01 -1.271572e+04
3.356434e+06 -1.624210e+01 -1.277175e+04
3.358378e+06 1.211474e+00 -1.281554e+04
3.360330e+06 1.858143e+01 -1.284706e+04
3.362286e+06 3.586857e+01 -1.286629e+04
3.366207e+06 7.019613e+01 -1.286778e+04
3.262216e+06 1.065623e+02 5.699594e+03
3.368167e+06 8.723710e+01 -1.284999e+04
3.263026e+06 1.154955e+02 6.483227e+03
3.370125e+06 1.041969e+02 -1.281980e+04
3.372079e+06 1.210759e+02 -1.277718e+04
3.374027e+06 1.378749e+02 -1.272212e+04
3.375967e+06 1.545952e+02 -1.265457e+04
3.377897e+06 1.712373e+02 -1.257452e+04
3.379816e+06 1.878036e+02 -1.248193e+04
3.381721e+06 2.042954e+02 -1.237678e+04
3.383611e+06 2.207151e+02 -1.225905e+04
3.385484e+06 2.370653e+02 -1.212870e+04
3.387338e+06 2.533490e+02 -1.198571e+04
3.389171e+06 2.695697e+02 -1.183005e+04
3.392767e+06 3.018370e+02 -1.148065e+04
3.394526e+06 3.178931e+02 -1.128685e+04
3.396256e+06 3.339044e+02 -1.108030e+04
3.288257e+06 1.477840e+02 1.662996e+04
3.397956e+06 3.498767e+02 -1.086096e+04
3.290844e+06 1.471273e+02 1.708530e+04
3.399624e+06 3.658167e+02 -1.062881e+04
3.401257e+06 3.817308e+02 -1.038384e+04
3.402854e+06 3.976259e+02 -1.012603e+04
3.404413e+06 4.135087e+02 -9.855371e+03
3.405932e+06 4.293845e+02 -9.571846e+03
3.407409e+06 4.452562e+02 -9.275460e+03
3.408843e+06 4.611232e+02 -8.966225e+03
3.410230e+06 4.769773e+02 -8.644171e+03
3.411569e+06 4.927988e+02 -8.309354e+03
3.412858e+06 5.085478e+02 -7.961869e+03
3.415275e+06 5.394714e+02 -7.229591e+03
3.416397e+06 5.542732e+02 -6.845427e+03
3.417456e+06 5.681273e+02 -6.449998e+03
3.418447e+06 5.802661e+02 -6.044323e+03
3.419362e+06 5.892999e+02 -5.630102e+03
3.333732e+06 8.421733e+01 1.839659e+04
3.420193e+06 5.935775e+02 -5.209972e+03
3.336559e+06 7.551340e+01 1.810887e+04
3.420941e+06 5.933184e+02 -4.787024e+03
3.421613e+06 5.903063e+02 -4.363757e+03
3.422213e+06 5.857992e+02 -3.941743e+03
3.422746e+06 5.804976e+02 -3.521942e+03
3.423215e+06 5.747950e+02 -3.104949e+03
3.423619e+06 5.689141e+02 -2.691148e+03
3.423962e+06 5.629810e+02 -2.280789e+03
3.424466e+06 5.512157e+02 -1.471014e+03
3.424629e+06 5.454455e+02 -1.071793e+03
3.424732e+06 5.397674e+02 -6.764336e+02
3.424778e+06 5.341859e+02 -2.849754e+02
3.424765e+06 5.286997e+02 1.025509e+02
3.424696e+06 5.233062e+02 4.861213e+02
3.424569e+06 5.180020e+02 8.657173e+02
3.368267e+06 -9.252413e+01 9.026184e+03
3.424387e+06 5.127823e+02 1.241322e+03
3.369652e+06 -1.065512e+02 8.025462e+03
3.424149e+06 5.076431e+02 1.612921e+03
3.423857e+06 5.025796e+02 1.980501e+03
3.423510e+06 4.975880e+02 2.344049e+03
3.423109e+06 4.926651e+02 2.703553e+03
3.422655e+06 4.878074e+02 3.059002e+03
3.421591e+06 4.782774e+02 3.757686e+03
3.420981e+06 4.736008e+02 4.100901e+03
3.420321e+06 4.689808e+02 4.440020e+03
3.419612e+06 4.644167e+02 4.775032e+03
3.418852e+06 4.599078e+02 5.105931e+03
3.418045e+06 4.554538e+02 5.432709e+03
3.417189e+06 4.510547e+02 5.755361e+03
3.416286e+06 4.467112e+02 6.073880e+03
3.415337e+06 4.424233e+02 6.388259e+03
3.414342e+06 4.381909e+02 6.698490e+03
3.369218e+06 -6.410322e+01 -6.686801e+03
3.413301e+06 4.340134e+02 7.004561e+03
3.412217e+06 4.298864e+02 7.306457e+03
3.411088e+06 4.258036e+02 7.604150e+03
3.408702e+06 4.177017e+02 8.186742e+03
3.407446e+06 4.136140e+02 8.471482e+03
3.406148e+06 4.094133e+02 8.751669e+03
3.404808e+06 4.049724e+02 9.027075e+03
3.403425e+06 4.000734e+02 9.297343e+03
3.401999e+06 3.943356e+02 9.561912e+03
3.400527e+06 3.870895e+02 9.819875e+03
3.399005e+06 3.771446e+02 1.006974e+04
3.397426e+06 3.625334e+02 1.030907e+04
3.395788e+06 3.423448e+02 1.053458e+04
3.394101e+06 3.180054e+02 1.074318e+04
3.392373e+06 2.912860e+02 1.093278e+04
3.344024e+06 4.482572e+01 -1.270353e+04
3.390614e+06 2.631816e+02 1.110212e+04
3.342022e+06 4.991107e+01 -1.276392e+04
3.388827e+06 2.342504e+02 1.125047e+04
3.385195e+06 1.750263e+02 1.148260e+04
3.383356e+06 1.450120e+02 1.156597e+04
3.381509e+06 1.148212e+02 1.162742e+04
3.379655e+06 8.448600e+01 1.166690e+04
3.377798e+06 5.402383e+01 1.168441e+04
3.375942e+06 2.344384e+01 1.167998e+04
3.374090e+06 -7.250317e+00 1.165362e+04
3.372244e+06 -3.805671e+01 1.160539e+04
3.370408e+06 -6.897534e+01 1.153531e+04
3.368586e+06 -1.000053e+02 1.144344e+04
3.366779e+06 -1.311466e+02 1.132982e+04
3.364992e+06 -1.623976e+02 1.119450e+04
3.363228e+06 -1.937569e+02 1.103751e+04
3.316300e+06 9.706582e+01 -9.250473e+03
3.359778e+06 -2.567876e+02 1.065872e+04
3.314886e+06 1.002360e+02 -8.701288e+03
3.358099e+06 -2.884513e+02 1.043698e+04
3.356455e+06 -3.202087e+02 1.019374e+04
3.354849e+06 -3.520543e+02 9.929007e+03
3.353283e+06 -3.839835e+02 9.642817e+03
3.351761e+06 -4.159908e+02 9.335189e+03
3.350286e+06 -4.480720e+02 9.006139e+03
3.348861e+06 -4.802221e+02 8.655678e+03
3.347488e+06 -5.124364e+02 8.283816e+03
3.346170e+06 -5.447105e+02 7.890559e+03
3.344912e+06 -5.770383e+02 7.475911e+03
3.343714e+06 -6.094127e+02 7.039881e+03
3.342581e+06 -6.418229e+02 6.582481e+03
3.340518e+06 -7.066675e+02 5.603703e+03
3.306083e+06 6.408504e+01 -6.131860e+02
3.339595e+06 -7.390252e+02 5.082463e+03
3.306075e+06 6.202983e+01 -4.545053e+01
3.338749e+06 -7.712467e+02 4.540161e+03
3.337982e+06 -8.032050e+02 3.977032e+03
3.337300e+06 -8.346926e+02 3.393447e+03
3.336707e+06 -8.653662e+02 2.789982e+03
3.336210e+06 -8.946509e+02 2.167547e+03
3.335816e+06 -9.215646e+02 1.527575e+03
3.335536e+06 -9.444068e+02 8.723694e+02
3.335387e+06 -9.602037e+02 2.056849e+02
3.335392e+06 -9.636737e+02 -4.662513e+02
3.335572e+06 -9.492406e+02 -1.134009e+03
3.335922e+06 -9.183854e+02 -1.786944e+03
3.337020e+06 -8.309413e+02 -3.018123e+03
3.337730e+06 -7.810884e+02 -3.588010e+03
3.338530e+06 -7.293664e+02 -4.124410e+03
3.313710e+06 5.632893e+01 6.586466e+03
3.339411e+06 -6.765933e+02 -4.626077e+03
3.314738e+06 5.671383e+01 6.967091e+03
3.340365e+06 -6.232556e+02 -5.092208e+03
3.341384e+06 -5.696463e+02 -5.522276e+03
3.342463e+06 -5.159464e+02 -5.915929e+03
3.343596e+06 -4.622666e+02 -6.272931e+03
3.344777e+06 -4.086759e+02 -6.593122e+03
3.346001e+06 -3.552155e+02 -6.876389e+03
3.347263e+06 -3.019110e+02 -7.122653e+03
3.348558e+06 -2.487758e+02 -7.331851e+03
3.349880e+06 -1.958173e+02 -7.503932e+03
3.352586e+06 -9.043756e+01 -7.736562e+03
3.353958e+06 -3.801376e+01 -7.797021e+03
3.355338e+06 1.423785e+01 -7.820183e+03
3.356718e+06 6.632269e+01 -7.805999e+03
3.358094e+06 1.182482e+02 -7.754419e+03
3.334120e+06 6.182800e+01 1.100105e+04
3.359460e+06 1.700238e+02 -7.665389e+03
3.335791e+06 6.187158e+01 1.119640e+04
3.360811e+06 2.216606e+02 -7.538858e+03
3.362142e+06 2.731728e+02 -7.374768e+03
3.363446e+06 3.245764e+02 -7.173066e+03
3.364719e+06 3.758908e+02 -6.933695e+03
3.365955e+06 4.271392e+02 -6.656601e+03
3.367149e+06 4.783470e+02 -6.341733e+03
3.369388e+06 5.807612e+02 -5.598488e+03
3.370422e+06 6.320328e+02 -5.170041e+03
3.371392e+06 6.833916e+02 -4.703687e+03
3.372293e+06 7.348684e+02 -4.199435e+03
3.373119e+06 7.864850e+02 -3.657332e+03
3.373864e+06 8.382483e+02 -3.077476e+03
3.374522e+06 8.901356e+02 -2.460044e+03
3.375089e+06 9.420763e+02 -1.805323e+03
3.361369e+06 5.462926e+01 1.264635e+04
3.375555e+06 9.939181e+02 -1.113768e+03
3.363282e+06 5.340963e+01 1.265931e+04
3.375915e+06 1.045369e+03 -3.860777e+02
3.376160e+06 1.095899e+03 3.766719e+02
3.376277e+06 1.144560e+03 1.172816e+03
3.376254e+06 1.189662e+03 1.999738e+03
3.375700e+06 1.254787e+03 3.726519e+03
3.375106e+06 1.260890e+03 4.608486e+03
3.374276e+06 1.243556e+03 5.484682e+03
3.373240e+06 1.209646e+03 6.341885e+03
3.372032e+06 1.166506e+03 7.171192e+03
3.370677e+06 1.118231e+03 7.967237e+03
3.369192e+06 1.067117e+03 8.726732e+03
3.367590e+06 1.014449e+03 9.447635e+03
3.365881e+06 9.609444e+02 1.012866e+04
3.387686e+06 2.835210e+01 1.171423e+04
3.364076e+06 9.070013e+02 1.076901e+04
3.389462e+06 2.578267e+01 1.155493e+04
3.362180e+06 8.528332e+02 1.136817e+04
3.360203e+06 7.985467e+02 1.192586e+04
3.358149e+06 7.441848e+02 1.244191e+04
3.353840e+06 6.352374e+02 1.334890e+04
3.351597e+06 5.806106e+02 1.373988e+04
3.349302e+06 5.258421e+02 1.408926e+04
3.346963e+06 4.709000e+02 1.439715e+04
3.344584e+06 4.157530e+02 1.466364e+04
3.342171e+06 3.603737e+02 1.488885e+04
3.339731e+06 3.047368e+02 1.507289e+04
3.337270e+06 2.488211e+02 1.521587e+04
3.334793e+06 1.926096e+02 1.531793e+04
3.332306e+06 1.360873e+02 1.537917e+04
3.329815e+06 7.924389e+01 1.539971e+04
3.410954e+06 -1.712814e+01 8.003365e+03
3.327326e+06 2.207051e+01 1.537966e+04
3.412169e+06 -2.065563e+01 7.655346e+03
3.322377e+06 -9.328708e+01 1.521826e+04
3.319928e+06 -1.514770e+02 1.507710e+04
3.317504e+06 -2.100082e+02 1.489578e+04
3.315110e+06 -2.688793e+02 1.467439e+04
3.312751e+06 -3.280860e+02 1.441301e+04
3.310434e+06 -3.876219e+02 1.411175e+04
3.308164e+06 -4.474748e+02 1.377069e+04
3.305945e+06 -5.076270e+02 1.338994e+04
3.303784e+06 -5.680489e+02 1.296962e+04
3.301686e+06 -6.286943e+02 1.250989e+04
3.299657e+06 -6.894901e+02 1.201093e+04
3.297702e+06 -7.503209e+02 1.147303e+04
3.295829e+06 -8.110043e+02 1.089656e+04
3.422313e+06 -4.249854e+01 2.446697e+03
3.292353e+06 -9.305803e+02 9.630483e+03
3.422641e+06 -4.236704e+01 2.044681e+03
3.290769e+06 -9.882182e+02 8.942946e+03
3.289302e+06 -1.042847e+03 8.221426e+03
3.287968e+06 -1.092214e+03 7.468964e+03
3.286789e+06 -1.132424e+03 6.690445e+03
3.285796e+06 -1.156642e+03 5.893881e+03
3.285016e+06 -1.158508e+03 5.091057e+03
3.284437e+06 -1.140643e+03 4.294750e+03
3.284027e+06 -1.110844e+03 3.514678e+03
3.283761e+06 -1.074100e+03 2.756834e+03
3.283622e+06 -1.033269e+03 2.024877e+03
3.283596e+06 -9.900064e+02 1.321070e+03
3.283675e+06 -9.452829e+02 6.468352e+02
3.284117e+06 -8.535446e+02 -6.096408e+02
3.421609e+06 -3.483390e+01 -2.834785e+03
3.284467e+06 -8.071006e+02 -1.190942e+03
3.421143e+06 -3.373076e+01 -3.182536e+03
3.284897e+06 -7.604825e+02 -1.740602e+03
3.285402e+06 -7.137772e+02 -2.258483e+03
3.285976e+06 -6.670392e+02 -2.744507e+03
3.286617e+06 -6.203037e+02 -3.198631e+03
3.287319e+06 -5.735935e+02 -3.620835e+03
3.288077e+06 -5.269246e+02 -4.011110e+03
3.288889e+06 -4.803078e+02 -4.369454e+03
3.289749e+06 -4.337518e+02 -4.695864e+03
3.290653e+06 -3.872633e+02 -4.990335e+03
3.291596e+06 -3.408485e+02 -5.252859e+03
3.293585e+06 -2.482597e+02 -5.682005e+03
3.294621e+06 -2.020934e+02 -5.848585e+03
3.295678e+06 -1.560167e+02 -5.983132e+03
3.410578e+06 -1.440224e+01 -7.335361e+03
3.296753e+06 -1.100303e+02 -6.085614e+03
3.409441e+06 -1.274365e+01 -7.626174e+03
3.297841e+06 -6.413330e+01 -6.155993e+03
3.298937e+06 -1.832403e+01 -6.194228e+03
3.300037e+06 2.740254e+01 -6.200277e+03
3.301137e+06 7.305206e+01 -6.174093e+03
3.302231e+06 1.186335e+02 -6.115633e+03
3.303315e+06 1.641571e+02 -6.024854e+03
3.304385e+06 2.096335e+02 -5.901716e+03
3.305436e+06 2.550739e+02 -5.746189e+03
3.307463e+06 3.458751e+02 -5.337926e+03
3.308430e+06 3.912312e+02 -5.085233e+03
3.309360e+06 4.365279e+02 -4.800266e+03
3.310246e+06 4.817063e+02 -4.483182e+03
3.311085e+06 5.266517e+02 -4.134245e+03
3.311869e+06 5.711575e+02 -3.753879e+03
3.389157e+06 2.107861e+01 -1.099348e+04
3.312591e+06 6.148578e+02 -3.342749e+03
3.387442e+06 2.498234e+01 -1.112878e+04
3.313245e+06 6.571103e+02 -2.901903e+03
3.313818e+06 6.967833e+02 -2.433004e+03
3.314298e+06 7.318847e+02 -1.938727e+03
3.314665e+06 7.588814e+02 -1.423445e+03
3.314896e+06 7.724869e+02 -8.941537e+02
3.314984e+06 7.714965e+02 -3.597729e+02
3.314807e+06 7.440096e+02 6.951985e+02
3.314574e+06 7.243581e+02 1.207298e+03
3.314258e+06 7.029906e+02 1.706065e+03
3.313865e+06 6.807063e+02 2.190233e+03
3.313401e+06 6.579632e+02 2.658987e+03
3.312869e+06 6.350235e+02 3.111795e+03
3.312274e+06 6.120347e+02 3.548309e+03
3.364672e+06 5.599292e+01 -1.093375e+04
3.311617e+06 5.890773e+02 3.968301e+03
3.362999e+06 5.712660e+01 -1.076864e+04
3.310903e+06 5.661910e+02 4.371628e+03
3.310133e+06 5.433908e+02 4.758201e+03
3.309309e+06 5.206768e+02 5.127969e+03
3.308435e+06 4.980412e+02 5.480907e+03
3.306542e+06 4.529511e+02 6.136272e+03
3.305529e+06 4.304671e+02 6.438712e+03
3.304475e+06 4.080038e+02 6.724343e+03
3.303381e+06 3.855475e+02 6.993181e+03
3.302250e+06 3.630851e+02 7.245246e+03
3.301085e+06 3.406056e+02 7.480558e+03
3.299888e+06 3.180978e+02 7.699138e+03
3.298662e+06 2.955531e+02 7.901007e+03
3.297408e+06 2.729627e+02 8.086185e+03
3.344814e+06 6.404806e+01 -6.698031e+03
3.296129e+06 2.503189e+02 8.254694e+03
3.343795e+06 6.467957e+01 -6.237442e+03
3.294828e+06 2.276147e+02 8.406555e+03
3.293507e+06 2.048435e+02 8.541789e+03
3.290814e+06 1.590769e+02 8.762466e+03
3.289447e+06 1.360707e+02 8.847954e+03
3.288069e+06 1.129764e+02 8.916907e+03
3.286683e+06 8.979055e+01 8.969351e+03
3.285291e+06 6.651101e+01 9.005317e+03
3.283895e+06 4.313817e+01 9.024840e+03
3.282498e+06 1.967612e+01 9.027965e+03
3.281102e+06 -3.865495e+00 9.014746e+03
3.279709e+06 -2.746767e+01 8.985258e+03
3.278323e+06 -5.109616e+01 8.939602e+03
3.276945e+06 -7.469314e+01 8.877918e+03
3.338273e+06 8.881480e+01 1.434607e+03
3.275579e+06 -9.816076e+01 8.800407e+03
3.338588e+06 8.460182e+01 2.064507e+03
3.274227e+06 -1.213325e+02 8.707364e+03
3.271584e+06 -1.654451e+02 8.476705e+03
3.270303e+06 -1.850443e+02 8.340872e+03
3.269058e+06 -2.012400e+02 8.193506e+03
3.267856e+06 -2.128323e+02 8.037139e+03
3.266695e+06 -2.205345e+02 7.874420e+03
3.265569e+06 -2.259416e+02 7.707311e+03
3.264474e+06 -2.300339e+02 7.537026e+03
3.263407e+06 -2.333715e+02 7.364309e+03
3.262369e+06 -2.362762e+02 7.189629e+03
3.261356e+06 -2.389350e+02 7.013282e+03
3.260370e+06 -2.414563e+02 6.835459e+03
3.259409e+06 -2.439041e+02 6.656284e+03
3.349840e+06 3.608975e+01 7.292878e+03
3.257564e+06 -2.487102e+02 6.294167e+03
3.351037e+06 3.279417e+01 7.443904e+03
3.256680e+06 -2.511004e+02 6.111304e+03
3.255822e+06 -2.534911e+02 5.927265e+03
3.254990e+06 -2.558835e+02 5.742058e+03
3.254185e+06 -2.582776e+02 5.555686e+03
3.253406e+06 -2.606710e+02 5.368145e+03
3.252653e+06 -2.630621e+02 5.179432e+03
3.251927e+06 -2.654482e+02 4.989542e+03
3.251228e+06 -2.678275e+02 4.798468e+03
3.250556e+06 -2.701978e+02 4.606204e+03
3.249911e+06 -2.725574e+02 4.412743e+03
3.249294e+06 -2.749054e+02 4.218077e+03
3.248142e+06 -2.795625e+02 3.825106e+03
3.365405e+06 -1.971090e+01 6.388849e+03
3.247608e+06 -2.818707e+02 3.626787e+03
3.366438e+06 -2.510477e+01 6.060442e+03
3.247102e+06 -2.841659e+02 3.427236e+03
3.246624e+06 -2.864480e+02 3.226445e+03
3.246175e+06 -2.887185e+02 3.024407e+03
3.245754e+06 -2.909780e+02 2.821115e+03
3.245362e+06 -2.932283e+02 2.616562e+03
3.244998e+06 -2.954705e+02 2.410741e+03
3.244664e+06 -2.977059e+02 2.203646e+03
3.244358e+06 -2.999348e+02 1.995277e+03
3.244082e+06 -3.021564e+02 1.785632e+03
3.243834e+06 -3.043677e+02 1.574722e+03
3.243429e+06 -3.087235e+02 1.149182e+03
3.243271e+06 -3.108297e+02 9.346347e+02
3.243144e+06 -3.128377e+02 7.190037e+02
3.373140e+06 -1.032290e+02 -1.564043e+03
3.243048e+06 -3.146755e+02 5.024177e+02
3.372912e+06 -1.086754e+02 -2.389391e+03
3.242984e+06 -3.162224e+02 2.850776e+02
3.242953e+06 -3.172722e+02 6.729784e+01
3.242958e+06 -3.174700e+02 -1.504267e+02
3.243000e+06 -3.162009e+02 -3.673014e+02
3.243085e+06 -3.123909e+02 -5.820360e+02
3.243218e+06 -3.045454e+02 -7.926006e+02
3.243398e+06 -2.924928e+02 -9.964864e+02
3.243620e+06 -2.776355e+02 -1.191533e+03
3.244164e+06 -2.437827e+02 -1.549980e+03
3.244478e+06 -2.258652e+02 -1.711963e+03
3.244815e+06 -2.076501e+02 -1.861922e+03
3.245173e+06 -1.892733e+02 -1.999632e+03
3.245550e+06 -1.708160e+02 -2.124943e+03
3.357280e+06 -8.763352e+00 -1.197802e+04
3.245944e+06 -1.523275e+02 -2.237757e+03
3.355347e+06 1.668914e-01 -1.246523e+04
3.246353e+06 -1.338362e+02 -2.338007e+03
3.246775e+06 -1.153599e+02 -2.425650e+03
3.247208e+06 -9.690781e+01 -2.500656e+03
3.247651e+06 -7.848505e+01 -2.563006e+03
3.248101e+06 -6.009306e+01 -2.612685e+03
3.248558e+06 -4.173255e+01 -2.649685e+03
3.249481e+06 -5.099750e+00 -2.685618e+03
3.249945e+06 1.317599e+01 -2.684540e+03
3.250408e+06 3.142843e+01 -2.670757e+03
3.250867e+06 4.966014e+01 -2.644263e+03
3.251323e+06 6.787457e+01 -2.605050e+03
3.251771e+06 8.607585e+01 -2.553112e+03
3.328635e+06 7.836294e+01 -1.513174e+04
3.252212e+06 1.042684e+02 -2.488436e+03
3.326298e+06 8.229909e+01 -1.509209e+04
3.252643e+06 1.224576e+02 -2.411014e+03
3.253062e+06 1.406500e+02 -2.320834e+03
3.253468e+06 1.588530e+02 -2.217882e+03
3.253859e+06 1.770755e+02 -2.102145e+03
3.254233e+06 1.953270e+02 -1.973610e+03
3.254925e+06 2.319620e+02 -1.678093e+03
3.255238e+06 2.503683e+02 -1.511097e+03
3.255529e+06 2.688470e+02 -1.331278e+03
3.255794e+06 2.874037e+02 -1.138655e+03
3.256032e+06 3.060366e+02 -9.332684e+02
3.256241e+06 3.247294e+02 -7.151962e+02
3.256420e+06 3.434446e+02 -4.845674e+02
3.256565e+06 3.621063e+02 -2.415876e+02
3.298930e+06 1.073564e+02 -1.099483e+04
3.256675e+06 3.805786e+02 1.342149e+01
3.297256e+06 1.090733e+02 -1.040916e+04
3.256747e+06 3.986241e+02 2.799700e+02
3.256775e+06 4.158360e+02 5.573083e+02
3.256754e+06 4.315182e+02 8.442859e+02
3.256532e+06 4.526125e+02 1.438950e+03
3.256302e+06 4.523272e+02 1.739252e+03
3.255963e+06 4.374085e+02 2.032605e+03
3.255499e+06 4.035960e+02 2.308600e+03
3.254929e+06 3.544920e+02 2.556674e+03
3.254282e+06 2.964584e+02 2.769153e+03
3.253582e+06 2.332880e+02 2.941334e+03
3.252844e+06 1.671553e+02 3.070314e+03
3.252082e+06 9.931633e+01 3.154285e+03
3.251307e+06 3.050099e+01 3.192105e+03
3.286197e+06 8.026111e+01 -9.731752e+02
3.250528e+06 -3.885779e+01 3.183053e+03
3.286196e+06 7.469704e+01 -3.250585e+02
3.249754e+06 -1.085022e+02 3.126673e+03
3.248250e+06 -2.480755e+02 2.870914e+03
3.247534e+06 -3.178438e+02 2.671269e+03
3.246853e+06 -3.875357e+02 2.423695e+03
3.246211e+06 -4.571250e+02 2.128158e+03
3.245617e+06 -5.265907e+02 1.784626e+03
3.245076e+06 -5.959244e+02 1.393052e+03
3.244595e+06 -6.651267e+02 9.533542e+02
3.244180e+06 -7.342148e+02 4.654007e+02
3.243838e+06 -8.032299e+02 -7.101486e+01
3.243574e+06 -8.722477e+02 -6.561972e+02
3.243393e+06 -9.413924e+02 -1.290581e+03
3.292093e+06 3.647094e+01 5.032466e+03
3.243300e+06 -1.010856e+03 -1.974765e+03
3.292935e+06 3.390799e+01 5.274918e+03
3.243387e+06 -1.151989e+03 -3.496016e+03
3.243571e+06 -1.224613e+03 -4.335509e+03
3.243845e+06 -1.299538e+03 -5.229760e+03
3.244205e+06 -1.377739e+03 -6.180896e+03
3.244642e+06 -1.460470e+03 -7.191481e+03
3.245143e+06 -1.549301e+03 -8.264521e+03
3.245690e+06 -1.646155e+03 -9.403419e+03
3.246260e+06 -1.753320e+03 -1.061185e+04
3.246822e+06 -1.873425e+03 -1.189353e+04
3.247342e+06 -2.009365e+03 -1.325177e+04
3.247778e+06 -2.164087e+03 -1.468878e+04
3.248090e+06 -2.340182e+03 -1.620450e+04
3.304329e+06 -5.813007e+00 5.722587e+03
3.248191e+06 -2.759283e+03 -1.944809e+04
3.305248e+06 -1.013275e+01 5.553606e+03
3.247951e+06 -2.993437e+03 -2.114065e+04
3.247569e+06 -3.224787e+03 -2.282856e+04
3.247189e+06 -3.449886e+03 -2.445283e+04
3.247080e+06 -3.493061e+03 -2.584762e+04
3.247931e+06 -2.938858e+03 -2.657475e+04
3.252575e+06 -1.872947e+03 -2.628772e+04
3.260340e+06 4.702324e+03 -2.210372e+04
3.282084e+06 1.862234e+04 -1.219465e+04
3.312895e+06 -7.084509e+01 9.328871e+01
3.307566e+06 -2.849959e+01 -5.213488e+03
3.306730e+06 -2.536495e+01 -5.552317e+03
3.293664e+06 9.023527e+00 -8.330411e+03
3.292395e+06 1.149780e+01 -8.455195e+03
3.275266e+06 3.760436e+01 -8.605023e+03
3.273985e+06 3.933598e+01 -8.506230e+03
3.260564e+06 3.490154e+01 -6.632680e+03
3.259619e+06 3.399553e+01 -6.455830e+03
3.250331e+06 2.681987e+01 -4.242552e+03
3.249732e+06 2.640888e+01 -4.050553e+03
3.244752e+06 2.373995e+01 -1.651489e+03
3.244525e+06 2.381188e+01 -1.443491e+03
3.244274e+06 2.561170e+01 1.074077e+03
3.244470e+06 2.396285e+01 1.260532e+03
3.248468e+06 6.300468e+00 2.584782e+03
3.248878e+06 4.978635e+00 2.614932e+03
3.253564e+06 -1.225389e+01 2.001398e+03
3.253880e+06 -1.384483e+01 1.868690e+03
3.255604e+06 -4.154161e+01 -6.912663e+02
3.255504e+06 -4.508262e+01 -9.766452e+02
3.250323e+06 5.581341e+00 -3.093766e+03
3.249741e+06 1.149920e+01 -3.015111e+03
3.245853e+06 6.533756e+01 1.612158e+03
3.245979e+06 6.946642e+01 2.310459e+03
3.255985e+06 5.082893e+02 1.689818e+04
3.264694e+06 1.992907e+03 2.494932e+04
3.265552e+06 5.684929e+03 1.979800e+04
3.280470e+06 1.485912e+04 9.730037e+03
3.254999e+06 -4.214460e+02 2.487350e+04
3.284343e+06 3.828339e+04 3.220734e+03
3.249234e+06 -2.160346e+03 2.583970e+04
3.301382e+06 3.107104e+04 1.925242e+03
3.287274e+06 2.563613e+04 5.763908e+03
3.293752e+06 3.578197e+04 4.315685e+01
3.288696e+06 2.728395e+04 -4.346807e+03
3.291133e+06 4.016641e+04 -2.672648e+03
3.247779e+06 -2.165267e+03 1.469119e+04
3.243397e+06 -9.412615e+02 1.290319e+03
3.250528e+06 -3.885042e+01 -3.183201e+03
3.256773e+06 4.158013e+02 -5.573242e+02
3.253858e+06 1.770344e+02 2.102180e+03
3.244081e+06 -3.021653e+02 -1.785643e+03
3.249910e+06 -2.725720e+02 -4.412756e+03
3.260369e+06 -2.414824e+02 -6.835479e+03
3.294825e+06 2.275360e+02 -8.406614e+03
3.314891e+06 7.723727e+02 8.941667e+02
3.304381e+06 2.095432e+02 5.901807e+03
3.290651e+06 -3.873015e+02 4.990435e+03
3.297702e+06 -7.503470e+02 -1.147314e+04
3.329812e+06 7.915059e+01 -1.539984e+04
3.360196e+06 7.983841e+02 -1.192596e+04
3.376269e+06 1.144377e+03 -1.172775e+03
3.348554e+06 -2.488661e+02 7.331957e+03
3.343711e+06 -6.094801e+02 -7.039954e+03
3.364988e+06 -1.625092e+02 -1.119456e+04
3.390607e+06 2.630297e+02 -1.110217e+04
3.412209e+06 4.297042e+02 -7.306468e+03
3.423101e+06 4.924678e+02 -2.703570e+03
3.423611e+06 5.687085e+02 2.691130e+03
3.411561e+06 4.925965e+02 8.309359e+03
3.387331e+06 2.531631e+02 1.198571e+04
3.360323e+06 1.841500e+01 1.284707e+04
3.303918e+06 -8.369064e+02 -9.127476e+02
3.315041e+06 -7.150416e+02 -9.680170e+03
3.345407e+06 2.010714e+02 -1.287892e+04
3.373705e+06 1.127003e+03 -5.657687e+03
3.371161e+06 1.400726e+03 9.682907e+03
3.333208e+06 4.608415e+02 1.884565e+04
3.285079e+06 -6.332902e+02 1.667379e+04
3.258875e+06 -1.109457e+03 5.397851e+03
3.275520e+06 1.540265e+02 -5.447248e+03
3.284960e+06 3.283589e+02 -1.756032e+03
3.284674e+06 7.421238e+01 4.906075e+02
3.282500e+06 -1.774375e+02 -8.401142e+01
3.285783e+06 -2.039832e+02 -2.750515e+03
3.294752e+06 -1.250256e+02 -4.652620e+03
3.322905e+06 -5.885738e+01 -6.514378e+03
3.361893e+06 3.283391e+01 -8.617559e+03
3.383057e+06 3.917342e+02 -6.243077e+03
3.373260e+06 5.256420e+02 1.090145e+04
3.336925e+06 7.135799e+01 1.407518e+04
3.289238e+06 -2.687711e+02 -9.732772e+03
3.287877e+06 -2.671976e+02 -9.522829e+03
3.283962e+06 -2.627019e+02 8.905285e+03
3.286546e+06 -2.656124e+02 -9.314946e+03
3.285245e+06 -2.640143e+02 -9.109115e+03
3.283974e+06 -2.624013e+02 -8.905327e+03
3.281518e+06 -2.591227e+02 -8.503836e+03
3.278036e+06 -2.543501e+02 7.916605e+03
3.280333e+06 -2.574534e+02 -8.306110e+03
3.279177e+06 -2.557620e+02 -8.110383e+03
3.278048e+06 -2.540473e+02 -7.916645e+03
3.274816e+06 -2.490614e+02 7.347227e+03
3.276948e+06 -2.523085e+02 -7.724884e+03
3.275875e+06 -2.505452e+02 -7.535094e+03
3.276048e+06 3.783863e+01 -7.317184e+03
3.272817e+06 -2.451041e+02 -6.977459e+03
3.269984e+06 -2.397418e+02 6.437242e+03
3.271851e+06 -2.432398e+02 -6.795468e+03
3.270910e+06 -2.413500e+02 -6.615410e+03
3.268231e+06 -2.358369e+02 6.086732e+03
3.269996e+06 -2.394348e+02 -6.437277e+03
3.269107e+06 -2.374943e+02 -6.261065e+03
3.267404e+06 -2.335382e+02 -5.914374e+03
3.265020e+06 -2.277363e+02 5.408539e+03
3.266589e+06 -2.315237e+02 -5.743883e+03
3.265799e+06 -2.294857e+02 -5.575285e+03
3.265033e+06 -2.274262e+02 -5.408570e+03
3.264290e+06 -2.253478e+02 -5.243728e+03
3.262189e+06 -2.193752e+02 4.760224e+03
3.263571e+06 -2.232554e+02 -5.080742e+03
3.262875e+06 -2.211563e+02 -4.919593e+03
3.263129e+06 2.415070e+01 -4.758988e+03
3.259714e+06 -2.117848e+02 4.139776e+03
3.260921e+06 -2.149953e+02 -4.446817e+03
3.260313e+06 -2.131177e+02 -4.292571e+03
3.258596e+06 -2.100036e+02 3.837617e+03
3.259726e+06 -2.114714e+02 -4.139800e+03
3.259158e+06 -2.102422e+02 -3.988276e+03
3.258609e+06 -2.096894e+02 -3.837640e+03
3.258078e+06 -2.098445e+02 -3.687456e+03
3.256589e+06 -2.126945e+02 3.236435e+03
3.257565e+06 -2.104665e+02 -3.537346e+03
3.256601e+06 -2.123786e+02 -3.236454e+03
3.256150e+06 -2.134846e+02 -3.085424e+03
3.255720e+06 -2.146295e+02 -2.933910e+03
3.255312e+06 -2.157904e+02 -2.781872e+03
3.254925e+06 -2.169536e+02 -2.629281e+03
3.254560e+06 -2.181113e+02 -2.476120e+03
3.254216e+06 -2.192589e+02 -2.322374e+03
3.253305e+06 -2.229387e+02 1.857534e+03
3.253895e+06 -2.203936e+02 -2.168034e+03
3.253595e+06 -2.215142e+02 -2.013093e+03
3.253061e+06 -2.237101e+02 -1.701389e+03
3.252828e+06 -2.247853e+02 -1.544618e+03
3.252248e+06 -2.282423e+02 1.070579e+03
3.252617e+06 -2.258454e+02 -1.387230e+03
3.252428e+06 -2.268909e+02 -1.229221e+03
3.252261e+06 -2.279220e+02 -1.070589e+03
3.252117e+06 -2.289390e+02 -9.113305e+02
3.251995e+06 -2.299423e+02 -7.514418e+02
3.251753e+06 -2.331983e+02 2.679482e+02
3.251896e+06 -2.309327e+02 -5.909191e+02
3.251820e+06 -2.319106e+02 -4.297587e+02
3.251735e+06 -2.338320e+02 -1.055051e+02
3.251730e+06 -2.360376e+02 -2.213664e+02
3.251768e+06 -2.369689e+02 -3.857933e+02
3.251727e+06 -2.347776e+02 5.759834e+01
3.251743e+06 -2.357151e+02 2.213604e+02
3.251781e+06 -2.366460e+02 3.857878e+02
3.251842e+06 -2.375725e+02 5.508865e+02
3.251927e+06 -2.384966e+02 7.166634e+02
3.252034e+06 -2.394206e+02 8.831239e+02
3.252165e+06 -2.403469e+02 1.050273e+03
3.252320e+06 -2.412767e+02 1.218113e+03
3.252498e+06 -2.422106e+02 1.386642e+03
3.253160e+06 -2.453228e+02 -1.896236e+03
3.252699e+06 -2.431465e+02 1.555853e+03
3.252924e+06 -2.440785e+02 1.725726e+03
3.253691e+06 1.982441e+01 1.780844e+03
3.254398e+06 -2.480054e+02 -2.582848e+03
3.253742e+06 -2.466622e+02 2.238871e+03
3.254064e+06 -2.473032e+02 2.410785e+03
3.255176e+06 -2.469571e+02 -2.925856e+03
3.254411e+06 -2.476713e+02 2.582835e+03
3.254786e+06 -2.475611e+02 2.754692e+03
3.255189e+06 -2.466199e+02 2.925838e+03
3.256596e+06 -2.304754e+02 -3.423959e+03
3.255624e+06 -2.442369e+02 3.095453e+03
3.256095e+06 -2.393489e+02 3.262207e+03
3.256609e+06 -2.301332e+02 3.423933e+03
3.257171e+06 -2.153461e+02 3.577572e+03
3.257774e+06 -1.960629e+02 3.720005e+03
3.258409e+06 -1.741716e+02 3.848954e+03
3.260433e+06 -1.022816e+02 -4.143306e+03
3.259070e+06 -1.507988e+02 3.963012e+03
3.261141e+06 -7.738190e+01 -4.208580e+03
3.259751e+06 -1.265927e+02 4.061302e+03
3.260447e+06 -1.019291e+02 4.143264e+03
3.261058e+06 1.453355e+01 4.102845e+03
3.263307e+06 -2.298846e+00 -4.302209e+03
3.264034e+06 2.269761e+01 -4.298962e+03
3.262595e+06 -2.697155e+01 4.288122e+03
3.263322e+06 -1.937739e+00 4.302160e+03
3.265480e+06 7.254760e+01 -4.240392e+03
3.264049e+06 2.306126e+01 4.298912e+03
3.264774e+06 4.801375e+01 4.278319e+03
3.265494e+06 7.291644e+01 4.240339e+03
3.266209e+06 9.777170e+01 4.184938e+03
3.266913e+06 1.225865e+02 4.112084e+03
3.267607e+06 1.473715e+02 4.021751e+03
3.268287e+06 1.721401e+02 3.913908e+03
3.268950e+06 1.969092e+02 3.788525e+03
3.269596e+06 2.216994e+02 3.645568e+03
3.270220e+06 2.465346e+02 3.485000e+03
3.270822e+06 2.714428e+02 3.306780e+03
3.272453e+06 3.465426e+02 -2.665854e+03
3.271399e+06 2.964555e+02 3.110866e+03
3.271948e+06 3.216079e+02 2.897219e+03
3.272469e+06 3.469367e+02 2.665805e+03
3.273819e+06 4.239181e+02 -1.864979e+03
3.272958e+06 3.724777e+02 2.416608e+03
3.273414e+06 3.982618e+02 2.149638e+03
3.273835e+06 4.243076e+02 1.864952e+03
3.274218e+06 4.506097e+02 1.562684e+03
3.274562e+06 4.771225e+02 1.243076e+03
3.274862e+06 5.037365e+02 9.065355e+02
3.275116e+06 5.302400e+02 5.537080e+02
3.275317e+06 5.562659e+02 1.855734e+02
3.275460e+06 5.812074e+02 -1.964112e+02
3.275534e+06 6.040859e+02 -5.901129e+02
3.275525e+06 6.233287e+02 -9.924205e+02
3.275414e+06 6.363896e+02 -1.398775e+03
3.274101e+06 5.826708e+02 2.557574e+03
3.275172e+06 6.390764e+02 -1.802395e+03
3.274757e+06 6.243651e+02 -2.192975e+03
3.270985e+06 -2.246219e+03 2.731052e+01
3.274108e+06 5.805893e+02 -2.554627e+03
3.273134e+06 4.905425e+02 -2.863837e+03
3.271698e+06 3.108325e+02 -3.077459e+03
3.269570e+06 -7.905666e+01 -3.092328e+03
3.266482e+06 -6.729742e+02 -2.823690e+03
3.267667e+06 -2.714848e+03 2.600134e+02
3.268500e+06 -1.547156e+03 -1.643610e+01
3.261712e+06 -2.022559e+03 -1.916280e+03
3.269552e+06 -1.880045e+03 1.920489e+01
3.261704e+06 1.238658e+01 4.158678e+03
3.253956e+06 2.040211e+01 1.948792e+03
3.267142e+06 -1.500808e+03 -6.207424e+02
3.267572e+06 -1.296768e+03 -5.391362e+02
3.252397e+06 1.708388e+01 -3.428814e+02
3.269758e+06 -2.523723e+03 1.518779e+02
3.269863e+06 -1.753786e+02 -1.419988e+03
3.254037e+06 1.759274e+01 -1.902625e+03
3.270351e+06 -2.279904e+03 1.814157e+02
3.271072e+06 2.570322e+02 -1.581491e+03
3.270663e+06 -2.352156e+03 8.650471e+01
3.257875e+06 1.912436e+01 -3.403914e+03
3.257060e+06 -2.116656e+02 3.387043e+03
3.270216e+06 -2.318636e+03 2.519171e+01
3.270867e+06 -2.189144e+03 3.019630e+00
3.270860e+06 -2.191853e+03 9.624632e+01
3.262460e+06 2.338182e+01 -4.603161e+03
3.270982e+06 -2.249288e+03 -2.958670e+01
3.269322e+06 3.080224e+01 -6.070821e+03
3.275008e+06 3.674479e+01 -7.133402e+03
3.270083e+06 -1.591575e+03 3.703934e+01
3.266119e+06 -2.519329e+02 1.497769e+03
3.284099e+06 4.647405e+01 -8.658182e+03
3.267647e+06 -2.726282e+03 -2.785579e+02
3.292133e+06 5.573671e+01 -9.885449e+03
3.292039e+06 -2.721795e+02 1.015880e+04
3.293579e+06 5.754412e+01 -1.009710e+04
3.293492e+06 -2.737045e+02 1.037490e+04
3.295056e+06 5.945616e+01 -1.031074e+04
3.294976e+06 -2.751918e+02 1.059302e+04
3.268741e+06 -2.348972e+03 -2.812236e+02
3.264938e+06 -2.087932e+03 3.356579e+02
3.270864e+06 -2.192163e+03 -5.276674e+00
3.301292e+06 6.839630e+01 -1.118363e+04
3.296565e+06 6.148567e+01 -1.052633e+04
3.296492e+06 -2.766137e+02 1.081308e+04
3.267731e+06 -1.173999e+03 6.728127e+02
3.266442e+06 -6.754938e+02 2.849062e+03
3.270853e+06 -2.196482e+03 -1.019253e+02
3.298107e+06 6.364651e+01 -1.074378e+04
3.298040e+06 -2.779205e+02 1.103499e+04
3.269602e+06 -3.184666e+01 3.127430e+03
3.272040e+06 5.331467e+02 -1.612986e+03
3.299683e+06 6.594865e+01 -1.096295e+04
3.299622e+06 -2.790276e+02 1.125860e+04
3.272786e+06 7.264547e+02 -1.540284e+03
3.271707e+06 3.200775e+02 3.087309e+03
3.302936e+06 7.097762e+01 -1.140548e+04
3.273341e+06 8.485598e+02 -1.386968e+03
3.271062e+06 2.665887e+02 1.588670e+03
3.273133e+06 4.946726e+02 2.868976e+03
3.304616e+06 7.365146e+01 -1.162800e+04
3.304582e+06 -2.791056e+02 1.193631e+04
3.273736e+06 9.201072e+02 -1.176601e+03
3.271769e+06 -1.210359e+02 2.638250e+03
3.306334e+06 7.631701e+01 -1.185036e+04
3.306316e+06 -2.764725e+02 1.216230e+04
3.273999e+06 9.559638e+02 -9.278109e+02
3.274746e+06 6.253273e+02 2.194710e+03
3.308090e+06 7.875544e+01 -1.207126e+04
3.308099e+06 -2.707326e+02 1.238608e+04
3.274150e+06 9.665748e+02 -6.549532e+02
3.275159e+06 6.394858e+02 1.803442e+03
3.309887e+06 8.055236e+01 -1.228864e+04
3.309938e+06 -2.597161e+02 1.260499e+04
3.274209e+06 9.593374e+02 -3.689107e+02
3.275400e+06 6.364624e+02 1.399398e+03
3.311723e+06 8.129905e+01 -1.249941e+04
3.311837e+06 -2.424570e+02 1.281539e+04
3.274187e+06 9.395423e+02 -7.783076e+01
3.275510e+06 6.231993e+02 9.927907e+02
3.313599e+06 8.102004e+01 -1.270010e+04
3.313788e+06 -2.206024e+02 1.301380e+04
3.274096e+06 9.110022e+02 2.122622e+02
3.275518e+06 6.038429e+02 5.903366e+02
3.315510e+06 8.010480e+01 -1.288787e+04
3.315782e+06 -1.961762e+02 1.319779e+04
3.273944e+06 8.764724e+02 4.969746e+02
3.275444e+06 5.809028e+02 1.965489e+02
3.317454e+06 7.888565e+01 -1.306082e+04
3.317810e+06 -1.703360e+02 1.336586e+04
3.273737e+06 8.379354e+02 7.731544e+02
3.275301e+06 5.559272e+02 -1.854891e+02
3.319428e+06 7.752376e+01 -1.321774e+04
3.319867e+06 -1.437446e+02 1.351706e+04
3.273481e+06 7.968050e+02 1.038584e+03
3.275099e+06 5.298817e+02 -5.536598e+02
3.321427e+06 7.608660e+01 -1.335786e+04
3.321949e+06 -1.167855e+02 1.365080e+04
3.273178e+06 7.540741e+02 1.291741e+03
3.274846e+06 5.033660e+02 -9.065137e+02
3.323448e+06 7.459633e+01 -1.348065e+04
3.324051e+06 -8.968183e+01 1.376665e+04
3.272834e+06 7.104252e+02 1.531611e+03
3.274545e+06 4.767435e+02 -1.243074e+03
3.325488e+06 7.305172e+01 -1.358576e+04
3.326171e+06 -6.256577e+01 1.386436e+04
3.272451e+06 6.663150e+02 1.757545e+03
3.274202e+06 4.502243e+02 -1.562698e+03
3.327544e+06 7.144153e+01 -1.367294e+04
3.328304e+06 -3.551554e+01 1.394371e+04
3.272031e+06 6.220369e+02 1.969151e+03
3.273165e+06 7.537342e+02 -1.291836e+03
3.272856e+06 -3.501402e+01 -1.680340e+03
3.329614e+06 6.974991e+01 -1.374201e+04
3.330450e+06 -8.577488e+00 1.400456e+04
3.271578e+06 5.777702e+02 2.166214e+03
3.272821e+06 7.100704e+02 -1.531735e+03
3.273398e+06 3.978697e+02 -2.149674e+03
3.331693e+06 6.796058e+01 -1.379285e+04
3.332603e+06 1.822242e+01 1.404681e+04
3.271093e+06 5.336135e+02 2.348637e+03
3.272942e+06 3.720841e+02 -2.416651e+03
3.337965e+06 6.186408e+01 -1.383502e+04
3.333780e+06 6.605837e+01 -1.382534e+04
3.334763e+06 4.486969e+01 1.407037e+04
3.270579e+06 4.896137e+02 2.516395e+03
3.271764e+06 -2.505063e+01 -2.494865e+03
3.335872e+06 6.402999e+01 -1.383942e+04
3.270039e+06 4.457823e+02 2.669510e+03
3.271933e+06 3.212144e+02 -2.897271e+03
3.340058e+06 5.955268e+01 -1.381209e+04
3.269474e+06 4.021109e+02 2.808028e+03
3.271383e+06 2.960634e+02 -3.110920e+03
3.342147e+06 5.708928e+01 -1.377056e+04
3.343405e+06 1.498662e+02 1.397651e+04
3.268887e+06 3.585793e+02 2.932006e+03
3.270806e+06 2.710524e+02 -3.306835e+03
3.344230e+06 5.446978e+01 -1.371041e+04
3.345553e+06 1.757269e+02 1.390577e+04
3.268280e+06 3.151623e+02 3.041503e+03
3.270205e+06 2.461464e+02 -3.485056e+03
3.346304e+06 5.169261e+01 -1.363158e+04
3.347691e+06 2.014411e+02 1.381602e+04
3.267656e+06 2.718350e+02 3.136578e+03
3.269580e+06 2.213137e+02 -3.645625e+03
3.348366e+06 4.875713e+01 -1.353404e+04
3.349815e+06 2.270143e+02 1.370723e+04
3.267017e+06 2.285751e+02 3.217287e+03
3.268935e+06 1.965264e+02 -3.788581e+03
3.350414e+06 4.566469e+01 -1.341774e+04
3.351924e+06 2.524525e+02 1.357936e+04
3.266365e+06 1.853662e+02 3.283682e+03
3.268272e+06 1.717600e+02 -3.913964e+03
3.352444e+06 4.241779e+01 -1.328264e+04
3.354014e+06 2.777622e+02 1.343236e+04
3.265703e+06 1.421991e+02 3.335818e+03
3.267592e+06 1.469944e+02 -4.021806e+03
3.354454e+06 3.902025e+01 -1.312871e+04
3.356082e+06 3.029502e+02 1.326619e+04
3.265034e+06 9.907588e+01 3.373752e+03
3.266899e+06 1.222123e+02 -4.112139e+03
3.356441e+06 3.547650e+01 -1.295589e+04
3.358126e+06 3.280238e+02 1.308081e+04
3.264359e+06 5.601153e+01 3.397553e+03
3.266194e+06 9.740024e+01 -4.184991e+03
3.358402e+06 3.179247e+01 -1.276415e+04
3.360143e+06 3.529909e+02 1.287618e+04
3.263681e+06 1.303952e+01 3.407308e+03
3.265691e+06 1.418262e+02 -3.336004e+03
3.265633e+06 3.967907e-01 -4.139139e+03
3.360335e+06 2.797368e+01 -1.255345e+04
3.362129e+06 3.778605e+02 1.265226e+04
3.263003e+06 -2.978318e+01 3.403132e+03
3.265022e+06 9.870504e+01 -3.373936e+03
3.264759e+06 4.764753e+01 -4.278371e+03
3.362236e+06 2.402725e+01 -1.232374e+04
3.364083e+06 4.026420e+02 1.240900e+04
3.262327e+06 -7.236767e+01 3.385184e+03
3.264324e+06 4.486056e+00 -4.213793e+03
3.364102e+06 1.995970e+01 -1.207499e+04
3.366002e+06 4.273466e+02 1.214638e+04
3.261657e+06 -1.145812e+02 3.353684e+03
3.263664e+06 6.524105e+00 -4.225485e+03
3.365932e+06 1.577821e+01 -1.180716e+04
3.367881e+06 4.519856e+02 1.186435e+04
3.260994e+06 -1.562310e+02 3.308934e+03
3.262581e+06 -2.733042e+01 -4.288169e+03
3.372819e+06 -1.963299e+00 -1.054430e+04
3.367721e+06 1.148923e+01 -1.152021e+04
3.369720e+06 4.765719e+02 1.156287e+04
3.260342e+06 -1.970410e+02 3.251349e+03
3.261858e+06 -5.237293e+01 -4.256922e+03
3.369467e+06 7.099292e+00 -1.121410e+04
3.371514e+06 5.011193e+02 1.124192e+04
3.259704e+06 -2.366175e+02 3.181493e+03
3.261693e+06 1.273972e+01 -4.158735e+03
3.371167e+06 2.613782e+00 -1.088881e+04
3.259083e+06 -2.744011e+02 3.100119e+03
3.261047e+06 1.488468e+01 -4.102899e+03
3.374419e+06 -6.628714e+00 -1.018055e+04
3.374957e+06 5.501549e+02 1.054146e+04
3.258483e+06 -3.096069e+02 3.008204e+03
3.259737e+06 -1.269432e+02 -4.061342e+03
3.375964e+06 -1.138200e+01 -9.797554e+03
3.378190e+06 5.992024e+02 9.762805e+03
3.257907e+06 -3.411637e+02 2.906963e+03
3.259057e+06 -1.511475e+02 -3.963050e+03
3.377452e+06 -1.622413e+01 -9.395319e+03
3.379720e+06 6.237541e+02 9.344162e+03
3.257360e+06 -3.677468e+02 2.797736e+03
3.258396e+06 -1.745188e+02 -3.848989e+03
3.378878e+06 -2.115834e+01 -8.973874e+03
3.381188e+06 6.483233e+02 8.906020e+03
3.256843e+06 -3.883055e+02 2.681507e+03
3.257761e+06 -1.964084e+02 -3.720037e+03
3.380242e+06 -2.618947e+01 -8.533286e+03
3.382591e+06 6.728902e+02 8.448458e+03
3.256360e+06 -4.028976e+02 2.558933e+03
3.257158e+06 -2.156898e+02 -3.577601e+03
3.381538e+06 -3.132196e+01 -8.073671e+03
3.383927e+06 6.974087e+02 7.971615e+03
3.255907e+06 -4.126298e+02 2.431048e+03
3.257349e+06 -3.681050e+02 -2.797842e+03
3.257501e+06 2.707865e+01 -3.440516e+03
3.382763e+06 -3.655904e+01 -7.595223e+03
3.385190e+06 7.217873e+02 7.475712e+03
3.255485e+06 -4.188102e+02 2.299186e+03
3.256833e+06 -3.886620e+02 -2.681603e+03
3.256082e+06 -2.396894e+02 -3.262230e+03
3.383915e+06 -4.189545e+01 -7.098246e+03
3.386379e+06 7.458572e+02 6.961101e+03
3.255091e+06 -4.224785e+02 2.164530e+03
3.255611e+06 -2.445757e+02 -3.095473e+03
3.384989e+06 -4.730994e+01 -6.583210e+03
3.387486e+06 7.693159e+02 6.428332e+03
3.254725e+06 -4.243934e+02 2.028024e+03
3.256067e+06 2.624440e+01 -2.959845e+03
3.385981e+06 -5.274549e+01 -6.050847e+03
3.388508e+06 7.916238e+02 5.878275e+03
3.254385e+06 -4.250937e+02 1.890386e+03
3.254773e+06 -2.478967e+02 -2.754707e+03
3.386886e+06 -5.807582e+01 -5.502296e+03
3.389435e+06 8.118196e+02 5.312322e+03
3.254071e+06 -4.249593e+02 1.752149e+03
3.255254e+06 2.409279e+01 -2.624129e+03
3.387700e+06 -6.303254e+01 -4.939372e+03
3.390258e+06 8.281861e+02 4.732741e+03
3.253782e+06 -4.242574e+02 1.613698e+03
3.254051e+06 -2.476359e+02 -2.410797e+03
3.388419e+06 -6.707174e+01 -4.364996e+03
3.390962e+06 8.376299e+02 4.143294e+03
3.253518e+06 -4.231756e+02 1.475309e+03
3.253729e+06 -2.469937e+02 -2.238881e+03
3.389039e+06 -6.942830e+01 -3.783733e+03
3.391531e+06 8.368675e+02 3.549688e+03
3.253278e+06 -4.218453e+02 1.337171e+03
3.253432e+06 -2.461989e+02 -2.067315e+03
3.389558e+06 -6.978773e+01 -3.201559e+03
3.391971e+06 8.267823e+02 2.958379e+03
3.253061e+06 -4.203568e+02 1.199416e+03
3.253945e+06 2.073019e+01 -1.948803e+03
3.389978e+06 -6.867826e+01 -2.624104e+03
3.392296e+06 8.111589e+02 2.374439e+03
3.252869e+06 -4.187727e+02 1.062128e+03
3.252911e+06 -2.444065e+02 -1.725732e+03
3.390681e+06 -6.226384e+01 -9.527550e+02
3.390303e+06 -6.681584e+01 -2.055314e+03
3.392519e+06 7.925055e+02 1.801025e+03
3.252700e+06 -4.171345e+02 9.253621e+02
3.252686e+06 -2.434736e+02 -1.555858e+03
3.390536e+06 -6.461225e+01 -1.497676e+03
3.392648e+06 7.722231e+02 1.240071e+03
3.252555e+06 -4.154686e+02 7.891486e+02
3.252485e+06 -2.425368e+02 -1.386648e+03
3.390742e+06 -5.985988e+01 -4.215517e+02
3.252434e+06 -4.137918e+02 6.535041e+02
3.252858e+06 -4.191012e+02 -1.062151e+03
3.252307e+06 -2.416021e+02 -1.218118e+03
3.390723e+06 -5.743593e+01 9.527797e+01
3.392530e+06 7.079036e+02 -3.579904e+02
3.252336e+06 -4.121137e+02 5.184345e+02
3.252690e+06 -4.174614e+02 -9.253828e+02
3.252153e+06 -2.406715e+02 -1.050278e+03
3.390626e+06 -5.500213e+01 5.972989e+02
3.392335e+06 6.862228e+02 -8.606421e+02
3.252261e+06 -4.104395e+02 3.839393e+02
3.252022e+06 -2.397448e+02 -8.831285e+02
3.390454e+06 -5.255599e+01 1.084220e+03
3.392067e+06 6.646082e+02 -1.347807e+03
3.252209e+06 -4.087705e+02 2.500143e+02
3.251914e+06 -2.388202e+02 -7.166681e+02
3.390211e+06 -5.009092e+01 1.555846e+03
3.391729e+06 6.430975e+02 -1.819339e+03
3.252181e+06 -4.071069e+02 1.166533e+02
3.251829e+06 -2.378957e+02 -5.508916e+02
3.389897e+06 -4.759919e+01 2.012051e+03
3.391324e+06 6.217049e+02 -2.275143e+03
3.252175e+06 -4.054475e+02 -1.615101e+01
3.252418e+06 1.780166e+01 -4.605888e+02
3.389517e+06 -4.507464e+01 2.452748e+03
3.390853e+06 6.004317e+02 -2.715155e+03
3.252193e+06 -4.037907e+02 -1.484059e+02
3.252366e+06 1.767898e+01 -2.985899e+02
3.389073e+06 -4.251330e+01 2.877886e+03
3.390319e+06 5.792704e+02 -3.139337e+03
3.252233e+06 -4.021342e+02 -2.801185e+02
3.251715e+06 -2.350998e+02 -5.760479e+01
3.388566e+06 -3.991303e+01 3.287432e+03
3.389724e+06 5.582097e+02 -3.547665e+03
3.252296e+06 -4.004763e+02 -4.112951e+02
3.251723e+06 -2.341538e+02 1.054982e+02
3.387999e+06 -3.727476e+01 3.681367e+03
3.389071e+06 5.372364e+02 -3.940127e+03
3.252382e+06 -3.988151e+02 -5.419414e+02
3.252347e+06 1.744466e+01 1.834741e+02
3.387375e+06 -3.460106e+01 4.059684e+03
3.388362e+06 5.163360e+02 -4.316717e+03
3.252491e+06 -3.971491e+02 -6.720626e+02
3.251807e+06 -2.322318e+02 4.297507e+02
3.386696e+06 -3.189632e+01 4.422379e+03
3.387599e+06 4.954949e+02 -4.677434e+03
3.252622e+06 -3.954766e+02 -8.016629e+02
3.251883e+06 -2.312538e+02 5.909109e+02
3.385964e+06 -2.916627e+01 4.769454e+03
3.386784e+06 4.746993e+02 -5.022281e+03
3.252776e+06 -3.937968e+02 -9.307463e+02
3.251982e+06 -2.302632e+02 7.514326e+02
3.385181e+06 -2.641718e+01 5.100912e+03
3.385921e+06 4.539368e+02 -5.351262e+03
3.252952e+06 -3.921087e+02 -1.059316e+03
3.252104e+06 -2.292595e+02 9.113210e+02
3.384351e+06 -2.365677e+01 5.416761e+03
3.385010e+06 4.331955e+02 -5.664383e+03
3.253151e+06 -3.904122e+02 -1.187376e+03
3.252612e+06 -3.957968e+02 8.016431e+02
3.252773e+06 1.742492e+01 9.741621e+02
3.381594e+06 -1.538272e+01 6.270719e+03
3.383474e+06 -2.089230e+01 5.717005e+03
3.384055e+06 4.124647e+02 -5.961652e+03
3.253371e+06 -3.887069e+02 -1.314929e+03
3.252766e+06 -3.941167e+02 9.307262e+02
3.252415e+06 -2.272109e+02 1.229210e+03
3.382554e+06 -1.813188e+01 6.001655e+03
3.253614e+06 -3.869939e+02 -1.441980e+03
3.252604e+06 -2.261653e+02 1.387219e+03
3.380594e+06 -1.265258e+01 6.524206e+03
3.253879e+06 -3.852746e+02 -1.568532e+03
3.252815e+06 -2.251047e+02 1.544606e+03
3.379558e+06 -9.948375e+00 6.762127e+03
3.379835e+06 3.294563e+02 -6.992385e+03
3.254166e+06 -3.835523e+02 -1.694593e+03
3.253049e+06 -2.240292e+02 1.701377e+03
3.378488e+06 -7.276457e+00 6.984493e+03
3.378692e+06 3.086405e+02 -7.210534e+03
3.254475e+06 -3.818314e+02 -1.820172e+03
3.253762e+06 1.779781e+01 1.749385e+03
3.377386e+06 -4.642632e+00 7.191315e+03
3.377518e+06 2.877837e+02 -7.412894e+03
3.254806e+06 -3.801192e+02 -1.945280e+03
3.253582e+06 -2.218330e+02 2.013080e+03
3.376255e+06 -2.052025e+00 7.382606e+03
3.376316e+06 2.668789e+02 -7.599478e+03
3.255159e+06 -3.784263e+02 -2.069936e+03
3.253882e+06 -2.207121e+02 2.168020e+03
3.375097e+06 4.918842e-01 7.558378e+03
3.375089e+06 2.459187e+02 -7.770298e+03
3.255533e+06 -3.767682e+02 -2.194166e+03
3.254204e+06 -2.195769e+02 2.322359e+03
3.373914e+06 2.985874e+00 7.718647e+03
3.373837e+06 2.248969e+02 -7.925373e+03
3.255929e+06 -3.751669e+02 -2.318003e+03
3.254547e+06 -2.184290e+02 2.476104e+03
3.372709e+06 5.428797e+00 7.863428e+03
3.372565e+06 2.038071e+02 -8.064718e+03
3.256346e+06 -3.736542e+02 -2.441497e+03
3.254913e+06 -2.172709e+02 2.629265e+03
3.371483e+06 7.820901e+00 7.992741e+03
3.371273e+06 1.826446e+02 -8.188355e+03
3.256784e+06 -3.722751e+02 -2.564714e+03
3.255299e+06 -2.161073e+02 2.781855e+03
3.370240e+06 1.016336e+01 8.106607e+03
3.369965e+06 1.614056e+02 -8.296308e+03
3.257244e+06 -3.710931e+02 -2.687742e+03
3.255708e+06 -2.149461e+02 2.933892e+03
3.368982e+06 1.246086e+01 8.205057e+03
3.368642e+06 1.400900e+02 -8.388612e+03
3.256138e+06 -2.138010e+02 3.085406e+03
3.257724e+06 -3.701986e+02 -2.810701e+03
3.367710e+06 1.471787e+01 8.288128e+03
3.367307e+06 1.187005e+02 -8.465307e+03
3.258225e+06 -3.697166e+02 -2.933739e+03
3.256774e+06 -3.725895e+02 2.564685e+03
3.256926e+06 1.909649e+01 3.107629e+03
3.366428e+06 1.694223e+01 8.355873e+03
3.365962e+06 9.724820e+01 -8.526451e+03
3.258746e+06 -3.698121e+02 -3.057035e+03
3.257233e+06 -3.714069e+02 2.687713e+03
3.257385e+06 1.926254e+01 3.255938e+03
3.365137e+06 1.914265e+01 8.408362e+03
3.364610e+06 7.575458e+01 -8.572124e+03
3.259287e+06 -3.706565e+02 -3.180755e+03
3.257553e+06 -2.107815e+02 3.537325e+03
3.363841e+06 2.132746e+01 8.445698e+03
3.363252e+06 5.425979e+01 -8.602439e+03
3.259849e+06 -3.723206e+02 -3.304997e+03
3.258065e+06 -2.101590e+02 3.687434e+03
3.359942e+06 2.783890e+01 8.468599e+03
3.362541e+06 2.350538e+01 8.468026e+03
3.260431e+06 -3.747055e+02 -3.429872e+03
3.258886e+06 1.992046e+01 3.699302e+03
3.361240e+06 2.567835e+01 8.475557e+03
3.261033e+06 -3.776338e+02 -3.555554e+03
3.259146e+06 -2.105560e+02 3.988252e+03
3.358648e+06 2.995519e+01 8.447620e+03
3.357834e+06 -2.930571e+01 -8.574828e+03
3.261657e+06 -3.809470e+02 -3.682218e+03
3.259990e+06 2.084443e+01 3.995866e+03
3.357363e+06 3.194814e+01 8.413337e+03
3.356501e+06 -4.796627e+01 -8.533205e+03
3.262303e+06 -3.845262e+02 -3.810010e+03
3.260301e+06 -2.134309e+02 4.292546e+03
3.356088e+06 3.364271e+01 8.366882e+03
3.355189e+06 -6.408123e+01 -8.479855e+03
3.262971e+06 -3.882862e+02 -3.939044e+03
3.260909e+06 -2.153080e+02 4.446791e+03
3.354827e+06 3.471816e+01 8.310045e+03
3.353905e+06 -7.585373e+01 -8.417079e+03
3.263661e+06 -3.921667e+02 -4.069405e+03
3.261538e+06 -2.173100e+02 4.602653e+03
3.353582e+06 3.491502e+01 8.245404e+03
3.352654e+06 -8.265920e+01 -8.347879e+03
3.264374e+06 -3.961251e+02 -4.201160e+03
3.262450e+06 2.369469e+01 4.603132e+03
3.352354e+06 3.435576e+01 8.175774e+03
3.351430e+06 -8.592963e+01 -8.274988e+03
3.265111e+06 -4.001312e+02 -4.334355e+03
3.262863e+06 -2.214676e+02 4.919564e+03
3.351142e+06 3.340211e+01 8.103365e+03
3.350228e+06 -8.720567e+01 -8.200245e+03
3.265870e+06 -4.041638e+02 -4.469026e+03
3.263559e+06 -2.235663e+02 5.080712e+03
3.349945e+06 3.232286e+01 8.029604e+03
3.349042e+06 -8.735336e+01 -8.124758e+03
3.266654e+06 -4.082084e+02 -4.605198e+03
3.264278e+06 -2.256584e+02 5.243697e+03
3.348762e+06 3.124908e+01 7.955377e+03
3.347872e+06 -8.686334e+01 -8.049206e+03
3.267462e+06 -4.122548e+02 -4.742890e+03
3.265100e+06 -4.004403e+02 4.334308e+03
3.265264e+06 2.683491e+01 5.237096e+03
3.347592e+06 3.023782e+01 7.881241e+03
3.346715e+06 -8.601470e+01 -7.974014e+03
3.268294e+06 -4.162956e+02 -4.882116e+03
3.265860e+06 -4.044729e+02 4.468978e+03
3.265787e+06 -2.297954e+02 5.575253e+03
3.346436e+06 2.931083e+01 7.807550e+03
3.345571e+06 -8.496848e+01 -7.899449e+03
3.269151e+06 -4.203266e+02 -5.022886e+03
3.266577e+06 -2.318327e+02 5.743851e+03
3.345291e+06 2.847058e+01 7.734534e+03
3.344437e+06 -8.381760e+01 -7.825682e+03
3.270033e+06 -4.243449e+02 -5.165210e+03
3.267392e+06 -2.338469e+02 5.914341e+03
3.344158e+06 2.771210e+01 7.662344e+03
3.343315e+06 -8.261615e+01 -7.752823e+03
3.270940e+06 -4.283482e+02 -5.309094e+03
3.268454e+06 3.021364e+01 5.900313e+03
3.343035e+06 2.702567e+01 7.591074e+03
3.342204e+06 -8.139509e+01 -7.680942e+03
3.271873e+06 -4.323366e+02 -5.454544e+03
3.269095e+06 -2.378019e+02 6.261030e+03
3.341924e+06 2.640124e+01 7.520786e+03
3.341103e+06 -8.017185e+01 -7.610082e+03
3.272831e+06 -4.363090e+02 -5.601566e+03
3.270196e+06 3.203222e+01 6.243140e+03
3.338653e+06 2.480273e+01 7.316104e+03
3.340823e+06 2.582841e+01 7.451516e+03
3.340012e+06 -7.895482e+01 -7.540267e+03
3.273816e+06 -4.402663e+02 -5.750167e+03
3.270898e+06 -2.416565e+02 6.615374e+03
3.339733e+06 2.529829e+01 7.383286e+03
3.274827e+06 -4.442088e+02 -5.900352e+03
3.271839e+06 -2.435459e+02 6.795432e+03
3.337583e+06 2.433521e+01 7.249976e+03
3.336799e+06 -7.536571e+01 -7.337195e+03
3.275865e+06 -4.481376e+02 -6.052129e+03
3.272805e+06 -2.454098e+02 6.977423e+03
3.336523e+06 2.389047e+01 7.184899e+03
3.335748e+06 -7.418755e+01 -7.271633e+03
3.276930e+06 -4.520540e+02 -6.205505e+03
3.273797e+06 -2.472483e+02 7.161352e+03
3.335472e+06 2.346418e+01 7.120872e+03
3.334706e+06 -7.301537e+01 -7.207130e+03
3.278022e+06 -4.559592e+02 -6.360488e+03
3.274999e+06 3.704994e+01 7.133364e+03
3.334432e+06 2.305296e+01 7.057889e+03
3.333674e+06 -7.184715e+01 -7.143683e+03
3.279142e+06 -4.598554e+02 -6.517088e+03
3.275862e+06 -2.508492e+02 7.535056e+03
3.333400e+06 2.265463e+01 6.995946e+03
3.332651e+06 -7.068106e+01 -7.081288e+03
3.280290e+06 -4.637441e+02 -6.675315e+03
3.276936e+06 -2.526120e+02 7.724846e+03
3.332378e+06 2.226678e+01 6.935037e+03
3.331638e+06 -6.951516e+01 -7.019938e+03
3.281466e+06 -4.676274e+02 -6.835179e+03
3.278012e+06 -4.562622e+02 6.360436e+03
3.278199e+06 4.042767e+01 7.690502e+03
3.331365e+06 2.188858e+01 6.875159e+03
3.330633e+06 -6.834814e+01 -6.959632e+03
3.282671e+06 -4.715069e+02 -6.996692e+03
3.279132e+06 -4.601577e+02 6.517035e+03
3.279165e+06 -2.560642e+02 8.110343e+03
3.330361e+06 2.151852e+01 6.816307e+03
3.329637e+06 -6.717883e+01 -6.900365e+03
3.283905e+06 -4.753836e+02 -7.159866e+03
3.280321e+06 -2.577552e+02 8.306070e+03
3.329366e+06 2.115603e+01 6.758478e+03
3.328650e+06 -6.600616e+01 -6.842133e+03
3.285167e+06 -4.792573e+02 -7.324710e+03
3.281506e+06 -2.594241e+02 8.503795e+03
3.328380e+06 2.080048e+01 6.701668e+03
3.327672e+06 -6.482920e+01 -6.784935e+03
3.286459e+06 -4.831259e+02 -7.491233e+03
3.282719e+06 -2.610725e+02 8.703530e+03
3.327402e+06 2.045131e+01 6.645876e+03
3.326702e+06 -6.364727e+01 -6.728768e+03
3.287781e+06 -4.869835e+02 -7.659440e+03
3.284089e+06 4.677487e+01 8.658139e+03
3.326433e+06 2.010825e+01 6.591098e+03
3.325741e+06 -6.245982e+01 -6.673630e+03
3.289133e+06 -4.908190e+02 -7.829327e+03
3.285233e+06 -2.643144e+02 9.109073e+03
3.325472e+06 1.977066e+01 6.537334e+03
3.324787e+06 -6.126601e+01 -6.619520e+03
3.290516e+06 -4.946129e+02 -8.000879e+03
3.286534e+06 -2.659123e+02 9.314904e+03
3.322636e+06 1.878553e+01 6.382108e+03
3.324519e+06 1.943798e+01 6.484582e+03
3.323842e+06 -6.006552e+01 -6.566436e+03
3.291929e+06 -4.983345e+02 -8.174065e+03
3.287865e+06 -2.674974e+02 9.522787e+03
3.323574e+06 1.911008e+01 6.432840e+03
3.289226e+06 -2.690707e+02 9.732730e+03
3.293373e+06 -5.019359e+02 -8.348826e+03
3.321707e+06 1.846388e+01 6.332385e+03
3.290617e+06 -2.706323e+02 9.944736e+03
3.294849e+06 -5.053447e+02 -8.525068e+03
3.320785e+06 1.814374e+01 6.283669e+03
3.320138e+06 -5.518255e+01 -6.364344e+03
3.292123e+06 5.603529e+01 9.885407e+03
3.296357e+06 -5.084562e+02 -8.702644e+03
3.319870e+06 1.782355e+01 6.235959e+03
3.319231e+06 -5.393940e+01 -6.316374e+03
3.293569e+06 5.784264e+01 1.009706e+04
3.297898e+06 -5.111161e+02 -8.881334e+03
3.318962e+06 1.750139e+01 6.189251e+03
3.318331e+06 -5.268728e+01 -6.269420e+03
3.295046e+06 5.975448e+01 1.031070e+04
3.299472e+06 -5.131050e+02 -9.060819e+03
3.318062e+06 1.717538e+01 6.143540e+03
3.317438e+06 -5.142743e+01 -6.223476e+03
3.296556e+06 6.178409e+01 1.052629e+04
3.301081e+06 -5.141072e+02 -9.240649e+03
3.296347e+06 -5.087643e+02 8.702610e+03
3.317168e+06 1.684271e+01 6.098820e+03
3.316552e+06 -5.016233e+01 -6.178532e+03
3.302725e+06 -5.136719e+02 -9.420198e+03
3.297888e+06 -5.114261e+02 8.881305e+03
3.298098e+06 6.394506e+01 1.074374e+04
3.316281e+06 1.650049e+01 6.055077e+03
3.315672e+06 -4.889678e+01 -6.134577e+03
3.304406e+06 -5.111559e+02 -9.598614e+03
3.299673e+06 6.624757e+01 1.096291e+04
3.315401e+06 1.614613e+01 6.012293e+03
3.314799e+06 -4.763967e+01 -6.091587e+03
3.301238e+06 -2.797902e+02 1.148365e+04
3.306125e+06 -5.056502e+02 -9.774777e+03
3.314527e+06 1.577689e+01 5.970441e+03
3.313932e+06 -4.640557e+01 -6.049533e+03
3.302891e+06 -2.799601e+02 1.170976e+04
3.307885e+06 -4.959112e+02 -9.947288e+03
3.313659e+06 1.539077e+01 5.929477e+03
3.313072e+06 -4.522034e+01 -6.008365e+03
3.304606e+06 7.395174e+01 1.162797e+04
3.309688e+06 -4.804182e+02 -1.011461e+04
3.312796e+06 1.498909e+01 5.889338e+03
3.312216e+06 -4.412717e+01 -5.968010e+03
3.306324e+06 7.661788e+01 1.185034e+04
3.311534e+06 -4.580501e+02 -1.027566e+04
3.311940e+06 1.457620e+01 5.849928e+03
3.311366e+06 -4.320157e+01 -5.928353e+03
3.308081e+06 7.905664e+01 1.207125e+04
3.313421e+06 -4.290267e+02 -1.042965e+04
3.311088e+06 1.416757e+01 5.811096e+03
3.310520e+06 -4.257380e+01 -5.889213e+03
3.309877e+06 8.085469e+01 1.228862e+04
3.315347e+06 -3.946961e+02 -1.057531e+04
3.310241e+06 1.379563e+01 5.772609e+03
3.309677e+06 -4.247213e+01 -5.850296e+03
3.311714e+06 8.160218e+01 1.249940e+04
3.317308e+06 -3.565475e+02 -1.071107e+04
3.307727e+06 1.359774e+01 5.654538e+03
3.309399e+06 1.352940e+01 5.734093e+03
3.308836e+06 -4.330035e+01 -5.811125e+03
3.313589e+06 8.132437e+01 1.270010e+04
3.319298e+06 -3.157419e+02 -1.083558e+04
3.308561e+06 1.345629e+01 5.694976e+03
3.307995e+06 -4.543494e+01 -5.770990e+03
3.315500e+06 8.041045e+01 1.288787e+04
3.321315e+06 -2.731205e+02 -1.094776e+04
3.306899e+06 1.387774e+01 5.612124e+03
3.317444e+06 7.919290e+01 1.306082e+04
3.323354e+06 -2.292782e+02 -1.104676e+04
3.306075e+06 1.420809e+01 5.567280e+03
3.305485e+06 -5.706326e+01 -5.638100e+03
3.319418e+06 7.783217e+01 1.321775e+04
3.325413e+06 -1.846334e+02 -1.113197e+04
3.305258e+06 1.454112e+01 5.519722e+03
3.304658e+06 -6.165955e+01 -5.588361e+03
3.321416e+06 7.639668e+01 1.335786e+04
3.327488e+06 -1.394797e+02 -1.120294e+04
3.321304e+06 -2.734432e+02 1.094785e+04
3.304447e+06 1.485457e+01 5.469272e+03
3.303838e+06 -6.638775e+01 -5.535595e+03
3.323438e+06 7.490794e+01 1.348065e+04
3.329576e+06 -9.402282e+01 -1.125932e+04
3.323344e+06 -2.296008e+02 1.104686e+04
3.303644e+06 1.513922e+01 5.415818e+03
3.303026e+06 -7.119262e+01 -5.479717e+03
3.325478e+06 7.336484e+01 1.358577e+04
3.331674e+06 -4.840544e+01 -1.130088e+04
3.302849e+06 1.539332e+01 5.359288e+03
3.302223e+06 -7.604146e+01 -5.420674e+03
3.327534e+06 7.175649e+01 1.367295e+04
3.333780e+06 -2.726212e+00 -1.132744e+04
3.302062e+06 1.561710e+01 5.299634e+03
3.301428e+06 -8.091569e+01 -5.358431e+03
3.329603e+06 7.006671e+01 1.374202e+04
3.335890e+06 4.294874e+01 -1.133887e+04
3.301284e+06 1.581339e+01 5.236828e+03
3.300642e+06 -8.580413e+01 -5.292968e+03
3.331683e+06 6.827929e+01 1.379286e+04
3.338002e+06 8.857606e+01 -1.133508e+04
3.300516e+06 1.598487e+01 5.170852e+03
3.299866e+06 -9.070011e+01 -5.224272e+03
3.340114e+06 1.341289e+02 -1.131599e+04
3.333770e+06 6.637934e+01 1.382536e+04
3.299758e+06 1.613503e+01 5.101693e+03
3.299101e+06 -9.560024e+01 -5.152337e+03
3.342221e+06 1.795914e+02 -1.128155e+04
3.335861e+06 6.435299e+01 1.383944e+04
3.299010e+06 1.626670e+01 5.029347e+03
3.298346e+06 -1.005020e+02 -5.077157e+03
3.339088e+06 9.768553e+01 1.406117e+04
3.344323e+06 2.249557e+02 -1.123171e+04
3.298273e+06 1.638236e+01 4.953812e+03
3.297603e+06 -1.054052e+02 -4.998734e+03
3.341249e+06 1.238539e+02 1.402830e+04
3.346415e+06 2.702195e+02 -1.116644e+04
3.297548e+06 1.648482e+01 4.875086e+03
3.296872e+06 -1.103090e+02 -4.917067e+03
3.342136e+06 5.741885e+01 1.377058e+04
3.348496e+06 3.153842e+02 -1.108571e+04
3.296834e+06 1.657601e+01 4.793170e+03
3.296152e+06 -1.152136e+02 -4.832157e+03
3.344219e+06 5.480196e+01 1.371043e+04
3.350562e+06 3.604537e+02 -1.098948e+04
3.294770e+06 1.679758e+01 4.528308e+03
3.296133e+06 1.665732e+01 4.708068e+03
3.295445e+06 -1.201190e+02 -4.744008e+03
3.346293e+06 5.202693e+01 1.363160e+04
3.352610e+06 4.054335e+02 -1.087771e+04
3.295445e+06 1.673114e+01 4.619780e+03
3.348355e+06 4.909391e+01 1.353406e+04
3.354639e+06 4.503306e+02 -1.075039e+04
3.294109e+06 1.685903e+01 4.433655e+03
3.350403e+06 4.600374e+01 1.341776e+04
3.356644e+06 4.951523e+02 -1.060747e+04
3.293461e+06 1.691572e+01 4.335823e+03
3.292753e+06 -1.397540e+02 -4.359046e+03
3.352433e+06 4.275921e+01 1.328266e+04
3.358623e+06 5.399074e+02 -1.044892e+04
3.352599e+06 4.050926e+02 1.087784e+04
3.292829e+06 1.696913e+01 4.234812e+03
3.292115e+06 -1.446672e+02 -4.254723e+03
3.354442e+06 3.936404e+01 1.312872e+04
3.360574e+06 5.846044e+02 -1.027471e+04
3.354627e+06 4.499872e+02 1.075051e+04
3.292211e+06 1.702000e+01 4.130623e+03
3.291494e+06 -1.495825e+02 -4.147168e+03
3.356429e+06 3.582278e+01 1.295591e+04
3.362493e+06 6.292529e+02 -1.008480e+04
3.291609e+06 1.706940e+01 4.023256e+03
3.290887e+06 -1.545004e+02 -4.036382e+03
3.358390e+06 3.214088e+01 1.276417e+04
3.364378e+06 6.738623e+02 -9.879164e+03
3.291023e+06 1.711885e+01 3.912712e+03
3.290297e+06 -1.594208e+02 -3.922365e+03
3.360323e+06 2.832463e+01 1.255346e+04
3.366226e+06 7.184422e+02 -9.657763e+03
3.290453e+06 1.716917e+01 3.798989e+03
3.289724e+06 -1.643451e+02 -3.805114e+03
3.362224e+06 2.438047e+01 1.232376e+04
3.368033e+06 7.630003e+02 -9.420565e+03
3.289900e+06 1.722183e+01 3.682086e+03
3.289167e+06 -1.692735e+02 -3.684629e+03
3.364090e+06 2.031511e+01 1.207501e+04
3.369798e+06 8.075433e+02 -9.167541e+03
3.289364e+06 1.727957e+01 3.562000e+03
3.288628e+06 -1.742072e+02 -3.560907e+03
3.365920e+06 1.613605e+01 1.180718e+04
3.371516e+06 8.520733e+02 -8.898669e+03
3.288846e+06 1.734363e+01 3.438729e+03
3.288107e+06 -1.791473e+02 -3.433947e+03
3.367709e+06 1.184940e+01 1.152023e+04
3.373186e+06 8.965864e+02 -8.613937e+03
3.288346e+06 1.741750e+01 3.312270e+03
3.287604e+06 -1.840951e+02 -3.303747e+03
3.369455e+06 7.461822e+00 1.121412e+04
3.374804e+06 9.410685e+02 -8.313348e+03
3.287865e+06 1.750440e+01 3.182622e+03
3.287120e+06 -1.890519e+02 -3.170303e+03
3.376367e+06 9.854895e+02 -7.996932e+03
3.371155e+06 2.978330e+00 1.088883e+04
3.287402e+06 1.760870e+01 3.049781e+03
3.286654e+06 -1.940187e+02 -3.033615e+03
3.372807e+06 -1.596443e+00 1.054432e+04
3.377873e+06 1.029797e+03 -7.664757e+03
3.286134e+06 1.808531e+01 2.632126e+03
3.286960e+06 1.773610e+01 2.913749e+03
3.286209e+06 -1.989962e+02 -2.893684e+03
3.376602e+06 5.746713e+02 1.016191e+04
3.379318e+06 1.073904e+03 -7.316941e+03
3.286537e+06 1.789219e+01 2.774528e+03
3.375952e+06 -1.101137e+01 9.797573e+03
3.380699e+06 1.117679e+03 -6.953683e+03
3.285752e+06 1.832391e+01 2.486559e+03
3.377439e+06 -1.585157e+01 9.395337e+03
3.382013e+06 1.160920e+03 -6.575286e+03
3.377860e+06 1.029432e+03 7.664870e+03
3.285392e+06 1.861781e+01 2.337855e+03
3.284631e+06 -2.189513e+02 -2.301733e+03
3.378866e+06 -2.078427e+01 8.973891e+03
3.383256e+06 1.203331e+03 -6.182202e+03
3.379305e+06 1.073540e+03 7.317049e+03
3.285054e+06 1.897709e+01 2.186062e+03
3.284290e+06 -2.238954e+02 -2.145830e+03
3.380229e+06 -2.581369e+01 8.533301e+03
3.384425e+06 1.244478e+03 -5.775082e+03
3.284738e+06 1.941216e+01 2.031251e+03
3.283972e+06 -2.287627e+02 -1.986887e+03
3.381525e+06 -3.094514e+01 8.073684e+03
3.385516e+06 1.283733e+03 -5.354848e+03
3.284446e+06 1.993015e+01 1.873536e+03
3.283677e+06 -2.334852e+02 -1.825031e+03
3.382751e+06 -3.618115e+01 7.595233e+03
3.386523e+06 1.320188e+03 -4.922770e+03
3.284177e+06 2.053417e+01 1.713088e+03
3.283407e+06 -2.379466e+02 -1.660461e+03
3.383902e+06 -4.151663e+01 7.098253e+03
3.387442e+06 1.352536e+03 -4.480560e+03
3.283934e+06 2.121383e+01 1.550169e+03
3.283163e+06 -2.419498e+02 -1.493484e+03
3.384976e+06 -4.693026e+01 6.583214e+03
3.388268e+06 1.378937e+03 -4.030430e+03
3.283716e+06 2.193729e+01 1.385184e+03
3.282947e+06 -2.451536e+02 -1.324586e+03
3.385968e+06 -5.236518e+01 6.050847e+03
3.388994e+06 1.396947e+03 -3.575022e+03
3.283526e+06 2.262460e+01 1.218763e+03
3.282763e+06 -2.469648e+02 -1.154544e+03
3.386873e+06 -5.769499e+01 5.502292e+03
3.389617e+06 1.404087e+03 -3.116747e+03
3.283364e+06 2.310677e+01 1.051910e+03
3.282614e+06 -2.463421e+02 -9.846253e+02
3.387688e+06 -6.265101e+01 4.939363e+03
3.390134e+06 1.399535e+03 -2.657068e+03
3.283231e+06 2.308627e+01 8.862019e+02
3.282508e+06 -2.417360e+02 -8.168509e+02
3.388406e+06 -6.669013e+01 4.364981e+03
3.390548e+06 1.384930e+03 -2.197725e+03
3.283127e+06 2.234100e+01 7.238700e+02
3.282444e+06 -2.327917e+02 -6.537927e+02
3.389026e+06 -6.904647e+01 3.783713e+03
3.390863e+06 1.362906e+03 -1.741375e+03
3.283052e+06 2.098855e+01 5.672813e+02
3.282417e+06 -2.208595e+02 -4.977339e+02
3.389545e+06 -6.940655e+01 3.201532e+03
3.391084e+06 1.335702e+03 -1.290548e+03
3.282994e+06 1.422443e+01 2.646680e+01
3.283003e+06 1.933407e+01 4.182635e+02
3.282421e+06 -2.072234e+02 -3.501921e+02
3.389965e+06 -6.829738e+01 2.624072e+03
3.391216e+06 1.304956e+03 -8.472935e+02
3.282979e+06 1.759601e+01 2.780037e+02
3.282449e+06 -1.926101e+02 -2.120931e+02
3.391263e+06 1.271819e+03 -4.131758e+02
3.390849e+06 1.362552e+03 1.741301e+03
3.390290e+06 -6.643601e+01 2.055277e+03
3.282977e+06 1.587782e+01 1.472467e+02
3.391229e+06 1.237093e+03 1.064602e+01
3.391071e+06 1.335347e+03 1.290460e+03
3.390523e+06 -6.423316e+01 1.497636e+03
3.283030e+06 1.265026e+01 -8.402915e+01
3.282570e+06 -1.619479e+02 3.369071e+01
3.392690e+06 7.510985e+02 6.927822e+02
3.391117e+06 1.201330e+03 4.233322e+02
3.283082e+06 1.115532e+01 -1.840403e+02
3.282759e+06 -1.305244e+02 2.371064e+02
3.392649e+06 7.295753e+02 1.599280e+02
3.390931e+06 1.164914e+03 8.242841e+02
3.283148e+06 9.731799e+00 -2.734342e+02
3.282874e+06 -1.147236e+02 3.225707e+02
3.390710e+06 -5.706012e+01 -9.532762e+01
3.390672e+06 1.128105e+03 1.213083e+03
3.283226e+06 8.370117e+00 -3.521237e+02
3.282999e+06 -9.890937e+01 3.971093e+02
3.390613e+06 -5.462753e+01 -5.973507e+02
3.390344e+06 1.091079e+03 1.589443e+03
3.283314e+06 7.058552e+00 -4.200524e+02
3.283135e+06 -8.309803e+01 4.606807e+02
3.390442e+06 -5.218325e+01 -1.084273e+03
3.389948e+06 1.053952e+03 1.953171e+03
3.283412e+06 5.787081e+00 -4.771841e+02
3.283278e+06 -6.729924e+01 5.132599e+02
3.390198e+06 -4.971956e+01 -1.555902e+03
3.389488e+06 1.016799e+03 2.304142e+03
3.283517e+06 4.545991e+00 -5.234973e+02
3.283428e+06 -5.151691e+01 5.548309e+02
3.389885e+06 -4.723006e+01 -2.012107e+03
3.388966e+06 9.796623e+02 2.642281e+03
3.283628e+06 3.327444e+00 -5.589784e+02
3.283583e+06 -3.575249e+01 5.853854e+02
3.389505e+06 -4.470751e+01 -2.452804e+03
3.388385e+06 9.425671e+02 2.967541e+03
3.283744e+06 2.124920e+00 -5.836213e+02
3.283741e+06 -2.000573e+01 6.049184e+02
3.389061e+06 -4.214812e+01 -2.877942e+03
3.387745e+06 9.055236e+02 3.279900e+03
3.283862e+06 9.325608e-01 -5.974226e+02
3.283901e+06 -4.275137e+00 6.134282e+02
3.388554e+06 -3.955046e+01 -3.287488e+03
3.387051e+06 8.685333e+02 3.579348e+03
3.283981e+06 -2.530971e-01 -6.003809e+02
3.284061e+06 1.144117e+01 6.109134e+02
3.387987e+06 -3.691449e+01 -3.681423e+03
3.386304e+06 8.315925e+02 3.865885e+03
3.284100e+06 -1.435427e+00 -5.924967e+02
3.284220e+06 2.714549e+01 5.973745e+02
3.387363e+06 -3.424336e+01 -4.059739e+03
3.385506e+06 7.946940e+02 4.139516e+03
3.284539e+06 -6.160675e+00 -4.525297e+02
3.284216e+06 -2.616334e+00 -5.737695e+02
3.284376e+06 4.284027e+01 5.728108e+02
3.386684e+06 -3.154101e+01 -4.422433e+03
3.384661e+06 7.578287e+02 4.400247e+03
3.387039e+06 8.681772e+02 -3.579508e+03
3.284330e+06 -3.797069e+00 -5.441997e+02
3.284528e+06 5.852835e+01 5.372223e+02
3.385952e+06 -2.881333e+01 -4.769507e+03
3.383769e+06 7.209873e+02 4.648090e+03
3.386292e+06 8.312386e+02 -3.866044e+03
3.284438e+06 -4.978563e+00 -5.037870e+02
3.385170e+06 -2.606704e+01 -5.100965e+03
3.382834e+06 6.841601e+02 4.883052e+03
3.284632e+06 -7.343733e+00 -3.904263e+02
3.284813e+06 8.989573e+01 4.329652e+02
3.384339e+06 -2.330895e+01 -5.416812e+03
3.381858e+06 6.473378e+02 5.105143e+03
3.284716e+06 -8.527486e+00 -3.174735e+02
3.285061e+06 1.212742e+02 2.845870e+02
3.380844e+06 6.105110e+02 5.314373e+03
3.383463e+06 -2.054706e+01 -5.717056e+03
3.284788e+06 -9.711279e+00 -2.336680e+02
3.285168e+06 1.369779e+02 1.938442e+02
3.379793e+06 5.736712e+02 5.510751e+03
3.382543e+06 -1.778919e+01 -6.001705e+03
3.284847e+06 -1.089585e+01 -1.390047e+02
3.285262e+06 1.526978e+02 9.205954e+01
3.382020e+06 3.709952e+02 -6.508667e+03
3.378708e+06 5.368107e+02 5.694284e+03
3.284892e+06 -1.208126e+01 -3.347835e+01
3.285340e+06 1.684402e+02 -2.077184e+01
3.380945e+06 3.502385e+02 -6.758433e+03
3.377591e+06 4.999226e+02 5.864982e+03
3.284921e+06 -1.326893e+01 8.291668e+01
3.285401e+06 1.842112e+02 -1.446551e+02
3.379547e+06 -9.613375e+00 -6.762175e+03
3.376445e+06 4.630005e+02 6.022853e+03
3.284932e+06 -1.446091e+01 2.101867e+02
3.285445e+06 2.000191e+02 -2.795954e+02
3.378477e+06 -6.943935e+00 -6.984540e+03
3.375271e+06 4.260401e+02 6.167908e+03
3.284925e+06 -1.566064e+01 3.483361e+02
3.285469e+06 2.158707e+02 -4.255955e+02
3.377375e+06 -4.312832e+00 -7.191362e+03
3.374073e+06 3.890389e+02 6.300158e+03
3.284897e+06 -1.687400e+01 4.973674e+02
3.285472e+06 2.317746e+02 -5.826562e+02
3.376244e+06 -1.724548e+00 -7.382652e+03
3.372853e+06 3.519978e+02 6.419621e+03
3.284846e+06 -1.810786e+01 6.572789e+02
3.285452e+06 2.477373e+02 -7.507718e+02
3.375086e+06 8.167184e-01 -7.558424e+03
3.371613e+06 3.149226e+02 6.526318e+03
3.284772e+06 -1.937258e+01 8.280612e+02
3.285408e+06 2.637642e+02 -9.299292e+02
3.373903e+06 3.308051e+00 -7.718692e+03
3.370354e+06 2.778251e+02 6.620283e+03
3.284673e+06 -2.068076e+01 1.009692e+03
3.285338e+06 2.798546e+02 -1.120100e+03
3.372698e+06 5.748752e+00 -7.863473e+03
3.369081e+06 2.407285e+02 6.701561e+03
3.372842e+06 3.516765e+02 -6.419775e+03
3.284546e+06 -2.204843e+01 1.202130e+03
3.285242e+06 2.960018e+02 -1.321236e+03
3.371473e+06 8.138093e+00 -7.992785e+03
3.367794e+06 2.036695e+02 6.770224e+03
3.371602e+06 3.146028e+02 -6.526471e+03
3.283988e+06 -2.669978e+01 1.843363e+03
3.284391e+06 -2.349366e+01 1.405307e+03
3.285116e+06 3.121843e+02 -1.533256e+03
3.370230e+06 1.047857e+01 -8.106650e+03
3.366496e+06 1.667051e+02 6.826370e+03
3.284206e+06 -2.503740e+01 1.619109e+03
3.368971e+06 1.277324e+01 -8.205099e+03
3.365190e+06 1.299215e+02 6.870143e+03
3.283736e+06 -2.849797e+01 2.077803e+03
3.367700e+06 1.502813e+01 -8.288169e+03
3.363879e+06 9.344349e+01 6.901747e+03
3.283447e+06 -3.043890e+01 2.322028e+03
3.284285e+06 3.757006e+02 -2.486364e+03
3.366418e+06 1.725041e+01 -8.355912e+03
3.362564e+06 5.745379e+01 6.921468e+03
3.283119e+06 -3.250676e+01 2.575434e+03
3.283982e+06 3.902127e+02 -2.748864e+03
3.365127e+06 1.944836e+01 -8.408400e+03
3.361249e+06 2.221337e+01 6.929703e+03
3.282748e+06 -3.464019e+01 2.837102e+03
3.283631e+06 4.031287e+02 -3.019379e+03
3.359936e+06 -1.190214e+01 6.926994e+03
3.363831e+06 2.163155e+01 -8.445734e+03
3.282331e+06 -3.668701e+01 3.105618e+03
3.283225e+06 4.132042e+02 -3.296185e+03
3.358629e+06 -4.435632e+01 6.914069e+03
3.362531e+06 2.380712e+01 -8.468060e+03
3.281866e+06 -3.831351e+01 3.378758e+03
3.282755e+06 4.182672e+02 -3.576518e+03
3.360535e+06 1.159847e+01 -8.617724e+03
3.357331e+06 -7.439020e+01 6.891877e+03
3.281348e+06 -3.885751e+01 3.653004e+03
3.282203e+06 4.145226e+02 -3.855853e+03
3.359180e+06 -9.236647e+00 -8.603295e+03
3.356045e+06 -1.009671e+02 6.861590e+03
3.280777e+06 -3.753256e+01 3.923045e+03
3.281560e+06 3.989014e+02 -4.127686e+03
3.358638e+06 3.025167e+01 -8.447646e+03
3.354775e+06 -1.228413e+02 6.824467e+03
3.280153e+06 -3.422951e+01 4.182384e+03
3.280833e+06 3.732563e+02 -4.385193e+03
3.357353e+06 3.224259e+01 -8.413360e+03
3.353523e+06 -1.391611e+02 6.781358e+03
3.279479e+06 -2.968417e+01 4.425258e+03
3.280042e+06 3.417011e+02 -4.623305e+03
3.356078e+06 3.393567e+01 -8.366902e+03
3.352291e+06 -1.502033e+02 6.732919e+03
3.278761e+06 -2.467471e+01 4.647733e+03
3.279202e+06 3.067538e+02 -4.838907e+03
3.354818e+06 3.500944e+01 -8.310061e+03
3.351076e+06 -1.570976e+02 6.680231e+03
3.354765e+06 -1.231493e+02 -6.824552e+03
3.278005e+06 -1.962337e+01 4.847329e+03
3.278322e+06 2.698502e+02 -5.030085e+03
3.353573e+06 3.520498e+01 -8.245417e+03
3.349878e+06 -1.610226e+02 6.624536e+03
3.353514e+06 -1.394675e+02 -6.781433e+03
3.277217e+06 -1.473064e+01 5.022491e+03
3.277411e+06 2.318120e+02 -5.195654e+03
3.352344e+06 3.464448e+01 -8.175784e+03
3.348694e+06 -1.628780e+02 6.566894e+03
3.274709e+06 -1.624687e+00 5.393110e+03
3.276401e+06 -1.008465e+01 5.172227e+03
3.276475e+06 1.931127e+02 -5.334865e+03
3.351132e+06 3.368949e+01 -8.103371e+03
3.347525e+06 -1.633089e+02 6.508129e+03
3.275563e+06 -5.715623e+00 5.295903e+03
3.349935e+06 3.260930e+01 -8.029608e+03
3.346369e+06 -1.627667e+02 6.448855e+03
3.273842e+06 2.201838e+00 5.463590e+03
3.348752e+06 3.153440e+01 -7.955378e+03
3.345224e+06 -1.615668e+02 6.389523e+03
3.272966e+06 5.784126e+00 5.507186e+03
3.272589e+06 3.572702e+01 -5.621000e+03
3.347583e+06 3.052230e+01 -7.881239e+03
3.344092e+06 -1.599280e+02 6.330452e+03
3.272087e+06 9.144327e+00 5.523807e+03
3.271604e+06 -3.864575e+00 -5.624075e+03
3.346426e+06 2.959403e+01 -7.807546e+03
3.342971e+06 -1.580032e+02 6.271866e+03
3.271207e+06 1.230470e+01 5.513411e+03
3.270622e+06 -4.349915e+01 -5.599665e+03
3.345282e+06 2.875305e+01 -7.734529e+03
3.341860e+06 -1.558966e+02 6.213919e+03
3.270331e+06 1.528622e+01 5.475985e+03
3.269646e+06 -8.317156e+01 -5.547772e+03
3.344148e+06 2.799356e+01 -7.662337e+03
3.340760e+06 -1.536803e+02 6.156712e+03
3.269464e+06 1.810799e+01 5.411534e+03
3.268680e+06 -1.228798e+02 -5.468410e+03
3.343026e+06 2.730664e+01 -7.591066e+03
3.339671e+06 -1.514022e+02 6.100310e+03
3.268608e+06 2.078837e+01 5.320080e+03
3.267728e+06 -1.626247e+02 -5.361606e+03
3.338592e+06 -1.490935e+02 6.044754e+03
3.341915e+06 2.668140e+01 -7.520776e+03
3.267767e+06 2.334318e+01 5.201647e+03
3.266794e+06 -2.024063e+02 -5.227386e+03
3.337523e+06 -1.467734e+02 5.990065e+03
3.340814e+06 2.610808e+01 -7.451506e+03
3.266947e+06 2.578848e+01 5.056264e+03
3.265882e+06 -2.422251e+02 -5.065781e+03
3.338931e+06 -7.774797e+01 -7.471511e+03
3.336464e+06 -1.444539e+02 5.936253e+03
3.266149e+06 2.813931e+01 4.883961e+03
3.264995e+06 -2.820792e+02 -4.876820e+03
3.337860e+06 -7.655193e+01 -7.403820e+03
3.335414e+06 -1.421407e+02 5.883322e+03
3.338583e+06 -1.493743e+02 -6.044764e+03
3.265379e+06 3.041016e+01 4.684764e+03
3.264137e+06 -3.219661e+02 -4.660527e+03
3.337574e+06 2.461348e+01 -7.249964e+03
3.334375e+06 -1.398366e+02 5.831269e+03
3.337514e+06 -1.470533e+02 -5.990073e+03
3.264639e+06 3.261663e+01 4.458697e+03
3.263312e+06 -3.618818e+02 -4.416925e+03
3.336514e+06 2.416847e+01 -7.184887e+03
3.333344e+06 -1.375420e+02 5.780092e+03
3.263934e+06 3.477441e+01 4.205781e+03
3.262524e+06 -4.018208e+02 -4.146034e+03
3.335463e+06 2.374176e+01 -7.120860e+03
3.332323e+06 -1.352561e+02 5.729784e+03
3.262066e+06 4.113131e+01 3.286056e+03
3.263268e+06 3.690027e+01 3.926030e+03
3.261776e+06 -4.417763e+02 -3.847865e+03
3.334423e+06 2.333038e+01 -7.057877e+03
3.331311e+06 -1.329771e+02 5.680340e+03
3.262644e+06 3.901277e+01 3.619454e+03
3.261072e+06 -4.817412e+02 -3.522426e+03
3.333391e+06 2.293161e+01 -6.995934e+03
3.330308e+06 -1.307033e+02 5.631755e+03
3.261539e+06 4.327867e+01 2.925833e+03
3.332369e+06 2.254353e+01 -6.935025e+03
3.329314e+06 -1.284327e+02 5.584025e+03
3.261064e+06 4.547904e+01 2.538776e+03
3.259264e+06 -6.016050e+02 -2.382479e+03
3.331356e+06 2.216503e+01 -6.875147e+03
3.328329e+06 -1.261632e+02 5.537145e+03
3.260648e+06 4.776043e+01 2.124867e+03
3.258775e+06 -6.415194e+02 -1.947917e+03
3.330352e+06 2.179464e+01 -6.816296e+03
3.327352e+06 -1.238933e+02 5.491112e+03
3.260292e+06 5.015442e+01 1.684086e+03
3.258348e+06 -6.813975e+02 -1.486032e+03
3.329357e+06 2.143184e+01 -6.758467e+03
3.326383e+06 -1.216212e+02 5.445923e+03
3.260002e+06 5.269608e+01 1.216405e+03
3.257988e+06 -7.212293e+02 -9.967992e+02
3.328371e+06 2.107601e+01 -6.701657e+03
3.325423e+06 -1.193457e+02 5.401577e+03
3.259780e+06 5.542668e+01 7.217935e+02
3.257698e+06 -7.610030e+02 -4.801884e+02
3.327393e+06 2.072664e+01 -6.645865e+03
3.324471e+06 -1.170654e+02 5.358073e+03
3.259631e+06 5.839254e+01 2.002216e+02
3.257482e+06 -8.007044e+02 6.382787e+01
3.326424e+06 2.038306e+01 -6.591088e+03
3.323527e+06 -1.147798e+02 5.315408e+03
3.259558e+06 6.164603e+01 -3.483367e+02
3.257343e+06 -8.403147e+02 6.352707e+02
3.325463e+06 2.004530e+01 -6.537323e+03
3.322590e+06 -1.124888e+02 5.273582e+03
3.259565e+06 6.524759e+01 -9.238955e+02
3.257285e+06 -8.798066e+02 1.234147e+03
3.321662e+06 -1.101926e+02 5.232593e+03
3.324462e+06 -1.173393e+02 -5.358081e+03
3.324510e+06 1.971239e+01 -6.484571e+03
3.259657e+06 6.926414e+01 -1.526447e+03
3.257313e+06 -9.191400e+02 1.860439e+03
3.320741e+06 -1.078930e+02 5.192437e+03
3.323518e+06 -1.150535e+02 -5.315417e+03
3.323565e+06 1.938388e+01 -6.432830e+03
3.259837e+06 7.377054e+01 -2.155943e+03
3.257429e+06 -9.582522e+02 2.514086e+03
3.321975e+06 -5.764114e+01 -6.463344e+03
3.319827e+06 -1.055931e+02 5.153111e+03
3.260109e+06 7.884745e+01 -2.812282e+03
3.257638e+06 -9.970459e+02 3.194962e+03
3.321053e+06 -5.641632e+01 -6.413333e+03
3.318920e+06 -1.032983e+02 5.114605e+03
3.260479e+06 8.457857e+01 -3.495266e+03
3.257946e+06 -1.035367e+03 3.902841e+03
3.320776e+06 1.841677e+01 -6.283659e+03
3.318021e+06 -1.010171e+02 5.076908e+03
3.262220e+06 1.064376e+02 -5.699651e+03
3.260950e+06 9.104641e+01 -4.204564e+03
3.258356e+06 -1.072970e+03 4.637342e+03
3.319861e+06 1.809619e+01 -6.235949e+03
3.317128e+06 -9.876266e+01 5.039999e+03
3.261528e+06 9.831991e+01 -4.939641e+03
3.318953e+06 1.777388e+01 -6.189242e+03
3.316242e+06 -9.655471e+01 5.003850e+03
3.263030e+06 1.153716e+02 -6.483271e+03
3.318053e+06 1.744734e+01 -6.143532e+03
3.315362e+06 -9.442171e+01 4.968417e+03
3.263967e+06 1.249611e+02 -7.288425e+03
3.261176e+06 -1.203085e+03 7.822343e+03
3.317159e+06 1.711428e+01 -6.098812e+03
3.314489e+06 -9.240455e+01 4.933638e+03
3.265038e+06 1.347813e+02 -8.111815e+03
3.262236e+06 -1.222153e+03 8.669172e+03
3.316272e+06 1.677177e+01 -6.055070e+03
3.313622e+06 -9.056230e+01 4.899428e+03
3.266250e+06 1.438936e+02 -8.948150e+03
3.263480e+06 -1.227524e+03 9.526165e+03
3.315392e+06 1.641689e+01 -6.012287e+03
3.312760e+06 -8.897870e+01 4.865665e+03
3.267610e+06 1.506959e+02 -9.789077e+03
3.264942e+06 -1.211299e+03 1.038267e+04
3.314518e+06 1.604711e+01 -5.970435e+03
3.311904e+06 -8.777377e+01 4.832187e+03
3.269120e+06 1.540285e+02 -1.062295e+04
3.266623e+06 -1.172639e+03 1.122541e+04
3.313650e+06 1.566074e+01 -5.929472e+03
3.311053e+06 -8.711692e+01 4.798778e+03
3.270777e+06 1.545062e+02 -1.143770e+04
3.268493e+06 -1.119068e+03 1.204287e+04
3.312788e+06 1.525818e+01 -5.889334e+03
3.310206e+06 -8.724379e+01 4.765164e+03
3.272573e+06 1.536121e+02 -1.222419e+04
3.270520e+06 -1.056988e+03 1.282748e+04
3.311931e+06 1.484532e+01 -5.849924e+03
3.309363e+06 -8.845937e+01 4.731023e+03
3.311895e+06 -8.803864e+01 -4.832208e+03
3.274498e+06 1.523357e+02 -1.297646e+04
3.272683e+06 -9.900581e+02 1.357459e+04
3.311079e+06 1.443577e+01 -5.811094e+03
3.308524e+06 -9.105617e+01 4.696083e+03
3.311044e+06 -8.738105e+01 -4.798801e+03
3.276544e+06 1.511164e+02 -1.369073e+04
3.274966e+06 -9.204053e+02 1.428125e+04
3.310232e+06 1.406370e+01 -5.772608e+03
3.307689e+06 -9.510744e+01 4.660178e+03
3.278700e+06 1.501089e+02 -1.436456e+04
3.277357e+06 -8.492843e+02 1.494557e+04
3.306858e+06 -1.003955e+02 4.623096e+03
3.309390e+06 1.379651e+01 -5.734092e+03
3.280958e+06 1.493256e+02 -1.499633e+04
3.279845e+06 -7.774466e+02 1.556630e+04
3.306032e+06 -1.066008e+02 4.584519e+03
3.308552e+06 1.372298e+01 -5.694977e+03
3.288262e+06 1.476292e+02 -1.662983e+04
3.283309e+06 1.487110e+02 -1.558494e+04
3.282421e+06 -7.053529e+02 1.614257e+04
3.307154e+06 -4.872015e+01 -5.729125e+03
3.305212e+06 -1.134558e+02 4.544151e+03
3.285746e+06 1.481780e+02 -1.612962e+04
3.306317e+06 -5.269432e+01 -5.684949e+03
3.304398e+06 -1.207637e+02 4.501752e+03
3.290849e+06 1.469675e+02 -1.708516e+04
3.306067e+06 1.447286e+01 -5.567284e+03
3.303592e+06 -1.283847e+02 4.457141e+03
3.293502e+06 1.461016e+02 -1.749533e+04
3.293467e+06 -4.188010e+02 1.799334e+04
3.305249e+06 1.480499e+01 -5.519727e+03
3.302793e+06 -1.362202e+02 4.410183e+03
3.296212e+06 1.449496e+02 -1.786010e+04
3.296380e+06 -3.481335e+02 1.834095e+04
3.304439e+06 1.511788e+01 -5.469278e+03
3.302003e+06 -1.442025e+02 4.360779e+03
3.298974e+06 1.434400e+02 -1.817927e+04
3.299341e+06 -2.779464e+02 1.864212e+04
3.303635e+06 1.540197e+01 -5.415825e+03
3.301222e+06 -1.522828e+02 4.308863e+03
3.301781e+06 1.415113e+02 -1.845267e+04
3.302343e+06 -2.082578e+02 1.889670e+04
3.302840e+06 1.565517e+01 -5.359295e+03
3.300450e+06 -1.604279e+02 4.254385e+03
3.304627e+06 1.391132e+02 -1.868016e+04
3.305380e+06 -1.390784e+02 1.910451e+04
3.302053e+06 1.587838e+01 -5.299643e+03
3.299689e+06 -1.686147e+02 4.197315e+03
3.307505e+06 1.362036e+02 -1.886159e+04
3.308446e+06 -7.041371e+01 1.926543e+04
3.301276e+06 1.607360e+01 -5.236837e+03
3.298938e+06 -1.768271e+02 4.137632e+03
3.310408e+06 1.327504e+02 -1.899680e+04
3.311534e+06 -2.264983e+00 1.937929e+04
3.300507e+06 1.624460e+01 -5.170861e+03
3.298198e+06 -1.850549e+02 4.075323e+03
3.313329e+06 1.287287e+02 -1.908565e+04
3.314638e+06 6.536955e+01 1.944595e+04
3.299749e+06 1.639377e+01 -5.101704e+03
3.297469e+06 -1.932911e+02 4.010382e+03
3.299680e+06 -1.688717e+02 -4.197365e+03
3.316263e+06 1.241211e+02 -1.912799e+04
3.317750e+06 1.324944e+02 1.946525e+04
3.299001e+06 1.652474e+01 -5.029358e+03
3.296752e+06 -2.015312e+02 3.942803e+03
3.298929e+06 -1.770833e+02 -4.137682e+03
3.319203e+06 1.189173e+02 -1.912367e+04
3.320865e+06 1.991171e+02 1.943702e+04
3.298265e+06 1.663948e+01 -4.953823e+03
3.296048e+06 -2.097732e+02 3.872588e+03
3.322141e+06 1.131123e+02 -1.907252e+04
3.323974e+06 2.652475e+02 1.936112e+04
3.297539e+06 1.674113e+01 -4.875097e+03
3.295356e+06 -2.180152e+02 3.799735e+03
3.325070e+06 1.067065e+02 -1.897439e+04
3.327073e+06 3.308998e+02 1.923736e+04
3.296826e+06 1.683124e+01 -4.793182e+03
3.294678e+06 -2.262580e+02 3.724246e+03
3.330153e+06 3.960907e+02 1.906560e+04
3.327985e+06 9.970603e+01 -1.882911e+04
3.294013e+06 -2.345010e+02 3.646122e+03
3.296125e+06 1.691202e+01 -4.708080e+03
3.336568e+06 7.525360e+01 -1.810875e+04
3.330877e+06 9.212040e+01 -1.863652e+04
3.293362e+06 -2.427452e+02 3.565364e+03
3.295437e+06 1.698455e+01 -4.619792e+03
3.333741e+06 8.396398e+01 -1.839646e+04
3.294071e+06 -1.299337e+02 -4.557996e+03
3.292726e+06 -2.509912e+02 3.481972e+03
3.339352e+06 6.600933e+01 -1.777323e+04
3.342151e+06 6.527323e+02 1.789507e+04
3.293405e+06 -1.348430e+02 -4.460138e+03
3.292105e+06 -2.592401e+02 3.395946e+03
3.342086e+06 5.625316e+01 -1.738975e+04
3.345035e+06 7.160253e+02 1.748076e+04
3.293453e+06 1.716683e+01 -4.335836e+03
3.291500e+06 -2.674938e+02 3.307286e+03
3.344762e+06 4.600858e+01 -1.695814e+04
3.347859e+06 7.790532e+02 1.701747e+04
3.292821e+06 1.721910e+01 -4.234826e+03
3.290910e+06 -2.757532e+02 3.215990e+03
3.347374e+06 3.529845e+01 -1.647829e+04
3.350615e+06 8.418641e+02 1.650507e+04
3.292203e+06 1.726923e+01 -4.130637e+03
3.290337e+06 -2.840200e+02 3.122056e+03
3.349914e+06 2.414630e+01 -1.595004e+04
3.353296e+06 9.045078e+02 1.594344e+04
3.291601e+06 1.731766e+01 -4.023271e+03
3.289781e+06 -2.922956e+02 3.025481e+03
3.352375e+06 1.257313e+01 -1.537332e+04
3.355896e+06 9.670326e+02 1.533250e+04
3.291015e+06 1.736600e+01 -3.912727e+03
3.289241e+06 -3.005810e+02 2.926261e+03
3.354749e+06 5.986374e-01 -1.474804e+04
3.358407e+06 1.029481e+03 1.467220e+04
3.290445e+06 1.741562e+01 -3.799004e+03
3.288720e+06 -3.088772e+02 2.824395e+03
3.290329e+06 -2.842659e+02 -3.122109e+03
3.357029e+06 -1.176116e+01 -1.407421e+04
3.360821e+06 1.091883e+03 1.396255e+04
3.289892e+06 1.746760e+01 -3.682101e+03
3.288217e+06 -3.171833e+02 2.719879e+03
3.289772e+06 -2.925406e+02 -3.025534e+03
3.359207e+06 -2.449147e+01 -1.335187e+04
3.363131e+06 1.154239e+03 1.320364e+04
3.289356e+06 1.752419e+01 -3.562015e+03
3.287732e+06 -3.254974e+02 2.612712e+03
3.361275e+06 -3.757856e+01 -1.258122e+04
3.365329e+06 1.216504e+03 1.239568e+04
3.288838e+06 1.758746e+01 -3.438744e+03
3.287266e+06 -3.338143e+02 2.502897e+03
3.368278e+06 -9.284943e+01 -9.026130e+03
3.363226e+06 -5.100476e+01 -1.176258e+04
3.367407e+06 1.278555e+03 1.153908e+04
3.288338e+06 1.766036e+01 -3.312286e+03
3.286820e+06 -3.421245e+02 2.390443e+03
3.365049e+06 -6.473992e+01 -1.089650e+04
3.369354e+06 1.340128e+03 1.063447e+04
3.287857e+06 1.774647e+01 -3.182638e+03
3.286394e+06 -3.504130e+02 2.275368e+03
3.366737e+06 -7.872681e+01 -9.983883e+03
3.287395e+06 1.785007e+01 -3.049797e+03
3.285988e+06 -3.586545e+02 2.157701e+03
3.369663e+06 -1.068785e+02 -8.025422e+03
3.285603e+06 -3.668114e+02 2.037495e+03
3.286952e+06 1.797636e+01 -2.913765e+03
3.370879e+06 -1.203574e+02 -6.985186e+03
3.375586e+06 1.563334e+03 6.568373e+03
3.285239e+06 -3.748275e+02 1.914827e+03
3.286529e+06 1.813190e+01 -2.774543e+03
3.371914e+06 -1.323781e+02 -5.910891e+03
3.376655e+06 1.600292e+03 5.458690e+03
3.285378e+06 -2.089770e+02 -2.604119e+03
3.284898e+06 -3.826210e+02 1.789817e+03
3.372758e+06 -1.412139e+02 -4.811319e+03
3.377460e+06 1.616249e+03 4.328750e+03
3.284994e+06 -2.139706e+02 -2.454514e+03
3.284579e+06 -3.900731e+02 1.662636e+03
3.373402e+06 -1.449302e+02 -3.699785e+03
3.377974e+06 1.604854e+03 3.194675e+03
3.285385e+06 1.885600e+01 -2.337868e+03
3.284283e+06 -3.970159e+02 1.533532e+03
3.373847e+06 -1.433392e+02 -2.592280e+03
3.378218e+06 1.571606e+03 2.072925e+03
3.285046e+06 1.921468e+01 -2.186073e+03
3.284012e+06 -4.032083e+02 1.402848e+03
3.374097e+06 -1.381899e+02 -1.502580e+03
3.378235e+06 1.526090e+03 9.754517e+02
3.284731e+06 1.964931e+01 -2.031261e+03
3.283766e+06 -4.083086e+02 1.271056e+03
3.374162e+06 -1.312348e+02 -4.399308e+02
3.378054e+06 1.473909e+03 -9.044623e+01
3.284438e+06 2.016710e+01 -1.873544e+03
3.283547e+06 -4.118308e+02 1.138790e+03
3.374053e+06 -1.234091e+02 5.898629e+02
3.377696e+06 1.418200e+03 -1.120265e+03
3.284170e+06 2.077065e+01 -1.713094e+03
3.283356e+06 -4.130951e+02 1.006870e+03
3.373782e+06 -1.151768e+02 1.583128e+03
3.377177e+06 1.360714e+03 -2.111176e+03
3.283926e+06 2.145038e+01 -1.550174e+03
3.283194e+06 -4.111846e+02 8.763028e+02
3.373357e+06 -1.067665e+02 2.537496e+03
3.376509e+06 1.302427e+03 -3.061363e+03
3.283709e+06 2.217334e+01 -1.385186e+03
3.283064e+06 -4.050363e+02 7.481295e+02
3.370295e+06 -7.284016e+01 5.941835e+03
3.372787e+06 -9.828800e+01 3.451413e+03
3.375702e+06 1.243879e+03 -3.969647e+03
3.283518e+06 2.286098e+01 -1.218763e+03
3.282964e+06 -3.939940e+02 6.230174e+02
3.372082e+06 -8.979349e+01 4.323853e+03
3.374765e+06 1.185357e+03 -4.835255e+03
3.283356e+06 2.334271e+01 -1.051907e+03
3.282896e+06 -3.783901e+02 5.015223e+02
3.371249e+06 -8.130663e+01 5.154141e+03
3.283223e+06 2.332249e+01 -8.861955e+02
3.282855e+06 -3.592249e+02 3.845867e+02
3.369228e+06 -6.440447e+01 6.686662e+03
3.372530e+06 1.068871e+03 -6.436622e+03
3.283120e+06 2.257741e+01 -7.238605e+02
3.282840e+06 -3.374974e+02 2.732617e+02
3.368054e+06 -5.601095e+01 7.388459e+03
3.369859e+06 9.532613e+02 -7.863314e+03
3.283044e+06 2.122503e+01 -5.672688e+02
3.282848e+06 -3.139721e+02 1.684397e+02
3.366779e+06 -4.767482e+01 8.047143e+03
3.368376e+06 8.957173e+02 -8.510920e+03
3.282996e+06 1.957138e+01 -4.182485e+02
3.282876e+06 -2.891991e+02 7.082016e+01
3.365411e+06 -3.941522e+01 8.662687e+03
3.366804e+06 8.382841e+02 -9.114678e+03
3.282971e+06 1.783351e+01 -2.779859e+02
3.282922e+06 -2.635684e+02 -1.907002e+01
3.363956e+06 -3.125445e+01 9.235099e+03
3.365149e+06 7.809105e+02 -9.674617e+03
3.282985e+06 -2.373535e+02 -1.008435e+02
3.282840e+06 -3.142211e+02 -1.683915e+02
3.282969e+06 1.611592e+01 -1.472267e+02
3.362420e+06 -2.321813e+01 9.764417e+03
3.363416e+06 7.235459e+02 -1.019078e+04
3.282987e+06 1.446328e+01 -2.644494e+01
3.283061e+06 -2.107470e+02 -1.742210e+02
3.282868e+06 -2.894476e+02 -7.076629e+01
3.360809e+06 -1.533285e+01 1.025069e+04
3.361613e+06 6.661423e+02 -1.066323e+04
3.282657e+06 -1.462823e+02 1.407802e+02
3.283150e+06 -1.838832e+02 -2.390046e+02
3.359131e+06 -7.626733e+00 1.069400e+04
3.359746e+06 6.086555e+02 -1.109205e+04
3.283074e+06 1.139524e+01 1.840658e+02
3.283250e+06 -1.568569e+02 -2.950572e+02
3.357392e+06 -1.273261e-01 1.109441e+04
3.357821e+06 5.510454e+02 -1.147730e+04
3.283140e+06 9.972632e+00 2.734611e+02
3.283359e+06 -1.297322e+02 -3.422852e+02
3.355598e+06 7.138778e+00 1.145200e+04
3.355844e+06 4.932765e+02 -1.181907e+04
3.283218e+06 8.611625e+00 3.521520e+02
3.283476e+06 -1.025528e+02 -3.806276e+02
3.353755e+06 1.414640e+01 1.176686e+04
3.353822e+06 4.353170e+02 -1.211745e+04
3.283307e+06 7.300867e+00 4.200817e+02
3.283598e+06 -7.534784e+01 -4.100446e+02
3.351869e+06 2.087248e+01 1.203908e+04
3.351761e+06 3.771392e+02 -1.237253e+04
3.283404e+06 6.030645e+00 4.772143e+02
3.283724e+06 -4.813515e+01 -4.305132e+02
3.349948e+06 2.729751e+01 1.226875e+04
3.349667e+06 3.187191e+02 -1.258441e+04
3.283510e+06 4.790488e+00 5.235280e+02
3.283853e+06 -2.092562e+01 -4.420198e+02
3.344031e+06 4.461632e+01 1.270338e+04
3.347997e+06 3.340453e+01 1.245596e+04
3.347547e+06 2.600357e+02 -1.275317e+04
3.283621e+06 3.573261e+00 5.590099e+02
3.283984e+06 6.275656e+00 -4.445573e+02
3.346023e+06 3.918027e+01 1.260080e+04
3.283736e+06 2.371457e+00 5.836532e+02
3.284113e+06 3.346657e+01 -4.381230e+02
3.342029e+06 4.970808e+01 1.276377e+04
3.283854e+06 1.180652e+00 5.974547e+02
3.284241e+06 6.064764e+01 -4.227153e+02
3.340022e+06 5.445653e+01 1.278208e+04
3.338927e+06 2.235158e+01 -1.299900e+04
3.283973e+06 -4.178936e-03 6.004134e+02
3.284365e+06 8.782186e+01 -3.983340e+02
3.338016e+06 5.886771e+01 1.275839e+04
3.336768e+06 -3.786500e+01 -1.295362e+04
3.284092e+06 -1.185019e+00 5.925291e+02
3.284485e+06 1.149922e+02 -3.649785e+02
3.336018e+06 6.295450e+01 1.269279e+04
3.334619e+06 -9.841377e+01 -1.286570e+04
3.284208e+06 -2.364846e+00 5.738021e+02
3.284597e+06 1.421635e+02 -3.226467e+02
3.334033e+06 6.673551e+01 1.258538e+04
3.332487e+06 -1.592954e+02 -1.273533e+04
3.284321e+06 -3.544251e+00 5.442326e+02
3.284702e+06 1.693409e+02 -2.713356e+02
3.332069e+06 7.023767e+01 1.243627e+04
3.330377e+06 -2.205051e+02 -1.256263e+04
3.284796e+06 1.965303e+02 -2.110406e+02
3.284429e+06 -4.724593e+00 5.038198e+02
3.330130e+06 7.349475e+01 1.224555e+04
3.328295e+06 -2.820304e+02 -1.234770e+04
3.284531e+06 -5.905478e+00 4.525628e+02
3.284879e+06 2.237378e+02 -1.417559e+02
3.328223e+06 7.654962e+01 1.201337e+04
3.326248e+06 -3.438458e+02 -1.209070e+04
3.284942e+06 1.055816e+02 3.642927e+02
3.284950e+06 2.509691e+02 -6.347394e+01
3.326354e+06 7.945199e+01 1.173988e+04
3.324241e+06 -4.059079e+02 -1.179178e+04
3.284708e+06 -8.269693e+00 3.175071e+02
3.285006e+06 2.782307e+02 2.381353e+01
3.324529e+06 8.226023e+01 1.142528e+04
3.322280e+06 -4.681436e+02 -1.145119e+04
3.284780e+06 -9.452432e+00 2.337017e+02
3.285046e+06 3.055276e+02 1.201142e+02
3.322755e+06 8.503699e+01 1.106986e+04
3.320373e+06 -5.304348e+02 -1.106921e+04
3.284839e+06 -1.063585e+01 1.390386e+02
3.285068e+06 3.328622e+02 2.254348e+02
3.321039e+06 8.784722e+01 1.067399e+04
3.318525e+06 -5.925896e+02 -1.064626e+04
3.284884e+06 -1.181991e+01 3.351237e+01
3.285072e+06 3.602344e+02 3.397769e+02
3.316304e+06 9.693676e+01 9.250366e+03
3.319386e+06 9.074922e+01 1.023820e+04
3.316745e+06 -6.542967e+02 -1.018295e+04
3.284913e+06 -1.300622e+01 -8.288282e+01
3.285055e+06 3.876370e+02 4.631350e+02
3.317805e+06 9.378146e+01 9.763281e+03
3.284924e+06 -1.419730e+01 -2.101527e+02
3.285016e+06 4.150540e+02 5.954901e+02
3.314889e+06 1.001107e+02 8.701190e+03
3.284916e+06 -1.539575e+01 -3.483025e+02
3.284953e+06 4.424548e+02 7.368024e+02
3.313571e+06 1.030028e+02 8.118436e+03
3.310503e+06 -8.793153e+02 -7.952542e+03
3.284888e+06 -1.660808e+01 -4.973344e+02
3.284865e+06 4.697883e+02 8.870001e+02
3.312357e+06 1.049258e+02 7.506345e+03
3.309239e+06 -9.186905e+02 -7.315466e+03
3.284837e+06 -1.784087e+01 -6.572470e+02
3.284749e+06 4.969730e+02 1.045966e+03
3.311254e+06 1.047691e+02 6.871528e+03
3.308141e+06 -9.418680e+02 -6.659424e+03
3.284763e+06 -1.910490e+01 -8.280302e+02
3.284606e+06 5.238856e+02 1.213515e+03
3.284944e+06 4.421942e+02 -7.367309e+02
3.310267e+06 1.019442e+02 6.222957e+03
3.307211e+06 -9.487944e+02 -5.994426e+03
3.284664e+06 -2.041222e+01 -1.009663e+03
3.284431e+06 5.503415e+02 1.389371e+03
3.284856e+06 4.695293e+02 -8.869334e+02
3.309395e+06 9.720146e+01 5.569565e+03
3.306424e+06 -9.452085e+02 -5.328753e+03
3.284537e+06 -2.177938e+01 -1.202104e+03
3.284224e+06 5.760738e+02 1.573128e+03
3.308634e+06 9.174634e+01 4.917875e+03
3.305763e+06 -9.355549e+02 -4.667684e+03
3.283982e+06 6.006969e+02 1.764204e+03
3.284382e+06 -2.322414e+01 -1.405283e+03
3.307981e+06 8.632398e+01 4.272021e+03
3.305215e+06 -9.223466e+02 -4.014409e+03
3.283703e+06 6.236595e+02 1.961786e+03
3.284197e+06 -2.476785e+01 -1.619089e+03
3.307431e+06 8.128060e+01 3.634572e+03
3.304769e+06 -9.070248e+02 -3.370886e+03
3.284771e+06 3.444464e+02 -1.989369e+03
3.283384e+06 6.441750e+02 2.164749e+03
3.306979e+06 7.675582e+01 3.007139e+03
3.304421e+06 -8.904222e+02 -2.738330e+03
3.284547e+06 3.603072e+02 -2.232965e+03
3.283021e+06 6.611242e+02 2.371575e+03
3.306621e+06 7.278777e+01 2.390746e+03
3.304165e+06 -8.730273e+02 -2.117501e+03
3.283438e+06 -3.017012e+01 -2.322021e+03
3.282610e+06 6.729251e+02 2.580262e+03
3.306086e+06 6.397971e+01 6.132101e+02
3.306355e+06 6.936270e+01 1.786045e+03
3.303999e+06 -8.551306e+02 -1.508876e+03
3.283110e+06 -3.223862e+01 -2.575433e+03
3.282148e+06 6.773971e+02 2.788289e+03
3.306178e+06 6.644255e+01 1.193448e+03
3.282739e+06 -3.437270e+01 -2.837107e+03
3.281628e+06 6.717497e+02 2.992766e+03
3.306079e+06 6.192399e+01 4.547859e+01
3.282323e+06 -3.642012e+01 -3.105630e+03
3.281050e+06 6.534649e+02 3.191337e+03
3.306153e+06 6.022698e+01 -5.096686e+02
3.304170e+06 -7.811275e+02 7.992919e+02
3.281857e+06 -3.804765e+01 -3.378778e+03
3.280412e+06 6.221448e+02 3.382562e+03
3.306306e+06 5.884440e+01 -1.052201e+03
3.304412e+06 -7.623004e+02 1.344362e+03
3.281340e+06 -3.859285e+01 -3.653033e+03
3.279721e+06 5.798980e+02 3.564426e+03
3.306538e+06 5.773627e+01 -1.582118e+03
3.304730e+06 -7.433853e+02 1.876628e+03
3.280768e+06 -3.726923e+01 -3.923083e+03
3.278982e+06 5.295886e+02 3.734057e+03
3.306845e+06 5.686761e+01 -2.099436e+03
3.305124e+06 -7.243895e+02 2.396113e+03
3.280144e+06 -3.396836e+01 -4.182430e+03
3.278202e+06 4.735661e+02 3.888826e+03
3.307227e+06 5.620775e+01 -2.604185e+03
3.305590e+06 -7.053169e+02 2.902849e+03
3.279471e+06 -2.942491e+01 -4.425312e+03
3.277388e+06 4.135545e+02 4.026614e+03
3.307681e+06 5.573066e+01 -3.096397e+03
3.306127e+06 -6.861709e+02 3.396867e+03
3.278753e+06 -2.441815e+01 -4.647794e+03
3.276546e+06 3.507778e+02 4.145808e+03
3.308206e+06 5.541258e+01 -3.576108e+03
3.306734e+06 -6.669541e+02 3.878201e+03
3.277997e+06 -1.936908e+01 -4.847397e+03
3.275682e+06 2.860958e+02 4.245217e+03
3.308800e+06 5.523395e+01 -4.043349e+03
3.307408e+06 -6.476694e+02 4.346882e+03
3.277208e+06 -1.447917e+01 -5.022565e+03
3.274800e+06 2.201111e+02 4.323980e+03
3.309461e+06 5.517635e+01 -4.498152e+03
3.308150e+06 -6.283208e+02 4.802937e+03
3.273905e+06 1.532453e+02 4.381489e+03
3.276393e+06 -9.835698e+00 -5.172307e+03
3.310187e+06 5.522469e+01 -4.940544e+03
3.308955e+06 -6.089128e+02 5.246390e+03
3.273002e+06 8.579204e+01 4.417325e+03
3.275555e+06 -5.469707e+00 -5.295988e+03
3.310978e+06 5.536386e+01 -5.370550e+03
3.309823e+06 -5.894495e+02 5.677263e+03
3.274552e+06 1.147123e+02 -5.532506e+03
3.272095e+06 1.795451e+01 4.431210e+03
3.313714e+06 5.620460e+01 -6.586433e+03
3.311830e+06 5.558171e+01 -5.788190e+03
3.310753e+06 -5.699376e+02 6.095573e+03
3.273573e+06 7.526184e+01 -5.590459e+03
3.271187e+06 -5.012854e+01 4.422965e+03
3.312742e+06 5.586561e+01 -6.193480e+03
3.311742e+06 -5.503820e+02 6.501333e+03
3.272958e+06 6.020392e+00 -5.507284e+03
3.270284e+06 -1.183642e+02 4.392482e+03
3.314742e+06 5.658806e+01 -6.967059e+03
3.272079e+06 9.377039e+00 -5.523909e+03
3.269388e+06 -1.866924e+02 4.339703e+03
3.315825e+06 5.700610e+01 -7.335364e+03
3.315047e+06 -4.915195e+02 7.643411e+03
3.271200e+06 1.253340e+01 -5.513516e+03
3.268504e+06 -2.550746e+02 4.264606e+03
3.316961e+06 5.744935e+01 -7.691354e+03
3.316257e+06 -4.718550e+02 7.999051e+03
3.270324e+06 1.551086e+01 -5.476092e+03
3.267636e+06 -3.234880e+02 4.167186e+03
3.318149e+06 5.790809e+01 -8.035028e+03
3.317517e+06 -4.521797e+02 8.342168e+03
3.269457e+06 1.832870e+01 -5.411643e+03
3.266787e+06 -3.919202e+02 4.047454e+03
3.319387e+06 5.837433e+01 -8.366386e+03
3.318825e+06 -4.325001e+02 8.672757e+03
3.268601e+06 2.100455e+01 -5.320190e+03
3.265962e+06 -4.603649e+02 3.905427e+03
3.268497e+06 -2.552854e+02 -4.264891e+03
3.320674e+06 5.883866e+01 -8.685424e+03
3.320182e+06 -4.128224e+02 8.990815e+03
3.267761e+06 2.355534e+01 -5.201759e+03
3.265163e+06 -5.288203e+02 3.741123e+03
3.267629e+06 -3.236955e+02 -4.167473e+03
3.322006e+06 5.929364e+01 -8.992137e+03
3.321583e+06 -3.931530e+02 9.296335e+03
3.266940e+06 2.599630e+01 -5.056377e+03
3.264396e+06 -5.972863e+02 3.554560e+03
3.323383e+06 5.973069e+01 -9.286518e+03
3.323029e+06 -3.734978e+02 9.589309e+03
3.266142e+06 2.834235e+01 -4.884075e+03
3.263663e+06 -6.657650e+02 3.345750e+03
3.324803e+06 6.014254e+01 -9.568558e+03
3.324516e+06 -3.538627e+02 9.869727e+03
3.265372e+06 3.060904e+01 -4.684879e+03
3.262969e+06 -7.342587e+02 3.114705e+03
3.326264e+06 6.052162e+01 -9.838248e+03
3.326044e+06 -3.342537e+02 1.013758e+04
3.264633e+06 3.281096e+01 -4.458813e+03
3.262317e+06 -8.027693e+02 2.861425e+03
3.327765e+06 6.086048e+01 -1.009558e+04
3.327611e+06 -3.146767e+02 1.039285e+04
3.263928e+06 3.496431e+01 -4.205898e+03
3.261711e+06 -8.712997e+02 2.585908e+03
3.329303e+06 6.115253e+01 -1.034053e+04
3.329214e+06 -2.951377e+02 1.063553e+04
3.261156e+06 -9.398505e+02 2.288144e+03
3.263262e+06 3.708582e+01 -3.926148e+03
3.334125e+06 6.168161e+01 -1.100103e+04
3.330877e+06 6.139067e+01 -1.057310e+04
3.330852e+06 -2.756432e+02 1.086561e+04
3.260653e+06 -1.008421e+03 1.968116e+03
3.262638e+06 3.919377e+01 -3.619572e+03
3.332485e+06 6.156908e+01 -1.079327e+04
3.332523e+06 -2.562008e+02 1.108307e+04
3.260417e+06 -5.217068e+02 -3.169720e+03
3.260209e+06 -1.077010e+03 1.625804e+03
3.335796e+06 6.172359e+01 -1.119637e+04
3.259813e+06 -5.616645e+02 -2.789741e+03
3.259825e+06 -1.145608e+03 1.261184e+03
3.337495e+06 6.169118e+01 -1.137930e+04
3.337718e+06 -1.982971e+02 1.165969e+04
3.261059e+06 4.564680e+01 -2.538895e+03
3.259506e+06 -1.214203e+03 8.742338e+02
3.339221e+06 6.158320e+01 -1.154982e+04
3.339503e+06 -1.792032e+02 1.182665e+04
3.260642e+06 4.792389e+01 -2.124987e+03
3.259257e+06 -1.282768e+03 4.649371e+02
3.340972e+06 6.140257e+01 -1.170795e+04
3.341313e+06 -1.602787e+02 1.198102e+04
3.260287e+06 5.031310e+01 -1.684206e+03
3.259079e+06 -1.351265e+03 3.329284e+01
3.342746e+06 6.115908e+01 -1.185373e+04
3.343144e+06 -1.416036e+02 1.212287e+04
3.259997e+06 5.285086e+01 -1.216525e+03
3.258978e+06 -1.419626e+03 -4.206722e+02
3.344542e+06 6.086418e+01 -1.198727e+04
3.344994e+06 -1.232232e+02 1.225231e+04
3.259775e+06 5.557710e+01 -7.219124e+02
3.258958e+06 -1.487752e+03 -8.968865e+02
3.346357e+06 6.051579e+01 -1.210864e+04
3.346863e+06 -1.050878e+02 1.236944e+04
3.259626e+06 5.853889e+01 -2.003389e+02
3.259022e+06 -1.555492e+03 -1.395210e+03
3.259074e+06 -1.351421e+03 -3.357503e+01
3.348190e+06 6.009656e+01 -1.221794e+04
3.348749e+06 -8.712492e+01 1.247433e+04
3.259553e+06 6.178860e+01 3.482219e+02
3.259174e+06 -1.622627e+03 -1.915400e+03
3.258974e+06 -1.419782e+03 4.203961e+02
3.350039e+06 5.959188e+01 -1.231521e+04
3.350650e+06 -6.929341e+01 1.256701e+04
3.259561e+06 6.538655e+01 9.237840e+02
3.259419e+06 -1.688835e+03 -2.457069e+03
3.351902e+06 5.899223e+01 -1.240047e+04
3.352564e+06 -5.157045e+01 1.264747e+04
3.259653e+06 6.940000e+01 1.526339e+03
3.259761e+06 -1.753659e+03 -3.019622e+03
3.353778e+06 5.829343e+01 -1.247372e+04
3.354490e+06 -3.394346e+01 1.271573e+04
3.259833e+06 7.390345e+01 2.155842e+03
3.260206e+06 -1.816449e+03 -3.602181e+03
3.355665e+06 5.749201e+01 -1.253495e+04
3.356427e+06 -1.640579e+01 1.277176e+04
3.260105e+06 7.897786e+01 2.812187e+03
3.260759e+06 -1.876285e+03 -4.203484e+03
3.361374e+06 5.446167e+01 -1.264634e+04
3.357561e+06 5.658709e+01 -1.258414e+04
3.358372e+06 1.046510e+00 1.281555e+04
3.260475e+06 8.470705e+01 3.495179e+03
3.261426e+06 -1.931862e+03 -4.821754e+03
3.359465e+06 5.557684e+01 -1.262128e+04
3.262215e+06 -1.981337e+03 -5.454543e+03
3.260946e+06 9.117317e+01 4.204487e+03
3.363288e+06 5.324049e+01 -1.265930e+04
3.263134e+06 -2.022100e+03 -6.098559e+03
3.261525e+06 9.844545e+01 4.939574e+03
3.365203e+06 5.191402e+01 -1.266013e+04
3.366200e+06 7.002529e+01 1.286779e+04
3.259511e+06 -1.144170e+03 6.183387e+03
3.264191e+06 -2.050515e+03 -6.749529e+03
3.367119e+06 5.048263e+01 -1.264881e+04
3.368160e+06 8.706500e+01 1.285000e+04
3.260274e+06 -1.176007e+03 6.992388e+03
3.265398e+06 -2.061728e+03 -7.402260e+03
3.369034e+06 4.894697e+01 -1.262530e+04
3.370118e+06 1.040234e+02 1.281980e+04
3.263963e+06 1.250844e+02 7.288394e+03
3.266762e+06 -2.050278e+03 -8.051518e+03
3.370945e+06 4.730749e+01 -1.258959e+04
3.372072e+06 1.209010e+02 1.277719e+04
3.265034e+06 1.349043e+02 8.111799e+03
3.268288e+06 -2.013177e+03 -8.694090e+03
3.372851e+06 4.556608e+01 -1.254163e+04
3.374019e+06 1.376988e+02 1.272212e+04
3.266247e+06 1.440166e+02 8.948150e+03
3.269971e+06 -1.952632e+03 -9.327037e+03
3.265394e+06 -2.061931e+03 7.402280e+03
3.374750e+06 4.372315e+01 -1.248142e+04
3.375959e+06 1.544174e+02 1.265458e+04
3.267607e+06 1.508196e+02 9.789095e+03
3.271801e+06 -1.873982e+03 -9.945333e+03
3.266759e+06 -2.050484e+03 8.051582e+03
3.376640e+06 4.178138e+01 -1.240891e+04
3.377890e+06 1.710584e+02 1.257452e+04
3.269116e+06 1.541536e+02 1.062298e+04
3.273766e+06 -1.782335e+03 -1.054358e+04
3.378519e+06 3.974149e+01 -1.232408e+04
3.379808e+06 1.876230e+02 1.248194e+04
3.270773e+06 1.546334e+02 1.143775e+04
3.275854e+06 -1.681586e+03 -1.111722e+04
3.380387e+06 3.760681e+01 -1.222691e+04
3.381714e+06 2.041135e+02 1.237679e+04
3.272569e+06 1.537421e+02 1.222425e+04
3.278056e+06 -1.574547e+03 -1.166264e+04
3.382239e+06 3.537876e+01 -1.211736e+04
3.383604e+06 2.205318e+02 1.225905e+04
3.274494e+06 1.524683e+02 1.297654e+04
3.280360e+06 -1.463220e+03 -1.217714e+04
3.387692e+06 2.816562e+01 -1.171421e+04
3.384076e+06 3.306083e+01 -1.199541e+04
3.385477e+06 2.368808e+02 1.212870e+04
3.276540e+06 1.512522e+02 1.369082e+04
3.282759e+06 -1.349022e+03 -1.265867e+04
3.385894e+06 3.065511e+01 -1.186104e+04
3.278696e+06 1.502477e+02 1.436466e+04
3.285244e+06 -1.232960e+03 -1.310575e+04
3.389469e+06 2.559485e+01 -1.155491e+04
3.280953e+06 1.494680e+02 1.499645e+04
3.287808e+06 -1.115746e+03 -1.351728e+04
3.391221e+06 2.294663e+01 -1.138311e+04
3.392759e+06 3.016471e+02 1.148066e+04
3.290444e+06 -9.978824e+02 -1.389250e+04
3.283305e+06 1.488571e+02 1.558506e+04
3.392948e+06 2.022454e+01 -1.119878e+04
3.394518e+06 3.177018e+02 1.128686e+04
3.293145e+06 -8.797213e+02 -1.423082e+04
3.285742e+06 1.483282e+02 1.612975e+04
3.394647e+06 1.743180e+01 -1.100190e+04
3.396248e+06 3.337117e+02 1.108031e+04
3.287810e+06 -5.614402e+02 1.715953e+04
3.295904e+06 -7.615055e+02 -1.453185e+04
3.396317e+06 1.457210e+01 -1.079245e+04
3.397948e+06 3.496828e+02 1.086097e+04
3.290608e+06 -4.899192e+02 1.759946e+04
3.298714e+06 -6.433999e+02 -1.479527e+04
3.397955e+06 1.164806e+01 -1.057040e+04
3.399616e+06 3.656216e+02 1.062882e+04
3.293496e+06 1.462666e+02 1.749547e+04
3.301569e+06 -5.255135e+02 -1.502088e+04
3.399560e+06 8.663294e+00 -1.033574e+04
3.401249e+06 3.815346e+02 1.038385e+04
3.296207e+06 1.451204e+02 1.786024e+04
3.304463e+06 -4.079143e+02 -1.520849e+04
3.401129e+06 5.619094e+00 -1.008844e+04
3.402846e+06 3.974287e+02 1.012604e+04
3.298968e+06 1.436167e+02 1.817941e+04
3.307389e+06 -2.906432e+02 -1.535796e+04
3.402661e+06 2.517515e+00 -9.828493e+03
3.404405e+06 4.133103e+02 9.855379e+03
3.301775e+06 1.416942e+02 1.845282e+04
3.310340e+06 -1.737208e+02 -1.546917e+04
3.404154e+06 -6.412718e-01 -9.555888e+03
3.405924e+06 4.291850e+02 9.571854e+03
3.304621e+06 1.393023e+02 1.868031e+04
3.313309e+06 -5.715472e+01 -1.554199e+04
3.405606e+06 -3.857277e+00 -9.270619e+03
3.407401e+06 4.450560e+02 9.275467e+03
3.307498e+06 1.363991e+02 1.886173e+04
3.316291e+06 5.905738e+01 -1.557631e+04
3.407014e+06 -7.132315e+00 -8.972696e+03
3.408834e+06 4.609221e+02 8.966232e+03
3.310401e+06 1.329521e+02 1.899694e+04
3.319277e+06 1.749239e+02 -1.557202e+04
3.410961e+06 -1.733214e+01 -8.003356e+03
3.408378e+06 -1.046814e+01 -8.662141e+03
3.410221e+06 4.767755e+02 8.644177e+03
3.313323e+06 1.289369e+02 1.908579e+04
3.322262e+06 2.904589e+02 -1.552900e+04
3.409694e+06 -1.386772e+01 -8.339001e+03
3.316256e+06 1.243360e+02 1.912813e+04
3.325239e+06 4.056794e+02 -1.544712e+04
3.412175e+06 -2.086033e+01 -7.655338e+03
3.319196e+06 1.191386e+02 1.912380e+04
3.328200e+06 5.206062e+02 -1.532626e+04
3.413336e+06 -2.444327e+01 -7.295153e+03
3.415267e+06 5.392678e+02 7.229592e+03
3.322133e+06 1.133399e+02 1.907266e+04
3.331140e+06 6.352617e+02 -1.516629e+04
3.414441e+06 -2.805702e+01 -6.923125e+03
3.416388e+06 5.540693e+02 6.845426e+03
3.325063e+06 1.069407e+02 1.897452e+04
3.334050e+06 7.496720e+02 -1.496708e+04
3.415486e+06 -3.164646e+01 -6.539763e+03
3.417447e+06 5.679233e+02 6.449995e+03
3.336923e+06 8.638628e+02 -1.472848e+04
3.327977e+06 9.994655e+01 1.882925e+04
3.416469e+06 -3.509414e+01 -6.145882e+03
3.418438e+06 5.800617e+02 6.044318e+03
3.339754e+06 9.778606e+02 -1.445037e+04
3.330869e+06 9.236749e+01 1.863665e+04
3.417387e+06 -3.815807e+01 -5.742800e+03
3.419353e+06 5.890953e+02 5.630095e+03
3.336231e+06 5.251778e+02 1.857735e+04
3.342534e+06 1.091689e+03 -1.413262e+04
3.418238e+06 -4.047353e+01 -5.332608e+03
3.420185e+06 5.933728e+02 5.209963e+03
3.339214e+06 5.891297e+02 1.826055e+04
3.345257e+06 1.205367e+03 -1.377511e+04
3.336915e+06 8.636103e+02 1.472888e+04
3.419020e+06 -4.185017e+01 -4.918125e+03
3.420933e+06 5.931135e+02 4.787012e+03
3.339343e+06 6.627544e+01 1.777336e+04
3.347915e+06 1.318901e+03 -1.337775e+04
3.339745e+06 9.776022e+02 1.445076e+04
3.419734e+06 -4.250423e+01 -4.502090e+03
3.421604e+06 5.901009e+02 4.363743e+03
3.342077e+06 5.652550e+01 1.738987e+04
3.350502e+06 1.432281e+03 -1.294048e+04
3.420381e+06 -4.277389e+01 -4.086457e+03
3.422205e+06 5.855936e+02 3.941728e+03
3.344753e+06 4.628699e+01 1.695827e+04
3.353009e+06 1.545468e+03 -1.246328e+04
3.420962e+06 -4.285977e+01 -3.672459e+03
3.422738e+06 5.802920e+02 3.521925e+03
3.347365e+06 3.558295e+01 1.647841e+04
3.355429e+06 1.658377e+03 -1.194623e+04
3.422320e+06 -4.270508e+01 -2.446718e+03
3.421478e+06 -4.285523e+01 -3.260868e+03
3.423206e+06 5.745896e+02 3.104932e+03
3.349904e+06 2.443656e+01 1.595016e+04
3.357755e+06 1.770857e+03 -1.138950e+04
3.421930e+06 -4.279905e+01 -2.852179e+03
3.352365e+06 1.286916e+01 1.537343e+04
3.359979e+06 1.882663e+03 -1.079343e+04
3.422648e+06 -4.257336e+01 -2.044704e+03
3.354739e+06 8.997240e-01 1.474815e+04
3.362093e+06 1.993411e+03 -1.015860e+04
3.422915e+06 -4.239890e+01 -1.646284e+03
3.424458e+06 5.510106e+02 1.470993e+03
3.357018e+06 -1.145510e+01 1.407431e+04
3.364089e+06 2.102523e+03 -9.485889e+03
3.423122e+06 -4.217411e+01 -1.251562e+03
3.424620e+06 5.452405e+02 1.071772e+03
3.359196e+06 -2.418108e+01 1.335198e+04
3.365957e+06 2.209141e+03 -8.776605e+03
3.423270e+06 -4.189184e+01 -8.606080e+02
3.424724e+06 5.395632e+02 6.764124e+02
3.361265e+06 -3.726449e+01 1.258131e+04
3.367687e+06 2.312015e+03 -8.032643e+03
3.423360e+06 -4.154542e+01 -4.734741e+02
3.424769e+06 5.339820e+02 2.849543e+02
3.363215e+06 -5.068710e+01 1.176266e+04
3.369270e+06 2.409323e+03 -7.256661e+03
3.423391e+06 -4.112909e+01 -9.019608e+01
3.424757e+06 5.284964e+02 -1.025714e+02
3.370692e+06 2.498430e+03 -6.452310e+03
3.365038e+06 -6.441958e+01 1.089657e+04
3.423364e+06 -4.063879e+01 2.891982e+02
3.424687e+06 5.231038e+02 -4.861416e+02
3.371941e+06 2.575560e+03 -5.624460e+03
3.366726e+06 -7.840378e+01 9.983948e+03
3.423280e+06 -4.007202e+01 6.646875e+02
3.424561e+06 5.178003e+02 -8.657369e+02
3.372813e+06 1.459438e+03 8.686025e+03
3.373002e+06 2.635444e+03 -4.779299e+03
3.423141e+06 -3.942655e+01 1.036254e+03
3.424379e+06 5.125813e+02 -1.241341e+03
3.374296e+06 1.514624e+03 7.646443e+03
3.373861e+06 2.671341e+03 -3.923916e+03
3.422945e+06 -3.870272e+01 1.403884e+03
3.424141e+06 5.074429e+02 -1.612940e+03
3.370868e+06 -1.200282e+02 6.985213e+03
3.374508e+06 2.677477e+03 -3.063912e+03
3.422694e+06 -3.789959e+01 1.767562e+03
3.423848e+06 5.023803e+02 -1.980519e+03
3.371903e+06 -1.320476e+02 5.910902e+03
3.374942e+06 2.653552e+03 -2.202939e+03
3.421616e+06 -3.503018e+01 2.834765e+03
3.422388e+06 -3.701910e+01 2.127276e+03
3.423502e+06 4.973899e+02 -2.344066e+03
3.372746e+06 -1.408822e+02 4.811313e+03
3.375170e+06 2.605047e+03 -1.346347e+03
3.422029e+06 -3.606170e+01 2.483014e+03
3.373391e+06 -1.445987e+02 3.699761e+03
3.375207e+06 2.538798e+03 -5.012681e+02
3.421150e+06 -3.392583e+01 3.182516e+03
3.373835e+06 -1.430084e+02 2.592239e+03
3.375064e+06 2.460242e+03 3.259423e+02
3.420632e+06 -3.275151e+01 3.526258e+03
3.421583e+06 4.780827e+02 -3.757700e+03
3.374085e+06 -1.378606e+02 1.502523e+03
3.374756e+06 2.373295e+03 1.130233e+03
3.420063e+06 -3.151011e+01 3.865980e+03
3.420973e+06 4.734069e+02 -4.100915e+03
3.374151e+06 -1.309074e+02 4.398598e+02
3.374292e+06 2.280701e+03 1.907781e+03
3.419442e+06 -3.020417e+01 4.201673e+03
3.420313e+06 4.687882e+02 -4.440032e+03
3.374042e+06 -1.230837e+02 -5.899462e+02
3.373683e+06 2.184357e+03 2.655773e+03
3.418772e+06 -2.883729e+01 4.533328e+03
3.419604e+06 4.642249e+02 -4.775044e+03
3.373771e+06 -1.148539e+02 -1.583222e+03
3.372937e+06 2.085572e+03 3.372183e+03
3.418052e+06 -2.741274e+01 4.860938e+03
3.418844e+06 4.597170e+02 -5.105942e+03
3.373346e+06 -1.064460e+02 -2.537600e+03
3.372062e+06 1.985243e+03 4.055578e+03
3.417282e+06 -2.593452e+01 5.184495e+03
3.418037e+06 4.552640e+02 -5.432720e+03
3.372777e+06 -9.797045e+01 -3.451526e+03
3.371067e+06 1.883978e+03 4.704969e+03
3.416465e+06 -2.440745e+01 5.503993e+03
3.417181e+06 4.508659e+02 -5.755372e+03
3.372072e+06 -8.947928e+01 -4.323975e+03
3.369957e+06 1.782180e+03 5.319690e+03
3.415600e+06 -2.283691e+01 5.819427e+03
3.416278e+06 4.465236e+02 -6.073890e+03
3.368741e+06 1.680109e+03 5.899310e+03
3.372051e+06 1.984965e+03 -4.055923e+03
3.371239e+06 -8.099623e+01 -5.154269e+03
3.414688e+06 -2.122838e+01 6.130791e+03
3.415329e+06 4.422367e+02 -6.388269e+03
3.370285e+06 -7.253421e+01 -5.941969e+03
3.367425e+06 1.577924e+03 6.443567e+03
3.413730e+06 -1.958997e+01 6.438076e+03
3.414334e+06 4.380058e+02 -6.698500e+03
3.371246e+06 1.010966e+03 -7.171867e+03
3.366015e+06 1.475716e+03 6.952313e+03
3.369947e+06 1.781899e+03 -5.320064e+03
3.410584e+06 -1.458507e+01 7.335344e+03
3.412726e+06 -1.792953e+01 6.741275e+03
3.413294e+06 4.338292e+02 -7.004572e+03
3.368044e+06 -5.571495e+01 -7.388601e+03
3.364518e+06 1.373529e+03 7.425485e+03
3.411677e+06 -1.625738e+01 7.040372e+03
3.366769e+06 -4.738436e+01 -8.047288e+03
3.362940e+06 1.271373e+03 7.863072e+03
3.409447e+06 -1.292497e+01 7.626157e+03
3.365401e+06 -3.913045e+01 -8.662833e+03
3.361288e+06 1.169242e+03 8.265099e+03
3.408267e+06 -1.129137e+01 7.912755e+03
3.408695e+06 4.175243e+02 -8.186757e+03
3.363946e+06 -3.097577e+01 -9.235246e+03
3.359569e+06 1.067115e+03 8.631616e+03
3.407045e+06 -9.698757e+00 8.195052e+03
3.407439e+06 4.134385e+02 -8.471498e+03
3.362411e+06 -2.294544e+01 -9.764565e+03
3.357788e+06 9.649666e+02 8.962685e+03
3.405780e+06 -8.158846e+00 8.472919e+03
3.406140e+06 4.092397e+02 -8.751686e+03
3.360801e+06 -1.506653e+01 -1.025084e+04
3.355952e+06 8.627689e+02 9.258376e+03
3.404473e+06 -6.680039e+00 8.746156e+03
3.404800e+06 4.048007e+02 -9.027094e+03
3.359123e+06 -7.366535e+00 -1.069415e+04
3.354067e+06 7.604928e+02 9.518763e+03
3.403124e+06 -5.257707e+00 9.014462e+03
3.403418e+06 3.999039e+02 -9.297365e+03
3.357384e+06 1.266102e-01 -1.109455e+04
3.352140e+06 6.581100e+02 9.743921e+03
3.401733e+06 -3.864458e+00 9.277369e+03
3.401992e+06 3.941684e+02 -9.561937e+03
3.355589e+06 7.386305e+00 -1.145214e+04
3.350177e+06 5.555946e+02 9.933925e+03
3.400301e+06 -2.423553e+00 9.534143e+03
3.400520e+06 3.869244e+02 -9.819902e+03
3.353747e+06 1.438759e+01 -1.176701e+04
3.348184e+06 4.529231e+02 1.008885e+04
3.398826e+06 -7.599861e-01 9.783611e+03
3.398998e+06 3.769818e+02 -1.006977e+04
3.351861e+06 2.110736e+01 -1.203923e+04
3.346167e+06 3.500742e+02 1.020876e+04
3.397309e+06 1.463296e+00 1.002389e+04
3.397419e+06 3.623728e+02 -1.030911e+04
3.349940e+06 2.752606e+01 -1.226890e+04
3.344134e+06 2.470297e+02 1.029373e+04
3.395750e+06 4.548262e+00 1.025220e+04
3.395782e+06 3.421866e+02 -1.053462e+04
3.342089e+06 1.437752e+02 1.034383e+04
3.347990e+06 3.362650e+01 -1.245611e+04
3.394153e+06 8.389930e+00 1.046539e+04
3.394094e+06 3.178493e+02 -1.074323e+04
3.340040e+06 4.030164e+01 1.035912e+04
3.346016e+06 3.939604e+01 -1.260096e+04
3.389162e+06 2.092415e+01 1.099342e+04
3.392519e+06 1.258707e+01 1.066097e+04
3.392367e+06 2.911318e+02 -1.093282e+04
3.343253e+06 1.418106e+02 -1.296174e+04
3.337992e+06 -6.339401e+01 1.033969e+04
3.390855e+06 1.681858e+01 1.083730e+04
3.341091e+06 8.224082e+01 -1.300174e+04
3.335951e+06 -1.673041e+02 1.028559e+04
3.387447e+06 2.483058e+01 1.112872e+04
3.340015e+06 5.465323e+01 -1.278223e+04
3.333924e+06 -2.714089e+02 1.019693e+04
3.385713e+06 2.850645e+01 1.124285e+04
3.385188e+06 1.748819e+02 -1.148266e+04
3.338010e+06 5.905814e+01 -1.275854e+04
3.331917e+06 -3.756680e+02 1.007382e+04
3.383963e+06 3.194273e+01 1.133558e+04
3.383350e+06 1.448704e+02 -1.156603e+04
3.336012e+06 6.313869e+01 -1.269294e+04
3.329935e+06 -4.800138e+02 9.916408e+03
3.382202e+06 3.514048e+01 1.140680e+04
3.381503e+06 1.146821e+02 -1.162747e+04
3.334028e+06 6.691357e+01 -1.258553e+04
3.327986e+06 -5.843388e+02 9.724888e+03
3.380432e+06 3.810716e+01 1.145643e+04
3.379649e+06 8.434970e+01 -1.166696e+04
3.332063e+06 7.040978e+01 -1.243642e+04
3.326074e+06 -6.884812e+02 9.499540e+03
3.378657e+06 4.085081e+01 1.148445e+04
3.377793e+06 5.389016e+01 -1.168447e+04
3.330124e+06 7.366102e+01 -1.224570e+04
3.324207e+06 -7.922014e+02 9.240755e+03
3.376881e+06 4.338206e+01 1.149087e+04
3.375937e+06 2.331315e+01 -1.168004e+04
3.328218e+06 7.671024e+01 -1.201352e+04
3.322390e+06 -8.951533e+02 8.949078e+03
3.375106e+06 4.570946e+01 1.147571e+04
3.374084e+06 -7.378073e+00 -1.165369e+04
3.326349e+06 7.960727e+01 -1.174002e+04
3.320631e+06 -9.968408e+02 8.625271e+03
3.373337e+06 4.784307e+01 1.143900e+04
3.372239e+06 -3.818123e+01 -1.160545e+04
3.324524e+06 8.241054e+01 -1.142542e+04
3.318938e+06 -1.096559e+03 8.270391e+03
3.371576e+06 4.979056e+01 1.138078e+04
3.370403e+06 -6.909652e+01 -1.153538e+04
3.322751e+06 8.518256e+01 -1.107000e+04
3.317316e+06 -1.193308e+03 7.885887e+03
3.322385e+06 -8.953235e+02 -8.949437e+03
3.369826e+06 5.156055e+01 1.130109e+04
3.368581e+06 -1.001234e+02 -1.144351e+04
3.321034e+06 8.798832e+01 -1.067412e+04
3.315776e+06 -1.285666e+03 7.473718e+03
3.320627e+06 -9.970112e+02 -8.625614e+03
3.364675e+06 5.588172e+01 1.093367e+04
3.368090e+06 5.316058e+01 1.119998e+04
3.366775e+06 -1.312613e+02 -1.132989e+04
3.314325e+06 -1.371624e+03 7.036490e+03
3.319382e+06 9.088613e+01 -1.023833e+04
3.366372e+06 5.459819e+01 1.107749e+04
3.312974e+06 -1.448379e+03 6.577544e+03
3.317801e+06 9.391447e+01 -9.763396e+03
3.363002e+06 5.701882e+01 1.076856e+04
3.313424e+06 -7.739592e+02 -9.139248e+03
3.311733e+06 -1.512198e+03 6.100895e+03
3.361356e+06 5.801807e+01 1.058219e+04
3.359774e+06 -2.568886e+02 -1.065879e+04
3.311905e+06 -8.295703e+02 -8.562268e+03
3.310610e+06 -1.559009e+03 5.610454e+03
3.359740e+06 5.888916e+01 1.037462e+04
3.358095e+06 -2.885492e+02 -1.043705e+04
3.313567e+06 1.031245e+02 -8.118522e+03
3.309612e+06 -1.586827e+03 5.108565e+03
3.358157e+06 5.964136e+01 1.014586e+04
3.356451e+06 -3.203032e+02 -1.019381e+04
3.312353e+06 1.050442e+02 -7.506420e+03
3.308736e+06 -1.597597e+03 4.597567e+03
3.356610e+06 6.028667e+01 9.895956e+03
3.354845e+06 -3.521452e+02 -9.929080e+03
3.311251e+06 1.048849e+02 -6.871591e+03
3.307977e+06 -1.595359e+03 4.081337e+03
3.355102e+06 6.083694e+01 9.624926e+03
3.353279e+06 -3.840709e+02 -9.642891e+03
3.310263e+06 1.020576e+02 -6.223007e+03
3.307330e+06 -1.583815e+03 3.563833e+03
3.353637e+06 6.130638e+01 9.332792e+03
3.351758e+06 -4.160750e+02 -9.335264e+03
3.309391e+06 9.731329e+01 -5.569603e+03
3.306788e+06 -1.565737e+03 3.048328e+03
3.352217e+06 6.171054e+01 9.019573e+03
3.350283e+06 -4.481531e+02 -9.006213e+03
3.308631e+06 9.185649e+01 -4.917902e+03
3.306346e+06 -1.543108e+03 2.537342e+03
3.350845e+06 6.206726e+01 8.685280e+03
3.348857e+06 -4.803001e+02 -8.655753e+03
3.307978e+06 8.643322e+01 -4.272039e+03
3.306000e+06 -1.517323e+03 2.032746e+03
3.349525e+06 6.239769e+01 8.329923e+03
3.347485e+06 -5.125113e+02 -8.283891e+03
3.307427e+06 8.138830e+01 -3.634581e+03
3.305746e+06 -1.489360e+03 1.535894e+03
3.348258e+06 6.272491e+01 7.953507e+03
3.346167e+06 -5.447825e+02 -7.890634e+03
3.306975e+06 7.686274e+01 -3.007140e+03
3.305581e+06 -1.459908e+03 1.047744e+03
3.344816e+06 6.398390e+01 6.697946e+03
3.347050e+06 6.307642e+01 7.556034e+03
3.344909e+06 -5.771080e+02 -7.475985e+03
3.306618e+06 7.289387e+01 -2.390740e+03
3.305502e+06 -1.429448e+03 5.689593e+02
3.345901e+06 6.348395e+01 7.137511e+03
3.305507e+06 -1.398315e+03 9.998581e+01
3.306352e+06 6.946810e+01 -1.786032e+03
3.343797e+06 6.461849e+01 6.237359e+03
3.305595e+06 -1.366742e+03 -3.588881e+02
3.306175e+06 6.654781e+01 -1.193429e+03
3.342847e+06 6.543518e+01 5.755791e+03
3.340516e+06 -7.067294e+02 -5.603768e+03
3.303921e+06 -8.184599e+02 -3.292889e+02
3.305761e+06 -1.334885e+03 -8.074861e+02
3.341971e+06 6.648745e+01 5.253315e+03
3.339593e+06 -7.390863e+02 -5.082523e+03
3.304005e+06 -7.998546e+02 2.414053e+02
3.306006e+06 -1.302852e+03 -1.245709e+03
3.341170e+06 6.783323e+01 4.730056e+03
3.338747e+06 -7.713070e+02 -4.540216e+03
3.306149e+06 6.033328e+01 5.096999e+02
3.306327e+06 -1.270709e+03 -1.673511e+03
3.340448e+06 6.953268e+01 4.186219e+03
3.337980e+06 -8.032649e+02 -3.977082e+03
3.306303e+06 5.895166e+01 1.052235e+03
3.306722e+06 -1.238500e+03 -2.090882e+03
3.339810e+06 7.164362e+01 3.622129e+03
3.337298e+06 -8.347522e+02 -3.393490e+03
3.306534e+06 5.784454e+01 1.582153e+03
3.307189e+06 -1.206251e+03 -2.497830e+03
3.339259e+06 7.421287e+01 3.038289e+03
3.336705e+06 -8.654261e+02 -2.790019e+03
3.306842e+06 5.697719e+01 2.099473e+03
3.307727e+06 -1.173978e+03 -2.894380e+03
3.338800e+06 7.725882e+01 2.435478e+03
3.336208e+06 -8.947109e+02 -2.167575e+03
3.307223e+06 5.631857e+01 2.604222e+03
3.308334e+06 -1.141687e+03 -3.280559e+03
3.338438e+06 8.074095e+01 1.814901e+03
3.335814e+06 -9.216249e+02 -1.527594e+03
3.307677e+06 5.584305e+01 3.096435e+03
3.309008e+06 -1.109383e+03 -3.656398e+03
3.338178e+06 8.449781e+01 1.178447e+03
3.335534e+06 -9.444681e+02 -8.723792e+02
3.308202e+06 5.552635e+01 3.576145e+03
3.309748e+06 -1.077065e+03 -4.021926e+03
3.338027e+06 8.812595e+01 5.291222e+02
3.335385e+06 -9.602662e+02 -2.056838e+02
3.308796e+06 5.534905e+01 4.043386e+03
3.310551e+06 -1.044734e+03 -4.377170e+03
3.338274e+06 8.876527e+01 -1.434572e+03
3.337991e+06 9.075165e+01 -1.282330e+02
3.335390e+06 -9.637370e+02 4.662638e+02
3.309457e+06 5.529320e+01 4.498188e+03
3.311417e+06 -1.012391e+03 -4.722154e+03
3.309004e+06 -1.109498e+03 3.656495e+03
3.338073e+06 9.112898e+01 -7.860762e+02
3.335571e+06 -9.493044e+02 1.134033e+03
3.310183e+06 5.534274e+01 4.940580e+03
3.312343e+06 -9.800346e+02 -5.056898e+03
3.309744e+06 -1.077182e+03 4.022023e+03
3.338590e+06 8.455083e+01 -2.064459e+03
3.310974e+06 5.548377e+01 5.370586e+03
3.313327e+06 -9.476663e+02 -5.381419e+03
3.339013e+06 7.966304e+01 -2.669240e+03
3.337018e+06 -8.310063e+02 3.018178e+03
3.314368e+06 -9.152867e+02 -5.695729e+03
3.311826e+06 5.570288e+01 5.788224e+03
3.339536e+06 7.475112e+01 -3.244825e+03
3.337728e+06 -7.811544e+02 3.588074e+03
3.315465e+06 -8.828977e+02 -5.999837e+03
3.312738e+06 5.598838e+01 6.193514e+03
3.340150e+06 7.009387e+01 -3.788654e+03
3.338528e+06 -7.294336e+02 4.124481e+03
3.312788e+06 -5.307896e+02 6.894555e+03
3.316614e+06 -8.505008e+02 -6.293751e+03
3.340848e+06 6.578416e+01 -4.299096e+03
3.339409e+06 -6.766619e+02 4.626155e+03
3.313891e+06 -5.111667e+02 7.275246e+03
3.317816e+06 -8.180993e+02 -6.577473e+03
3.341622e+06 6.182291e+01 -4.775090e+03
3.340362e+06 -6.233256e+02 5.092292e+03
3.315821e+06 5.713341e+01 7.335397e+03
3.319067e+06 -7.856959e+02 -6.851005e+03
3.342467e+06 5.816829e+01 -5.215939e+03
3.341381e+06 -5.697185e+02 5.522365e+03
3.316957e+06 5.757809e+01 7.691385e+03
3.320366e+06 -7.532942e+02 -7.114347e+03
3.343375e+06 5.475927e+01 -5.621176e+03
3.342460e+06 -5.160207e+02 5.916023e+03
3.318145e+06 5.803843e+01 8.035059e+03
3.321712e+06 -7.208974e+02 -7.367495e+03
3.344341e+06 5.152906e+01 -5.990490e+03
3.343593e+06 -4.623436e+02 6.273029e+03
3.319383e+06 5.850607e+01 8.366416e+03
3.323102e+06 -6.885099e+02 -7.610445e+03
3.345359e+06 4.841309e+01 -6.323670e+03
3.344774e+06 -4.087554e+02 6.593223e+03
3.320669e+06 5.897183e+01 8.685453e+03
3.324536e+06 -6.561357e+02 -7.843192e+03
3.346424e+06 4.535088e+01 -6.620573e+03
3.345998e+06 -3.552985e+02 6.876492e+03
3.322002e+06 5.942836e+01 8.992166e+03
3.326010e+06 -6.237801e+02 -8.065731e+03
3.349843e+06 3.599783e+01 -7.292753e+03
3.347530e+06 4.229014e+01 -6.881099e+03
3.347260e+06 -3.019972e+02 7.122758e+03
3.323379e+06 5.986690e+01 9.286547e+03
3.327524e+06 -5.914488e+02 -8.278055e+03
3.348671e+06 3.918498e+01 -7.105178e+03
3.324799e+06 6.028031e+01 9.568586e+03
3.329075e+06 -5.591484e+02 -8.480159e+03
3.324531e+06 -6.562716e+02 7.843284e+03
3.351041e+06 3.269740e+01 -7.443778e+03
3.326260e+06 6.066057e+01 9.838275e+03
3.330662e+06 -5.268876e+02 -8.672038e+03
3.352258e+06 2.925957e+01 -7.558212e+03
3.352581e+06 -9.054067e+01 7.736668e+03
3.327760e+06 6.100121e+01 1.009560e+04
3.332283e+06 -4.946765e+02 -8.853691e+03
3.327519e+06 -5.915876e+02 8.278146e+03
3.353489e+06 2.566555e+01 -7.636012e+03
3.353954e+06 -3.812136e+01 7.797128e+03
3.329298e+06 6.129443e+01 1.034056e+04
3.333937e+06 -4.625292e+02 -9.025120e+03
3.354729e+06 2.190222e+01 -7.677135e+03
3.355333e+06 1.412545e+01 7.820289e+03
3.335620e+06 -4.304637e+02 -9.186330e+03
3.330872e+06 6.153426e+01 1.057312e+04
3.355974e+06 1.796046e+01 -7.681537e+03
3.356713e+06 6.620556e+01 7.806105e+03
3.337333e+06 -3.985045e+02 -9.337336e+03
3.332480e+06 6.171398e+01 1.079329e+04
3.357216e+06 1.383635e+01 -7.649171e+03
3.358089e+06 1.181265e+02 7.754523e+03
3.334226e+06 -2.368196e+02 1.128791e+04
3.339072e+06 -3.666855e+02 -9.478160e+03
3.358452e+06 9.528492e+00 -7.579986e+03
3.359455e+06 1.698971e+02 7.665494e+03
3.335958e+06 -2.175122e+02 1.148012e+04
3.340836e+06 -3.350528e+02 -9.608835e+03
3.359675e+06 5.039712e+00 -7.473933e+03
3.360806e+06 2.215292e+02 7.538962e+03
3.337490e+06 6.184060e+01 1.137933e+04
3.342623e+06 -3.036628e+02 -9.729398e+03
3.360880e+06 3.747123e-01 -7.330956e+03
3.362136e+06 2.730363e+02 7.374872e+03
3.339216e+06 6.173411e+01 1.154984e+04
3.344431e+06 -2.725608e+02 -9.839871e+03
3.362061e+06 -4.458317e+00 -7.151002e+03
3.363441e+06 3.244353e+02 7.173169e+03
3.340967e+06 6.155459e+01 1.170797e+04
3.346259e+06 -2.417453e+02 -9.940263e+03
3.365411e+06 -1.986477e+01 -6.388726e+03
3.363214e+06 -9.450232e+00 -6.934015e+03
3.364713e+06 3.757450e+02 6.933798e+03
3.342741e+06 6.131278e+01 1.185376e+04
3.348104e+06 -2.111721e+02 -1.003060e+04
3.364332e+06 -1.458966e+01 -6.679941e+03
3.365949e+06 4.269888e+02 6.656704e+03
3.344537e+06 6.101939e+01 1.198729e+04
3.349965e+06 -1.807878e+02 -1.011091e+04
3.366444e+06 -2.526321e+01 -6.060320e+03
3.346352e+06 6.067227e+01 1.210866e+04
3.351841e+06 -1.505518e+02 -1.018123e+04
3.367426e+06 -3.077318e+01 -5.694677e+03
3.369381e+06 5.805979e+02 5.598589e+03
3.348184e+06 6.025444e+01 1.221796e+04
3.353729e+06 -1.204336e+02 -1.024158e+04
3.368352e+06 -3.638444e+01 -5.291762e+03
3.370415e+06 6.318657e+02 5.170141e+03
3.350033e+06 5.975119e+01 1.231523e+04
3.355629e+06 -9.041306e+01 -1.029196e+04
3.349960e+06 -1.809454e+02 1.011099e+04
3.369215e+06 -4.208796e+01 -4.851552e+03
3.371385e+06 6.832214e+02 4.703784e+03
3.351897e+06 5.915291e+01 1.240049e+04
3.357537e+06 -6.047479e+01 -1.033237e+04
3.351835e+06 -1.507108e+02 1.018131e+04
3.370012e+06 -4.787862e+01 -4.374047e+03
3.372286e+06 7.346951e+02 4.199529e+03
3.353773e+06 5.845564e+01 1.247374e+04
3.359453e+06 -3.061017e+01 -1.036281e+04
3.370735e+06 -5.375437e+01 -3.859277e+03
3.373111e+06 7.863094e+02 3.657422e+03
3.355660e+06 5.765558e+01 1.253496e+04
3.361375e+06 -8.107439e-01 -1.038327e+04
3.371379e+06 -5.971677e+01 -3.307321e+03
3.373856e+06 8.380703e+02 3.077562e+03
3.363300e+06 2.892733e+01 -1.039373e+04
3.357556e+06 5.675193e+01 1.258416e+04
3.371938e+06 -6.577091e+01 -2.718327e+03
3.374515e+06 8.899560e+02 2.460124e+03
3.365228e+06 5.860756e+01 -1.039418e+04
3.359460e+06 5.574336e+01 1.262129e+04
3.372407e+06 -7.192277e+01 -2.092545e+03
3.375081e+06 9.418956e+02 1.805397e+03
3.362280e+06 3.570068e+01 1.286630e+04
3.367156e+06 8.823277e+01 -1.038459e+04
3.372778e+06 -7.817633e+01 -1.430372e+03
3.375547e+06 9.937362e+02 1.113835e+03
3.364239e+06 5.290398e+01 1.287322e+04
3.369082e+06 1.178044e+02 -1.036494e+04
3.373046e+06 -8.452267e+01 -7.324196e+02
3.375907e+06 1.045187e+03 3.861369e+02
3.365198e+06 5.208455e+01 1.266014e+04
3.371005e+06 1.473234e+02 -1.033523e+04
3.373147e+06 -1.034254e+02 1.564085e+03
3.373202e+06 -9.092750e+01 3.787478e-01
3.376151e+06 1.095716e+03 -3.766212e+02
3.367114e+06 5.065437e+01 1.264882e+04
3.372923e+06 1.767918e+02 -1.029541e+04
3.373238e+06 -9.729736e+01 7.666058e+02
3.369028e+06 4.912009e+01 1.262532e+04
3.374834e+06 2.062098e+02 -1.024548e+04
3.372919e+06 -1.088726e+02 2.389419e+03
3.370939e+06 4.748213e+01 1.258960e+04
3.376737e+06 2.355794e+02 -1.018541e+04
3.372544e+06 -1.127423e+02 3.237209e+03
3.375692e+06 1.254607e+03 -3.726514e+03
3.372845e+06 4.574194e+01 1.254165e+04
3.378628e+06 2.649014e+02 -1.011517e+04
3.372015e+06 -1.134338e+02 4.098877e+03
3.375098e+06 1.260711e+03 -4.608494e+03
3.374744e+06 4.390046e+01 1.248143e+04
3.380507e+06 2.941778e+02 -1.003475e+04
3.371327e+06 -1.096319e+02 4.961994e+03
3.374268e+06 1.243377e+03 -5.484704e+03
3.376634e+06 4.195974e+01 1.240893e+04
3.382372e+06 3.234098e+02 -9.944122e+03
3.370482e+06 -1.018785e+02 5.812973e+03
3.373232e+06 1.209468e+03 -6.341920e+03
3.378513e+06 3.992154e+01 1.232410e+04
3.384220e+06 3.526002e+02 -9.843265e+03
3.369488e+06 -9.190604e+01 6.641133e+03
3.372024e+06 1.166328e+03 -7.171238e+03
3.380380e+06 3.778802e+01 1.222692e+04
3.386050e+06 3.817507e+02 -9.732158e+03
3.368354e+06 -8.104293e+01 7.439572e+03
3.370669e+06 1.118054e+03 -7.967294e+03
3.382233e+06 3.556138e+01 1.211737e+04
3.387860e+06 4.108653e+02 -9.610778e+03
3.367091e+06 -6.995983e+01 8.204008e+03
3.369184e+06 1.066942e+03 -8.726798e+03
3.389649e+06 4.399466e+02 -9.479104e+03
3.384069e+06 3.324466e+01 1.199543e+04
3.365707e+06 -5.898543e+01 8.931755e+03
3.367582e+06 1.014275e+03 -9.447710e+03
3.391413e+06 4.689985e+02 -9.337113e+03
3.385888e+06 3.084052e+01 1.186105e+04
3.364213e+06 -4.827469e+01 9.621105e+03
3.365874e+06 9.607731e+02 -1.012875e+04
3.389164e+06 2.693823e+02 1.183006e+04
3.393152e+06 4.980250e+02 -9.184784e+03
3.362616e+06 -3.789719e+01 1.027097e+04
3.364068e+06 9.068326e+02 -1.076910e+04
3.390974e+06 2.855421e+02 1.166172e+04
3.394863e+06 5.270295e+02 -9.022095e+03
3.357286e+06 -8.931519e+00 1.197789e+04
3.360924e+06 -2.787819e+01 1.088064e+04
3.362173e+06 8.526674e+02 -1.136827e+04
3.391215e+06 2.313593e+01 1.138312e+04
3.396544e+06 5.560163e+02 -8.849028e+03
3.359145e+06 -1.822398e+01 1.144970e+04
3.392941e+06 2.041501e+01 1.119879e+04
3.398194e+06 5.849878e+02 -8.665563e+03
3.355352e+06 3.519796e-03 1.246509e+04
3.394641e+06 1.762380e+01 1.100191e+04
3.399811e+06 6.139458e+02 -8.471685e+03
3.353351e+06 8.583790e+00 1.291126e+04
3.353834e+06 6.350868e+02 -1.334901e+04
3.396310e+06 1.476520e+01 1.079246e+04
3.401392e+06 6.428887e+02 -8.267382e+03
3.351289e+06 1.680958e+01 1.331641e+04
3.351591e+06 5.804650e+02 -1.373999e+04
3.397948e+06 1.184272e+01 1.057041e+04
3.402936e+06 6.718107e+02 -8.052651e+03
3.349172e+06 2.467771e+01 1.368060e+04
3.349297e+06 5.257018e+02 -1.408938e+04
3.399553e+06 8.859094e+00 1.033575e+04
3.404441e+06 7.006988e+02 -7.827500e+03
3.399804e+06 6.137513e+02 8.471759e+03
3.347006e+06 3.218323e+01 1.400390e+04
3.346957e+06 4.707650e+02 -1.439727e+04
3.401122e+06 5.816010e+00 1.008845e+04
3.405904e+06 7.295304e+02 -7.591952e+03
3.401385e+06 6.426932e+02 8.267455e+03
3.344797e+06 3.931874e+01 1.428642e+04
3.344578e+06 4.156239e+02 -1.466377e+04
3.402654e+06 2.715776e+00 9.828508e+03
3.407325e+06 7.582673e+02 -7.346056e+03
3.342551e+06 4.607617e+01 1.452825e+04
3.342166e+06 3.602502e+02 -1.488897e+04
3.404147e+06 -4.418526e-01 9.555902e+03
3.408700e+06 7.868503e+02 -7.089895e+03
3.340275e+06 5.244682e+01 1.472953e+04
3.339727e+06 3.046192e+02 -1.507301e+04
3.405599e+06 -3.656836e+00 9.270633e+03
3.410028e+06 8.151893e+02 -6.823600e+03
3.337973e+06 5.842249e+01 1.489036e+04
3.337265e+06 2.487097e+02 -1.521600e+04
3.407008e+06 -6.930686e+00 8.972709e+03
3.411306e+06 8.431511e+02 -6.547372e+03
3.335653e+06 6.399668e+01 1.501087e+04
3.334789e+06 1.925041e+02 -1.531806e+04
3.412532e+06 8.705396e+02 -6.261501e+03
3.408371e+06 -1.026591e+01 8.662153e+03
3.328638e+06 7.826993e+01 1.513158e+04
3.333320e+06 6.916399e+01 1.509116e+04
3.332302e+06 1.359881e+02 -1.537930e+04
3.413704e+06 8.970699e+02 -5.966402e+03
3.409687e+06 -1.366456e+01 8.339011e+03
3.330980e+06 7.392161e+01 1.513136e+04
3.412850e+06 5.083451e+02 7.961873e+03
3.414819e+06 9.223290e+02 -5.662655e+03
3.326301e+06 8.221220e+01 1.509194e+04
3.414086e+06 5.239467e+02 7.601869e+03
3.415874e+06 9.457204e+02 -5.351044e+03
3.323975e+06 8.575529e+01 1.501253e+04
3.322374e+06 -9.336204e+01 -1.521839e+04
3.413329e+06 -2.423794e+01 7.295159e+03
3.416865e+06 9.663988e+02 -5.032595e+03
3.321664e+06 8.891063e+01 1.489345e+04
3.319925e+06 -1.515459e+02 -1.507724e+04
3.414434e+06 -2.785110e+01 6.923129e+03
3.417791e+06 9.832272e+02 -4.708551e+03
3.319375e+06 9.169450e+01 1.473482e+04
3.317501e+06 -2.100716e+02 -1.489592e+04
3.415479e+06 -3.144012e+01 6.539765e+03
3.418646e+06 9.949958e+02 -4.380102e+03
3.317114e+06 9.412784e+01 1.453671e+04
3.315107e+06 -2.689371e+02 -1.467453e+04
3.416461e+06 -3.488714e+01 6.145881e+03
3.419431e+06 1.001208e+03 -4.047973e+03
3.314886e+06 9.623907e+01 1.429923e+04
3.312749e+06 -3.281386e+02 -1.441315e+04
3.417380e+06 -3.795081e+01 5.742797e+03
3.420146e+06 1.002563e+03 -3.712956e+03
3.312697e+06 9.806152e+01 1.402245e+04
3.310432e+06 -3.876694e+02 -1.411189e+04
3.418230e+06 -4.026606e+01 5.332602e+03
3.420791e+06 1.000312e+03 -3.376306e+03
3.310552e+06 9.963788e+01 1.370647e+04
3.308162e+06 -4.475177e+02 -1.377083e+04
3.419013e+06 -4.164254e+01 4.918115e+03
3.421370e+06 9.955468e+02 -3.039247e+03
3.308457e+06 1.010177e+02 1.335139e+04
3.305944e+06 -5.076658e+02 -1.339007e+04
3.419727e+06 -4.229662e+01 4.502078e+03
3.421883e+06 9.890692e+02 -2.702774e+03
3.306418e+06 1.022602e+02 1.295732e+04
3.303783e+06 -5.680838e+02 -1.296975e+04
3.420374e+06 -4.256632e+01 4.086442e+03
3.422332e+06 9.814446e+02 -2.367654e+03
3.304439e+06 1.034333e+02 1.252440e+04
3.301685e+06 -6.287258e+02 -1.251001e+04
3.420955e+06 -4.265255e+01 3.672442e+03
3.422718e+06 9.730644e+02 -2.034451e+03
3.298930e+06 1.073399e+02 1.099470e+04
3.302528e+06 1.046139e+02 1.205280e+04
3.299656e+06 -6.895188e+02 -1.201105e+04
3.423042e+06 9.642004e+02 -1.703579e+03
3.421471e+06 -4.264781e+01 3.260849e+03
3.300690e+06 1.058868e+02 1.154279e+04
3.423306e+06 9.550394e+02 -1.375331e+03
3.421923e+06 -4.259214e+01 2.852159e+03
3.297257e+06 1.090604e+02 1.040904e+04
3.423954e+06 5.627755e+02 2.280769e+03
3.423509e+06 9.457098e+02 -1.049918e+03
3.295675e+06 1.111205e+02 9.786552e+03
3.292353e+06 -9.306002e+02 -9.630573e+03
3.424236e+06 5.568629e+02 1.874019e+03
3.423653e+06 9.362986e+02 -7.274842e+02
3.294193e+06 1.135568e+02 9.128316e+03
3.290769e+06 -9.882370e+02 -8.943026e+03
3.422908e+06 -4.219304e+01 1.646261e+03
3.423738e+06 9.268640e+02 -4.081302e+02
3.292819e+06 1.163292e+02 8.435969e+03
3.289302e+06 -1.042865e+03 -8.221495e+03
3.423115e+06 -4.196900e+01 1.251538e+03
3.423766e+06 9.174428e+02 -9.192376e+01
3.291562e+06 1.192397e+02 7.712018e+03
3.287968e+06 -1.092231e+03 -7.469020e+03
3.423263e+06 -4.168738e+01 8.605837e+02
3.423735e+06 9.080583e+02 2.210885e+02
3.290430e+06 1.217754e+02 6.960392e+03
3.286789e+06 -1.132441e+03 -6.690487e+03
3.423353e+06 -4.134145e+01 4.734495e+02
3.423648e+06 8.987236e+02 5.308760e+02
3.289432e+06 1.228267e+02 6.187332e+03
3.285797e+06 -1.156658e+03 -5.893908e+03
3.423384e+06 -4.092586e+01 9.017177e+01
3.423504e+06 8.894458e+02 8.374176e+02
3.423758e+06 9.172405e+02 9.186522e+01
3.288574e+06 1.209478e+02 5.402366e+03
3.285016e+06 -1.158524e+03 -5.091069e+03
3.423357e+06 -4.043661e+01 -2.892222e+02
3.423305e+06 8.802267e+02 1.140698e+03
3.423728e+06 9.078561e+02 -2.211478e+02
3.287858e+06 1.157927e+02 4.617489e+03
3.284438e+06 -1.140658e+03 -4.294748e+03
3.423274e+06 -3.987043e+01 -6.647112e+02
3.423050e+06 8.710669e+02 1.440708e+03
3.287280e+06 1.086340e+02 3.843631e+03
3.284028e+06 -1.110857e+03 -3.514662e+03
3.423134e+06 -3.922626e+01 -1.036278e+03
3.422741e+06 8.619643e+02 1.737437e+03
3.286832e+06 1.009228e+02 3.088350e+03
3.283762e+06 -1.074112e+03 -2.756807e+03
3.422938e+06 -3.850282e+01 -1.403906e+03
3.422377e+06 8.529176e+02 2.030880e+03
3.286197e+06 8.026204e+01 9.732384e+02
3.286508e+06 9.343547e+01 2.356393e+03
3.283622e+06 -1.033280e+03 -2.024839e+03
3.422687e+06 -3.770098e+01 -1.767584e+03
3.421961e+06 8.439237e+02 2.321030e+03
3.286299e+06 8.650985e+01 1.650728e+03
3.283597e+06 -9.900177e+02 -1.321022e+03
3.421491e+06 8.349811e+02 2.607882e+03
3.422382e+06 -3.682102e+01 -2.127297e+03
3.286195e+06 7.469647e+01 3.251320e+02
3.420970e+06 8.260879e+02 2.891431e+03
3.422022e+06 -3.586478e+01 -2.483035e+03
3.286289e+06 6.976392e+01 -2.928093e+02
3.284117e+06 -8.535567e+02 6.097139e+02
3.422647e+06 4.876109e+02 -3.059017e+03
3.420397e+06 8.172422e+02 3.171672e+03
3.286470e+06 6.539044e+01 -8.800808e+02
3.284467e+06 -8.071136e+02 1.191021e+03
3.422141e+06 4.828166e+02 -3.410398e+03
3.419773e+06 8.084439e+02 3.448601e+03
3.286736e+06 6.149376e+01 -1.436362e+03
3.284897e+06 -7.604971e+02 1.740686e+03
3.420625e+06 -3.255735e+01 -3.526277e+03
3.419099e+06 7.996926e+02 3.722216e+03
3.287079e+06 5.799153e+01 -1.961453e+03
3.285401e+06 -7.137934e+02 2.258573e+03
3.420056e+06 -3.131677e+01 -3.865998e+03
3.418375e+06 7.909880e+02 3.992513e+03
3.287496e+06 5.480652e+01 -2.455237e+03
3.285976e+06 -6.670575e+02 2.744600e+03
3.419436e+06 -3.001165e+01 -4.201691e+03
3.417602e+06 7.823299e+02 4.259489e+03
3.287983e+06 5.186809e+01 -2.917648e+03
3.286616e+06 -6.203246e+02 3.198727e+03
3.418765e+06 -2.864558e+01 -4.533345e+03
3.416781e+06 7.737175e+02 4.523144e+03
3.288533e+06 4.911411e+01 -3.348654e+03
3.287318e+06 -5.736173e+02 3.620932e+03
3.418045e+06 -2.722207e+01 -4.860954e+03
3.415913e+06 7.651479e+02 4.783471e+03
3.289143e+06 4.648916e+01 -3.748240e+03
3.288076e+06 -5.269517e+02 4.011209e+03
3.417276e+06 -2.574473e+01 -5.184511e+03
3.414997e+06 7.566167e+02 5.040464e+03
3.289809e+06 4.394639e+01 -4.116403e+03
3.288888e+06 -4.803385e+02 4.369554e+03
3.416459e+06 -2.421872e+01 -5.504009e+03
3.414036e+06 7.481144e+02 5.294111e+03
3.292094e+06 3.643020e+01 -5.032348e+03
3.290526e+06 4.144444e+01 -4.453143e+03
3.289748e+06 -4.337863e+02 4.695964e+03
3.415594e+06 -2.264877e+01 -5.819442e+03
3.413028e+06 7.396251e+02 5.544390e+03
3.291289e+06 3.894911e+01 -4.758459e+03
3.414682e+06 -2.104160e+01 -6.130805e+03
3.411976e+06 7.311235e+02 5.791266e+03
3.292937e+06 3.386285e+01 -5.274801e+03
3.413724e+06 -1.940394e+01 -6.438091e+03
3.410880e+06 7.225689e+02 6.034682e+03
3.293812e+06 3.122592e+01 -5.485804e+03
3.293583e+06 -2.483101e+02 5.682104e+03
3.409739e+06 7.139002e+02 6.274549e+03
3.412720e+06 -1.774474e+01 -6.741290e+03
3.294717e+06 2.850160e+01 -5.665338e+03
3.294618e+06 -2.021483e+02 5.848684e+03
3.408556e+06 7.050265e+02 6.510733e+03
3.411671e+06 -1.607371e+01 -7.040387e+03
3.295645e+06 2.567542e+01 -5.813378e+03
3.295676e+06 -1.560756e+02 5.983230e+03
3.411080e+06 4.256228e+02 -7.604162e+03
3.407329e+06 6.958142e+02 6.743038e+03
3.296593e+06 2.273410e+01 -5.929896e+03
3.296751e+06 -1.100933e+02 6.085712e+03
3.409909e+06 4.215711e+02 -7.897612e+03
3.406061e+06 6.860719e+02 6.971178e+03
3.297555e+06 1.966816e+01 -6.014855e+03
3.297838e+06 -6.420060e+01 6.156090e+03
3.408261e+06 -1.111156e+01 -7.912774e+03
3.404750e+06 6.755217e+02 7.194752e+03
3.298529e+06 1.646865e+01 -6.068219e+03
3.298934e+06 -1.839530e+01 6.194325e+03
3.407038e+06 -9.520267e+00 -8.195073e+03
3.403397e+06 6.637657e+02 7.413200e+03
3.299508e+06 1.312807e+01 -6.089945e+03
3.300034e+06 2.732684e+01 6.200373e+03
3.405774e+06 -7.981941e+00 -8.472941e+03
3.402001e+06 6.502326e+02 7.625759e+03
3.300488e+06 9.640611e+00 -6.079989e+03
3.301133e+06 7.297269e+01 6.174188e+03
3.404467e+06 -6.504716e+00 -8.746181e+03
3.400562e+06 6.341097e+02 7.831421e+03
3.301466e+06 5.999229e+00 -6.038307e+03
3.302227e+06 1.185503e+02 6.115727e+03
3.403118e+06 -5.084081e+00 -9.014489e+03
3.399079e+06 6.142771e+02 8.028922e+03
3.403390e+06 6.636060e+02 -7.413294e+03
3.304332e+06 -5.908012e+00 -5.722479e+03
3.302435e+06 2.199066e+00 -5.964854e+03
3.303311e+06 1.640702e+02 6.024946e+03
3.401728e+06 -3.692485e+00 -9.277399e+03
3.397552e+06 5.893504e+02 8.216866e+03
3.401995e+06 6.500761e+02 -7.625861e+03
3.303392e+06 -1.767795e+00 -5.859589e+03
3.400295e+06 -2.253442e+00 -9.534176e+03
3.395981e+06 5.582981e+02 8.394268e+03
3.305251e+06 -1.023153e+01 -5.553502e+03
3.398820e+06 -5.917723e-01 -9.783649e+03
3.394368e+06 5.213005e+02 8.560422e+03
3.306143e+06 -1.474919e+01 -5.352653e+03
3.307459e+06 3.457758e+02 5.338010e+03
3.397303e+06 1.629658e+00 -1.002393e+04
3.392718e+06 4.795668e+02 8.714192e+03
3.307003e+06 -1.947409e+01 -5.119962e+03
3.308426e+06 3.911295e+02 5.085313e+03
3.395745e+06 4.712330e+00 -1.025224e+04
3.391034e+06 4.344234e+02 8.854206e+03
3.307828e+06 -2.442046e+01 -4.855496e+03
3.309355e+06 4.364241e+02 4.800342e+03
3.394147e+06 8.551778e+00 -1.046544e+04
3.389322e+06 3.868898e+02 8.979297e+03
3.308612e+06 -2.960275e+01 -4.559393e+03
3.310242e+06 4.816005e+02 4.483252e+03
3.387587e+06 3.376944e+02 9.088562e+03
3.392514e+06 1.274640e+01 -1.066102e+04
3.309349e+06 -3.503158e+01 -4.231882e+03
3.311080e+06 5.265443e+02 4.134311e+03
3.385832e+06 2.873444e+02 9.181335e+03
3.390849e+06 1.697520e+01 -1.083736e+04
3.310034e+06 -4.070867e+01 -3.873330e+03
3.311864e+06 5.710485e+02 3.753939e+03
3.388821e+06 2.341010e+02 -1.125052e+04
3.384061e+06 2.361917e+02 9.257145e+03
3.310662e+06 -4.661563e+01 -3.484314e+03
3.312586e+06 6.147474e+02 3.342803e+03
3.387013e+06 2.046590e+02 -1.137744e+04
3.382278e+06 1.844793e+02 9.315665e+03
3.311225e+06 -5.269280e+01 -3.065721e+03
3.313240e+06 6.569987e+02 2.901950e+03
3.385708e+06 2.865555e+01 -1.124291e+04
3.380487e+06 1.323763e+02 9.356679e+03
3.311718e+06 -5.880052e+01 -2.618931e+03
3.313813e+06 6.966712e+02 2.433043e+03
3.383958e+06 3.208914e+01 -1.133565e+04
3.378691e+06 7.999673e+01 9.380052e+03
3.312849e+06 -7.296922e+01 -6.163269e+02
3.312134e+06 -6.463993e+01 -2.146114e+03
3.314293e+06 7.317718e+02 1.938758e+03
3.382197e+06 3.528400e+01 -1.140687e+04
3.376893e+06 2.741974e+01 9.385704e+03
3.312464e+06 -6.960181e+01 -1.650723e+03
3.314660e+06 7.587681e+02 1.423467e+03
3.380427e+06 3.824770e+01 -1.145650e+04
3.375097e+06 -2.530348e+01 9.373599e+03
3.312704e+06 -7.264240e+01 -1.138213e+03
3.378652e+06 4.098847e+01 -1.148453e+04
3.373306e+06 -7.813838e+01 9.343726e+03
3.312900e+06 -7.097180e+01 -9.328950e+01
3.314979e+06 7.713814e+02 3.597768e+02
3.376876e+06 4.351647e+01 -1.149095e+04
3.371523e+06 -1.310637e+02 9.296096e+03
3.312859e+06 -6.770062e+01 4.245504e+02
3.314802e+06 7.438928e+02 -6.952107e+02
3.375102e+06 4.584087e+01 -1.147579e+04
3.369751e+06 -1.840663e+02 9.230730e+03
3.312731e+06 -6.391474e+01 9.330739e+02
3.314569e+06 7.242406e+02 -1.207316e+03
3.373333e+06 4.797092e+01 -1.143908e+04
3.367994e+06 -2.371391e+02 9.147656e+03
3.312522e+06 -5.998726e+01 1.429691e+03
3.314252e+06 7.028729e+02 -1.706090e+03
3.371572e+06 4.991534e+01 -1.138086e+04
3.366255e+06 -2.902782e+02 9.046908e+03
3.312234e+06 -5.609134e+01 1.912750e+03
3.313860e+06 6.805885e+02 -2.190264e+03
3.369822e+06 5.168191e+01 -1.130117e+04
3.364536e+06 -3.434825e+02 8.928519e+03
3.311874e+06 -5.229875e+01 2.381180e+03
3.313396e+06 6.578455e+02 -2.659023e+03
3.362841e+06 -3.967521e+02 8.792520e+03
3.368086e+06 5.327846e+01 -1.120006e+04
3.311443e+06 -4.863006e+01 2.834275e+03
3.312864e+06 6.349061e+02 -3.111835e+03
3.361173e+06 -4.500876e+02 8.638942e+03
3.366369e+06 5.471277e+01 -1.107757e+04
3.310947e+06 -4.508264e+01 3.271571e+03
3.312269e+06 6.119179e+02 -3.548353e+03
3.363223e+06 -1.938648e+02 -1.103758e+04
3.359535e+06 -5.034900e+02 8.467812e+03
3.310387e+06 -4.164166e+01 3.692758e+03
3.311613e+06 5.889616e+02 -3.968348e+03
3.361484e+06 -2.253258e+02 -1.085897e+04
3.357930e+06 -5.569616e+02 8.279153e+03
3.309766e+06 -3.828999e+01 4.097639e+03
3.310898e+06 5.660765e+02 -4.371679e+03
3.361352e+06 5.812253e+01 -1.058228e+04
3.356361e+06 -6.105036e+02 8.072986e+03
3.307569e+06 -2.861226e+01 5.213422e+03
3.309088e+06 -3.501010e+01 4.486088e+03
3.310128e+06 5.432774e+02 -4.758253e+03
3.359736e+06 5.898994e+01 -1.037470e+04
3.354832e+06 -6.641181e+02 7.849324e+03
3.308355e+06 -3.178804e+01 4.858029e+03
3.309305e+06 5.205651e+02 -5.128024e+03
3.358153e+06 5.973885e+01 -1.014595e+04
3.353344e+06 -7.178065e+02 7.608177e+03
3.306733e+06 -2.547508e+01 5.552249e+03
3.356607e+06 6.038069e+01 -9.896043e+03
3.351902e+06 -7.715699e+02 7.349552e+03
3.356358e+06 -6.105951e+02 -8.073212e+03
3.305849e+06 -2.237204e+01 5.874509e+03
3.306538e+06 4.528456e+02 -6.136329e+03
3.355099e+06 6.092766e+01 -9.625014e+03
3.350509e+06 -8.254073e+02 7.073450e+03
3.354829e+06 -6.642064e+02 -7.849551e+03
3.304920e+06 -1.930136e+01 6.180208e+03
3.305525e+06 4.303641e+02 -6.438770e+03
3.353634e+06 6.139336e+01 -9.332880e+03
3.349166e+06 -8.793151e+02 6.779874e+03
3.303948e+06 -1.626327e+01 6.469359e+03
3.304471e+06 4.079034e+02 -6.724401e+03
3.352214e+06 6.179427e+01 -9.019662e+03
3.347878e+06 -9.332842e+02 6.468825e+03
3.302936e+06 -1.326070e+01 6.741982e+03
3.303377e+06 3.854496e+02 -6.993239e+03
3.350842e+06 6.214764e+01 -8.685369e+03
3.346647e+06 -9.872974e+02 6.140312e+03
3.301885e+06 -1.029672e+01 6.998093e+03
3.302247e+06 3.629900e+02 -7.245304e+03
3.349522e+06 6.247456e+01 -8.330012e+03
3.345476e+06 -1.041324e+03 5.794358e+03
3.300799e+06 -7.376391e+00 7.237715e+03
3.301082e+06 3.405131e+02 -7.480617e+03
3.348256e+06 6.279837e+01 -7.953596e+03
3.344369e+06 -1.095316e+03 5.431007e+03
3.299679e+06 -4.504365e+00 7.460868e+03
3.299885e+06 3.180082e+02 -7.699197e+03
3.343328e+06 -1.149193e+03 5.050342e+03
3.347047e+06 6.314647e+01 -7.556123e+03
3.298529e+06 -1.686353e+00 7.667573e+03
3.298658e+06 2.954662e+02 -7.901065e+03
3.342356e+06 -1.202835e+03 4.652506e+03
3.345899e+06 6.355082e+01 -7.137598e+03
3.297350e+06 1.072500e+00 7.857852e+03
3.297405e+06 2.728786e+02 -8.086243e+03
3.342578e+06 -6.418881e+02 -6.582552e+03
3.341457e+06 -1.256061e+03 4.237727e+03
3.296145e+06 3.767223e+00 8.031725e+03
3.296126e+06 2.502375e+02 -8.254752e+03
3.341512e+06 -6.743141e+02 -6.103807e+03
3.340635e+06 -1.308608e+03 3.806358e+03
3.292397e+06 1.142279e+01 8.455124e+03
3.294916e+06 6.392991e+00 8.189214e+03
3.342846e+06 6.549401e+01 -5.755870e+03
3.339891e+06 -1.360096e+03 3.358930e+03
3.293666e+06 8.945834e+00 8.330340e+03
3.341969e+06 6.654384e+01 -5.253390e+03
3.339232e+06 -1.409976e+03 2.896216e+03
3.291112e+06 1.382143e+01 8.563588e+03
3.290811e+06 1.590063e+02 -8.762525e+03
3.341168e+06 6.788780e+01 -4.730126e+03
3.338661e+06 -1.457468e+03 2.419320e+03
3.289813e+06 1.614065e+01 8.655753e+03
3.289444e+06 1.360026e+02 -8.848013e+03
3.340446e+06 6.958531e+01 -4.186283e+03
3.338183e+06 -1.501459e+03 1.929789e+03
3.288501e+06 1.838064e+01 8.731644e+03
3.288066e+06 1.129110e+02 -8.916965e+03
3.339808e+06 7.169521e+01 -3.622185e+03
3.337804e+06 -1.540362e+03 1.429750e+03
3.287181e+06 2.054337e+01 8.791284e+03
3.286680e+06 8.972764e+01 -8.969409e+03
3.339257e+06 7.426325e+01 -3.038337e+03
3.337530e+06 -1.571923e+03 9.220490e+02
3.285853e+06 2.263176e+01 8.834703e+03
3.285288e+06 6.645054e+01 -9.005375e+03
3.338798e+06 7.730835e+01 -2.435516e+03
3.337370e+06 -1.592997e+03 4.103488e+02
3.284521e+06 2.465112e+01 8.861933e+03
3.283893e+06 4.307979e+01 -9.024897e+03
3.338436e+06 8.078979e+01 -1.814929e+03
3.337330e+06 -1.599448e+03 -1.010034e+02
3.283186e+06 2.660838e+01 8.873014e+03
3.282496e+06 1.961991e+01 -9.028021e+03
3.338177e+06 8.454607e+01 -1.178465e+03
3.337417e+06 -1.587108e+03 -6.080814e+02
3.281852e+06 2.851179e+01 8.867999e+03
3.281100e+06 -3.919627e+00 -9.014801e+03
3.338026e+06 8.817389e+01 -5.291279e+02
3.337632e+06 -1.554596e+03 -1.108560e+03
3.280520e+06 3.037189e+01 8.846955e+03
3.279707e+06 -2.751979e+01 -8.985312e+03
3.337969e+06 -1.504657e+03 -1.599652e+03
3.337990e+06 9.079938e+01 1.282407e+02
3.279193e+06 3.219887e+01 8.809974e+03
3.278321e+06 -5.114639e+01 -8.939655e+03
3.338419e+06 -1.441727e+03 -2.077016e+03
3.338072e+06 9.117751e+01 7.860980e+02
3.275268e+06 3.756083e+01 8.604965e+03
3.277873e+06 3.400302e+01 8.757183e+03
3.276943e+06 -7.474139e+01 -8.877970e+03
3.335920e+06 -9.184496e+02 1.786980e+03
3.338972e+06 -1.369603e+03 -2.536494e+03
3.276564e+06 3.579092e+01 8.688761e+03
3.275577e+06 -9.820713e+01 -8.800457e+03
3.336410e+06 -8.775850e+02 2.416759e+03
3.339620e+06 -1.291090e+03 -2.974708e+03
3.273987e+06 3.929457e+01 8.506175e+03
3.339011e+06 7.971572e+01 2.669300e+03
3.340352e+06 -1.208184e+03 -3.389067e+03
3.272725e+06 4.093823e+01 8.392961e+03
3.271583e+06 -1.654865e+02 -8.476748e+03
3.339534e+06 7.480614e+01 3.244896e+03
3.341163e+06 -1.122287e+03 -3.777649e+03
3.271484e+06 4.236881e+01 8.266206e+03
3.270301e+06 -1.850842e+02 -8.340912e+03
3.340148e+06 7.015092e+01 3.788734e+03
3.342044e+06 -1.034384e+03 -4.139057e+03
3.270268e+06 4.333611e+01 8.127293e+03
3.269057e+06 -2.012784e+02 -8.193543e+03
3.340846e+06 6.584329e+01 4.299184e+03
3.342989e+06 -9.451664e+02 -4.472291e+03
3.269079e+06 4.354666e+01 7.978293e+03
3.267855e+06 -2.128691e+02 -8.037174e+03
3.341620e+06 6.188476e+01 4.775186e+03
3.343992e+06 -8.551193e+02 -4.776647e+03
3.341161e+06 -1.122381e+03 3.777891e+03
3.267919e+06 4.296938e+01 7.821732e+03
3.266694e+06 -2.205695e+02 -7.874451e+03
3.342465e+06 5.823266e+01 5.216042e+03
3.345047e+06 -7.645794e+02 -5.051637e+03
3.342042e+06 -1.034477e+03 4.139316e+03
3.266786e+06 4.189804e+01 7.659845e+03
3.265567e+06 -2.259749e+02 -7.707341e+03
3.343373e+06 5.482702e+01 5.621285e+03
3.346149e+06 -6.737788e+02 -5.296929e+03
3.265682e+06 4.063574e+01 7.494161e+03
3.264473e+06 -2.300655e+02 -7.537053e+03
3.344339e+06 5.160013e+01 5.990604e+03
3.347292e+06 -5.828740e+02 -5.512298e+03
3.264605e+06 3.934482e+01 7.325646e+03
3.263406e+06 -2.334015e+02 -7.364334e+03
3.345357e+06 4.848788e+01 6.323788e+03
3.348471e+06 -4.919687e+02 -5.697596e+03
3.263556e+06 3.810187e+01 7.154911e+03
3.262368e+06 -2.363049e+02 -7.189652e+03
3.346421e+06 4.542975e+01 6.620694e+03
3.349680e+06 -4.011281e+02 -5.852725e+03
3.260565e+06 3.487825e+01 6.632658e+03
3.262533e+06 3.693853e+01 6.982346e+03
3.261355e+06 -2.389622e+02 -7.013303e+03
3.350915e+06 -3.103913e+02 -5.977620e+03
3.347527e+06 4.237328e+01 6.881222e+03
3.261536e+06 3.586428e+01 6.808206e+03
3.352169e+06 -2.197792e+02 -6.072234e+03
3.348668e+06 3.927261e+01 7.105302e+03
3.259620e+06 3.397310e+01 6.455809e+03
3.349876e+06 -1.959116e+02 7.504038e+03
3.353437e+06 -1.293001e+02 -6.136532e+03
3.258701e+06 3.314042e+01 6.277731e+03
3.257563e+06 -2.487325e+02 -6.294183e+03
3.351220e+06 -1.431366e+02 7.638957e+03
3.354715e+06 -3.895402e+01 -6.170483e+03
3.257808e+06 3.237111e+01 6.098467e+03
3.256680e+06 -2.511217e+02 -6.111319e+03
3.352254e+06 2.936087e+01 7.558338e+03
3.355996e+06 5.126405e+01 -6.174056e+03
3.256940e+06 3.165609e+01 5.918042e+03
3.255822e+06 -2.535114e+02 -5.927280e+03
3.353485e+06 2.577184e+01 7.636138e+03
3.357275e+06 1.413645e+02 -6.147220e+03
3.256099e+06 3.098886e+01 5.736471e+03
3.254990e+06 -2.559029e+02 -5.742072e+03
3.354726e+06 2.201300e+01 7.677261e+03
3.358547e+06 2.313598e+02 -6.089941e+03
3.255285e+06 3.036193e+01 5.553759e+03
3.254184e+06 -2.582960e+02 -5.555699e+03
3.355970e+06 1.807633e+01 7.681663e+03
3.359807e+06 3.212652e+02 -6.002181e+03
3.254497e+06 2.977098e+01 5.369905e+03
3.253405e+06 -2.606887e+02 -5.368158e+03
3.357212e+06 1.395666e+01 7.649296e+03
3.361048e+06 4.110973e+02 -5.883897e+03
3.253735e+06 2.921137e+01 5.184906e+03
3.252652e+06 -2.630789e+02 -5.179446e+03
3.358448e+06 9.653891e+00 7.580111e+03
3.362267e+06 5.008747e+02 -5.735046e+03
3.253000e+06 2.868053e+01 4.998758e+03
3.251926e+06 -2.654648e+02 -4.989555e+03
3.359670e+06 5.169663e+00 7.474057e+03
3.363456e+06 5.906167e+02 -5.555578e+03
3.250331e+06 2.680566e+01 4.242536e+03
3.252292e+06 2.817578e+01 4.811454e+03
3.251227e+06 -2.678432e+02 -4.798482e+03
3.360875e+06 5.096580e-01 7.331080e+03
3.364611e+06 6.803432e+02 -5.345447e+03
3.251611e+06 2.769562e+01 4.622987e+03
3.250555e+06 -2.702129e+02 -4.606217e+03
3.362057e+06 -4.318798e+00 7.151126e+03
3.365726e+06 7.700734e+02 -5.104606e+03
3.250957e+06 2.723898e+01 4.433350e+03
3.366796e+06 8.598229e+02 -4.833014e+03
3.363209e+06 -9.305800e+00 6.934139e+03
3.249732e+06 2.639506e+01 4.050537e+03
3.367814e+06 9.496009e+02 -4.530639e+03
3.364327e+06 -1.444060e+01 6.680064e+03
3.249161e+06 2.600765e+01 3.857346e+03
3.248142e+06 -2.795753e+02 -3.825120e+03
3.367143e+06 4.781923e+02 6.341835e+03
3.368777e+06 1.039405e+03 -4.197472e+03
3.248618e+06 2.564394e+01 3.662956e+03
3.247608e+06 -2.818830e+02 -3.626801e+03
3.368289e+06 5.293847e+02 5.989144e+03
3.369678e+06 1.129214e+03 -3.833532e+03
3.248103e+06 2.530461e+01 3.467359e+03
3.247102e+06 -2.841775e+02 -3.427249e+03
3.367420e+06 -3.061032e+01 5.694798e+03
3.370511e+06 1.218977e+03 -3.438888e+03
3.247616e+06 2.499117e+01 3.270547e+03
3.246624e+06 -2.864593e+02 -3.226458e+03
3.368346e+06 -3.621686e+01 5.291882e+03
3.371270e+06 1.308601e+03 -3.013680e+03
3.247157e+06 2.470493e+01 3.072513e+03
3.246175e+06 -2.887292e+02 -3.024421e+03
3.369210e+06 -4.191642e+01 4.851670e+03
3.371951e+06 1.397927e+03 -2.558157e+03
3.246727e+06 2.444826e+01 2.873249e+03
3.245754e+06 -2.909884e+02 -2.821128e+03
3.370006e+06 -4.770286e+01 4.374161e+03
3.372547e+06 1.486703e+03 -2.072714e+03
3.246325e+06 2.422377e+01 2.672746e+03
3.245361e+06 -2.932381e+02 -2.616575e+03
3.370729e+06 -5.357486e+01 3.859387e+03
3.373052e+06 1.574546e+03 -1.557961e+03
3.245952e+06 2.403439e+01 2.470999e+03
3.244998e+06 -2.954799e+02 -2.410753e+03
3.371373e+06 -5.953380e+01 3.307426e+03
3.373459e+06 1.660885e+03 -1.014801e+03
3.371945e+06 1.397769e+03 2.558427e+03
3.245608e+06 2.388520e+01 2.268000e+03
3.244663e+06 -2.977151e+02 -2.203659e+03
3.371932e+06 -6.558491e+01 2.718426e+03
3.373761e+06 1.744887e+03 -4.445354e+02
3.372541e+06 1.486547e+03 2.072969e+03
3.244752e+06 2.373254e+01 1.651477e+03
3.245293e+06 2.378056e+01 2.063747e+03
3.244358e+06 -2.999436e+02 -1.995288e+03
3.372401e+06 -7.173444e+01 2.092637e+03
3.373951e+06 1.825335e+03 1.509987e+02
3.245008e+06 2.372749e+01 1.858237e+03
3.372772e+06 -7.798547e+01 1.430456e+03
3.374020e+06 1.900476e+03 7.692568e+02
3.244526e+06 2.380471e+01 1.443480e+03
3.373039e+06 -8.433040e+01 7.324950e+02
3.373958e+06 1.967783e+03 1.406793e+03
3.244329e+06 2.395307e+01 1.234272e+03
3.243429e+06 -3.087325e+02 -1.149189e+03
3.373754e+06 2.023661e+03 2.059082e+03
3.373195e+06 -9.073348e+01 -3.135327e-01
3.244163e+06 2.418810e+01 1.023900e+03
3.243271e+06 -3.108386e+02 -9.346409e+02
3.373396e+06 2.063177e+03 2.720504e+03
3.373232e+06 -9.710228e+01 -7.665517e+02
3.244027e+06 2.451796e+01 8.124348e+02
3.243144e+06 -3.128467e+02 -7.190081e+02
3.376246e+06 1.189480e+03 -1.999708e+03
3.372875e+06 2.080381e+03 3.385010e+03
3.243922e+06 2.494969e+01 5.999910e+02
3.243048e+06 -3.146849e+02 -5.024204e+02
3.376063e+06 1.228016e+03 -2.853232e+03
3.372183e+06 2.071205e+03 4.048480e+03
3.243849e+06 2.548387e+01 3.867429e+02
3.242984e+06 -3.162324e+02 -2.850783e+02
3.372537e+06 -1.125447e+02 -3.237196e+03
3.371324e+06 2.036984e+03 4.707723e+03
3.243808e+06 2.610786e+01 1.729579e+02
3.242953e+06 -3.172823e+02 -6.729627e+01
3.372008e+06 -1.132359e+02 -4.098880e+03
3.370307e+06 1.983135e+03 5.357514e+03
3.243800e+06 2.678540e+01 -4.095196e+01
3.242957e+06 -3.174805e+02 1.504304e+02
3.371320e+06 -1.094351e+02 -4.962015e+03
3.369144e+06 1.915283e+03 5.991847e+03
3.243825e+06 2.742917e+01 -2.543421e+02
3.243000e+06 -3.162120e+02 3.673079e+02
3.370475e+06 -1.016830e+02 -5.813010e+03
3.367847e+06 1.837718e+03 6.605626e+03
3.243885e+06 2.785893e+01 -4.661910e+02
3.243085e+06 -3.124027e+02 5.820454e+02
3.369481e+06 -9.171269e+01 -6.641184e+03
3.366428e+06 1.753495e+03 7.194888e+03
3.244275e+06 2.560252e+01 -1.074058e+03
3.243981e+06 2.777464e+01 -6.749055e+02
3.243217e+06 -3.045574e+02 7.926127e+02
3.368348e+06 -8.085173e+01 -7.439636e+03
3.364897e+06 1.664743e+03 7.756680e+03
3.244111e+06 2.697562e+01 -8.782837e+02
3.243398e+06 -2.925052e+02 9.965014e+02
3.367084e+06 -6.977118e+01 -8.204085e+03
3.363262e+06 1.572936e+03 8.288862e+03
3.244470e+06 2.395294e+01 -1.260509e+03
3.365701e+06 -5.879917e+01 -8.931843e+03
3.361531e+06 1.479089e+03 8.789921e+03
3.244695e+06 2.222710e+01 -1.436522e+03
3.244164e+06 -2.437964e+02 1.550002e+03
3.364206e+06 -4.809145e+01 -9.621203e+03
3.359713e+06 1.383899e+03 9.258812e+03
3.244946e+06 2.052059e+01 -1.601391e+03
3.244477e+06 -2.258794e+02 1.711987e+03
3.362610e+06 -3.771686e+01 -1.027107e+04
3.357814e+06 1.287837e+03 9.694836e+03
3.245223e+06 1.887209e+01 -1.754662e+03
3.244814e+06 -2.076650e+02 1.861948e+03
3.355841e+06 1.191219e+03 1.009755e+04
3.360918e+06 -2.770175e+01 -1.088076e+04
3.245521e+06 1.729469e+01 -1.896038e+03
3.245173e+06 -1.892889e+02 1.999659e+03
3.353800e+06 1.094246e+03 1.046668e+04
3.359140e+06 -1.805141e+01 -1.144982e+04
3.245839e+06 1.578536e+01 -2.025324e+03
3.245550e+06 -1.708326e+02 2.124972e+03
3.358142e+06 7.440257e+02 -1.244202e+04
3.351698e+06 9.970446e+02 1.080210e+04
3.246176e+06 1.433642e+01 -2.142387e+03
3.245944e+06 -1.523445e+02 2.237787e+03
3.356020e+06 6.895983e+02 -1.291637e+04
3.349541e+06 8.996862e+02 1.110375e+04
3.246529e+06 1.293563e+01 -2.247139e+03
3.246353e+06 -1.338547e+02 2.338038e+03
3.353346e+06 8.741832e+00 -1.291140e+04
3.347335e+06 8.022075e+02 1.137164e+04
3.246895e+06 1.157203e+01 -2.339522e+03
3.246774e+06 -1.153791e+02 2.425682e+03
3.351284e+06 1.696224e+01 -1.331655e+04
3.345087e+06 7.046207e+02 1.160583e+04
3.247275e+06 1.023373e+01 -2.419495e+03
3.247208e+06 -9.692828e+01 2.500689e+03
3.349167e+06 2.482475e+01 -1.368074e+04
3.342801e+06 6.069232e+02 1.180639e+04
3.248468e+06 6.277535e+00 -2.584742e+03
3.247664e+06 8.910733e+00 -2.487034e+03
3.247650e+06 -7.850640e+01 2.563039e+03
3.347001e+06 3.232468e+01 -1.400405e+04
3.340484e+06 5.091039e+02 1.197341e+04
3.248063e+06 7.594532e+00 -2.542120e+03
3.248101e+06 -6.011557e+01 2.612719e+03
3.344792e+06 3.945421e+01 -1.428656e+04
3.338143e+06 4.111468e+02 1.210698e+04
3.345082e+06 7.044932e+02 -1.160622e+04
3.248879e+06 4.954221e+00 -2.614891e+03
3.342547e+06 4.620565e+01 -1.452841e+04
3.335783e+06 3.130341e+02 1.220719e+04
3.342797e+06 6.068007e+02 -1.180679e+04
3.249293e+06 3.619995e+00 -2.632562e+03
3.249480e+06 -5.126673e+00 2.685653e+03
3.340271e+06 5.257022e+01 -1.472968e+04
3.333409e+06 2.147478e+02 1.227416e+04
3.249709e+06 2.271508e+00 -2.637749e+03
3.249944e+06 1.314806e+01 2.684575e+03
3.337969e+06 5.853986e+01 -1.489052e+04
3.331029e+06 1.162708e+02 1.230796e+04
3.250124e+06 9.061654e-01 -2.630447e+03
3.250406e+06 3.139882e+01 2.670792e+03
3.335649e+06 6.410797e+01 -1.501102e+04
3.328647e+06 1.758663e+01 1.230869e+04
3.250538e+06 -4.775189e-01 -2.610648e+03
3.250866e+06 4.962930e+01 2.644298e+03
3.326270e+06 -8.131868e+01 1.227644e+04
3.333316e+06 6.926917e+01 -1.509132e+04
3.250948e+06 -1.880933e+00 -2.578348e+03
3.251321e+06 6.784205e+01 2.605086e+03
3.323903e+06 -1.804572e+02 1.221127e+04
3.330976e+06 7.402062e+01 -1.513152e+04
3.251352e+06 -3.303830e+00 -2.533537e+03
3.251770e+06 8.604172e+01 2.553147e+03
3.327323e+06 2.198348e+01 -1.537980e+04
3.321552e+06 -2.798375e+02 1.211327e+04
3.251750e+06 -4.747464e+00 -2.476207e+03
3.252211e+06 1.042329e+02 2.488472e+03
3.324842e+06 -3.551947e+01 -1.531928e+04
3.319223e+06 -3.794637e+02 1.198251e+04
3.252138e+06 -6.211484e+00 -2.406348e+03
3.252642e+06 1.224207e+02 2.411050e+03
3.323972e+06 8.583613e+01 -1.501268e+04
3.316921e+06 -4.793351e+02 1.181905e+04
3.252515e+06 -7.696875e+00 -2.323947e+03
3.253061e+06 1.406116e+02 2.320869e+03
3.321662e+06 8.898519e+01 -1.489361e+04
3.314652e+06 -5.794412e+02 1.162297e+04
3.253565e+06 -1.229634e+01 -2.001358e+03
3.252880e+06 -9.204784e+00 -2.228991e+03
3.253467e+06 1.588133e+02 2.217917e+03
3.319373e+06 9.176306e+01 -1.473498e+04
3.312421e+06 -6.797590e+02 1.139435e+04
3.253231e+06 -1.073667e+01 -2.121466e+03
3.317112e+06 9.419036e+01 -1.453687e+04
3.310235e+06 -7.802456e+02 1.113329e+04
3.253882e+06 -1.388868e+01 -1.868651e+03
3.314884e+06 9.629561e+01 -1.429939e+04
3.308099e+06 -8.808313e+02 1.083993e+04
3.254179e+06 -1.552100e+01 -1.723332e+03
3.254923e+06 2.319182e+02 1.678125e+03
3.312695e+06 9.811220e+01 -1.402261e+04
3.306018e+06 -9.814056e+02 1.051443e+04
3.254454e+06 -1.720354e+01 -1.565393e+03
3.255236e+06 2.503240e+02 1.511128e+03
3.310551e+06 9.968278e+01 -1.370663e+04
3.303999e+06 -1.081803e+03 1.015707e+04
3.254707e+06 -1.895003e+01 -1.394832e+03
3.255527e+06 2.688024e+02 1.331306e+03
3.308456e+06 1.010570e+02 -1.335155e+04
3.302046e+06 -1.181776e+03 9.768215e+03
3.254934e+06 -2.077868e+01 -1.211661e+03
3.255792e+06 2.873592e+02 1.138680e+03
3.306417e+06 1.022941e+02 -1.295748e+04
3.300167e+06 -1.280971e+03 9.348397e+03
3.255135e+06 -2.271195e+01 -1.015912e+03
3.256030e+06 3.059922e+02 9.332901e+02
3.304439e+06 1.034624e+02 -1.252455e+04
3.298367e+06 -1.378878e+03 8.898375e+03
3.255307e+06 -2.477675e+01 -8.076485e+02
3.256239e+06 3.246862e+02 7.152135e+02
3.296653e+06 -1.474775e+03 8.419215e+03
3.302527e+06 1.046382e+02 -1.205295e+04
3.255448e+06 -2.700444e+01 -5.869832e+02
3.256418e+06 3.434026e+02 4.845794e+02
3.295033e+06 -1.567638e+03 7.912398e+03
3.300689e+06 1.059069e+02 -1.154292e+04
3.255556e+06 -2.942944e+01 -3.540969e+02
3.256563e+06 3.620660e+02 2.415940e+02
3.295828e+06 -8.110282e+02 -1.089667e+04
3.293514e+06 -1.656016e+03 7.379961e+03
3.255629e+06 -3.208390e+01 -1.092744e+02
3.256673e+06 3.805399e+02 -1.342195e+01
3.294043e+06 -8.712702e+02 -1.028221e+04
3.292105e+06 -1.737861e+03 6.824651e+03
3.255606e+06 -4.158708e+01 6.912432e+02
3.255664e+06 -3.499610e+01 1.470500e+02
3.256744e+06 3.985871e+02 -2.799779e+02
3.295675e+06 1.111304e+02 -9.786664e+03
3.290816e+06 -1.810284e+03 6.250092e+03
3.255657e+06 -3.817377e+01 4.142199e+02
3.294193e+06 1.135637e+02 -9.128417e+03
3.289658e+06 -1.869297e+03 5.660878e+03
3.255506e+06 -4.512626e+01 9.766113e+02
3.292820e+06 1.163335e+02 -8.436057e+03
3.288642e+06 -1.909744e+03 5.062344e+03
3.255353e+06 -4.852812e+01 1.267995e+03
3.256530e+06 4.525863e+02 -1.438995e+03
3.291562e+06 1.192414e+02 -7.712092e+03
3.287777e+06 -1.926710e+03 4.459047e+03
3.255141e+06 -5.122235e+01 1.561742e+03
3.256300e+06 4.523043e+02 -1.739309e+03
3.290430e+06 1.217747e+02 -6.960450e+03
3.287065e+06 -1.918964e+03 3.853685e+03
3.254868e+06 -5.210236e+01 1.852084e+03
3.255961e+06 4.373883e+02 -2.032674e+03
3.289433e+06 1.228242e+02 -6.187373e+03
3.286499e+06 -1.890151e+03 3.249780e+03
3.288643e+06 -1.909821e+03 -5.062441e+03
3.254531e+06 -4.995517e+01 2.130433e+03
3.255498e+06 4.035793e+02 -2.308682e+03
3.288575e+06 1.209443e+02 -5.402390e+03
3.286072e+06 -1.845654e+03 2.652609e+03
3.287778e+06 -1.926787e+03 -4.459101e+03
3.254132e+06 -4.474020e+01 2.386585e+03
3.254928e+06 3.544778e+02 -2.556768e+03
3.287858e+06 1.157885e+02 -4.617494e+03
3.285772e+06 -1.789993e+03 2.067117e+03
3.253678e+06 -3.766776e+01 2.611732e+03
3.254281e+06 2.964473e+02 -2.769259e+03
3.287280e+06 1.086300e+02 -3.843620e+03
3.285590e+06 -1.726505e+03 1.497303e+03
3.253178e+06 -2.992494e+01 2.799912e+03
3.253580e+06 2.332796e+02 -2.941449e+03
3.286833e+06 1.009194e+02 -3.088324e+03
3.285517e+06 -1.657570e+03 9.462263e+02
3.252642e+06 -2.213824e+01 2.947367e+03
3.252843e+06 1.671505e+02 -3.070439e+03
3.285546e+06 -1.584868e+03 4.161515e+02
3.286508e+06 9.343264e+01 -2.356353e+03
3.252080e+06 -1.460705e+01 3.051726e+03
3.252081e+06 9.931514e+01 -3.154418e+03
3.285671e+06 -1.509584e+03 -9.128154e+01
3.286299e+06 8.650803e+01 -1.650676e+03
3.250323e+06 5.581804e+00 3.093586e+03
3.251500e+06 -7.457366e+00 3.111474e+03
3.251306e+06 3.050402e+01 -3.192246e+03
3.283676e+06 -9.452942e+02 -6.467778e+02
3.285885e+06 -1.432553e+03 -5.749068e+02
3.250912e+06 -7.296734e-01 3.125636e+03
3.283851e+06 -8.996896e+02 -3.007294e+00
3.286182e+06 -1.354366e+03 -1.033913e+03
3.249741e+06 1.150496e+01 3.014924e+03
3.286289e+06 6.976604e+01 2.928919e+02
3.286558e+06 -1.275434e+03 -1.467747e+03
3.249174e+06 1.707879e+01 2.889400e+03
3.248250e+06 -2.480524e+02 -2.871081e+03
3.286470e+06 6.539474e+01 8.801715e+02
3.287008e+06 -1.196044e+03 -1.876044e+03
3.248628e+06 2.234354e+01 2.716868e+03
3.247535e+06 -3.178140e+02 -2.671442e+03
3.286735e+06 6.150053e+01 1.436459e+03
3.287527e+06 -1.116394e+03 -2.258571e+03
3.248111e+06 2.734012e+01 2.497240e+03
3.246854e+06 -3.874992e+02 -2.423874e+03
3.287079e+06 5.800116e+01 1.961557e+03
3.288110e+06 -1.036615e+03 -2.615186e+03
3.247631e+06 3.210519e+01 2.230467e+03
3.246213e+06 -4.570800e+02 -2.128343e+03
3.287496e+06 5.481927e+01 2.455345e+03
3.288753e+06 -9.567954e+02 -2.945808e+03
3.247192e+06 3.667198e+01 1.916507e+03
3.245618e+06 -5.265374e+02 -1.784818e+03
3.287982e+06 5.188466e+01 2.917760e+03
3.289452e+06 -8.769891e+02 -3.250395e+03
3.246803e+06 4.107006e+01 1.555316e+03
3.245078e+06 -5.958610e+02 -1.393251e+03
3.288532e+06 4.913402e+01 3.348768e+03
3.290201e+06 -7.972299e+02 -3.528931e+03
3.246469e+06 4.532580e+01 1.146819e+03
3.244597e+06 -6.650519e+02 -9.535626e+02
3.289143e+06 4.651332e+01 3.748355e+03
3.290997e+06 -7.175366e+02 -3.781409e+03
3.246197e+06 4.946231e+01 6.908964e+02
3.244183e+06 -7.341276e+02 -4.656194e+02
3.289808e+06 4.397460e+01 4.116520e+03
3.291834e+06 -6.379184e+02 -4.007830e+03
3.245993e+06 5.350637e+01 1.873587e+02
3.243841e+06 -8.031294e+02 7.078353e+01
3.292709e+06 -5.583778e+02 -4.208194e+03
3.290525e+06 4.147671e+01 4.453260e+03
3.245850e+06 6.545286e+01 -1.612475e+03
3.245864e+06 5.748763e+01 -3.640793e+02
3.243578e+06 -8.721323e+02 6.559518e+02
3.293618e+06 -4.789133e+02 -4.382498e+03
3.291288e+06 3.898552e+01 4.758577e+03
3.245814e+06 6.144893e+01 -9.638311e+02
3.291595e+06 -3.408907e+02 5.252959e+03
3.294554e+06 -3.995213e+02 -4.530734e+03
3.245975e+06 6.959838e+01 -2.310797e+03
3.292573e+06 -2.945587e+02 5.483521e+03
3.295515e+06 -3.201960e+02 -4.652890e+03
3.246195e+06 7.403655e+01 -3.059846e+03
3.243393e+06 -1.151814e+03 3.495704e+03
3.293811e+06 3.127530e+01 5.485921e+03
3.296495e+06 -2.409315e+02 -4.748946e+03
3.246511e+06 7.899975e+01 -3.860987e+03
3.243576e+06 -1.224431e+03 4.335191e+03
3.294715e+06 2.855544e+01 5.665455e+03
3.297490e+06 -1.617195e+02 -4.818878e+03
3.246926e+06 8.483898e+01 -4.715959e+03
3.243851e+06 -1.299358e+03 5.229449e+03
3.295643e+06 2.573299e+01 5.813495e+03
3.298496e+06 -8.255322e+01 -4.862657e+03
3.247441e+06 9.206974e+01 -5.626940e+03
3.244212e+06 -1.377577e+03 6.180617e+03
3.296591e+06 2.279625e+01 5.930011e+03
3.299507e+06 -3.425475e+00 -4.880250e+03
3.248055e+06 1.014371e+02 -6.596584e+03
3.244649e+06 -1.460353e+03 7.191274e+03
3.297553e+06 1.973438e+01 6.014971e+03
3.300520e+06 7.566980e+01 -4.871624e+03
3.248766e+06 1.140010e+02 -7.628059e+03
3.245151e+06 -1.549268e+03 8.264449e+03
3.298526e+06 1.653926e+01 6.068334e+03
3.301530e+06 1.547350e+02 -4.836744e+03
3.249569e+06 1.312364e+02 -8.725014e+03
3.245698e+06 -1.646260e+03 9.403571e+03
3.299505e+06 1.320299e+01 6.090059e+03
3.302531e+06 2.337689e+02 -4.775583e+03
3.299505e+06 -3.497097e+00 4.880531e+03
3.250459e+06 1.551674e+02 -9.891505e+03
3.246267e+06 -1.753635e+03 1.061235e+04
3.300486e+06 9.719371e+00 6.080102e+03
3.303521e+06 3.127600e+02 -4.688125e+03
3.300517e+06 7.559452e+01 4.871903e+03
3.254747e+06 3.873146e+02 -1.533137e+04
3.251428e+06 1.885248e+02 -1.113179e+04
3.246828e+06 -1.874030e+03 1.189454e+04
3.301463e+06 6.082545e+00 6.038419e+03
3.304493e+06 3.916860e+02 -4.574373e+03
3.252469e+06 2.349354e+02 -1.244996e+04
3.247346e+06 -2.010307e+03 1.325345e+04
3.305444e+06 4.705026e+02 -4.434360e+03
3.302432e+06 2.286032e+00 5.964965e+03
3.253576e+06 2.991523e+02 -1.384931e+04
3.306368e+06 5.491366e+02 -4.268167e+03
3.303389e+06 -1.676470e+00 5.859699e+03
3.255986e+06 5.072542e+02 -1.689422e+04
3.248086e+06 -2.341031e+03 1.620736e+04
3.305432e+06 2.549803e+02 5.746278e+03
3.307261e+06 6.274727e+02 -4.075942e+03
3.257314e+06 6.688256e+02 -1.853002e+04
3.248181e+06 -2.750432e+03 1.944468e+04
3.306460e+06 3.003903e+02 5.558344e+03
3.308117e+06 7.053340e+02 -3.857933e+03
3.258772e+06 8.842495e+02 -2.022067e+04
3.247952e+06 -2.964282e+03 2.112055e+04
3.306139e+06 -1.464692e+01 5.352755e+03
3.308933e+06 7.824579e+02 -3.614523e+03
3.260437e+06 1.167695e+03 -2.193029e+04
3.247621e+06 -3.149039e+03 2.276646e+04
3.307000e+06 -1.936873e+01 5.120059e+03
3.309701e+06 8.584607e+02 -3.346282e+03
3.262437e+06 1.528274e+03 -2.359075e+04
3.247385e+06 -3.273970e+03 2.429669e+04
3.307824e+06 -2.431199e+01 4.855589e+03
3.310418e+06 9.327866e+02 -3.054034e+03
3.265058e+06 2.016134e+03 -2.515236e+04
3.308608e+06 -2.949154e+01 4.559481e+03
3.311075e+06 1.004637e+03 -2.738946e+03
3.268457e+06 2.689615e+03 -2.637144e+04
3.293854e+06 4.675262e+04 4.461034e+01
3.309345e+06 -3.491781e+01 4.231964e+03
3.311667e+06 1.072864e+03 -2.402627e+03
3.271915e+06 3.039966e+03 -2.631497e+04
3.298040e+06 2.518808e+04 -1.525303e+03
3.293073e+06 4.668932e+04 -1.807285e+02
3.310030e+06 -4.059267e+01 3.873406e+03
3.312187e+06 1.135831e+03 -2.047249e+03
3.280444e+06 4.997438e+03 -2.485689e+04
3.292160e+06 4.517209e+04 -8.951723e+02
3.310658e+06 -4.649763e+01 3.484382e+03
3.312626e+06 1.191226e+03 -1.675646e+03
3.311221e+06 -5.257298e+01 3.065781e+03
3.312975e+06 1.235921e+03 -1.291293e+03
3.311714e+06 -5.867867e+01 2.618984e+03
3.313228e+06 1.266266e+03 -8.978185e+02
3.312129e+06 -6.451648e+01 2.146157e+03
3.313378e+06 1.280009e+03 -4.975672e+02
3.312460e+06 -6.947676e+01 1.650755e+03
3.313427e+06 1.278298e+03 -9.250281e+01
3.313380e+06 1.264576e+03 3.140791e+02
3.312699e+06 -7.251644e+01 1.138234e+03
3.312844e+06 -7.284264e+01 6.163367e+02
3.313242e+06 1.242267e+03 7.185228e+02
3.314943e+06 7.604273e+02 -1.717739e+02
3.313020e+06 1.213980e+03 1.117731e+03
3.312855e+06 -6.757421e+01 -4.245608e+02
3.312719e+06 1.181583e+03 1.509280e+03
3.312727e+06 -6.378839e+01 -9.330930e+02
3.312344e+06 1.146389e+03 1.891349e+03
3.312517e+06 -5.986171e+01 -1.429717e+03
3.311898e+06 1.109318e+03 2.262601e+03
3.312230e+06 -5.596624e+01 -1.912784e+03
3.311385e+06 1.071006e+03 2.622073e+03
3.311870e+06 -5.217436e+01 -2.381220e+03
3.310809e+06 1.031900e+03 2.969085e+03
3.311439e+06 -4.850660e+01 -2.834321e+03
3.310172e+06 9.923024e+02 3.303168e+03
3.310943e+06 -4.496038e+01 -3.271622e+03
3.309478e+06 9.524208e+02 3.624004e+03
3.310383e+06 -4.152074e+01 -3.692814e+03
3.308728e+06 9.123912e+02 3.931387e+03
3.310805e+06 1.031797e+03 -2.969231e+03
3.309763e+06 -3.817081e+01 -4.097699e+03
3.307926e+06 8.723012e+02 4.225189e+03
3.310168e+06 9.921983e+02 -3.303323e+03
3.307073e+06 8.322030e+02 4.505337e+03
3.309085e+06 -3.489277e+01 -4.486150e+03
3.306173e+06 7.921253e+02 4.771794e+03
3.308351e+06 -3.167324e+01 -4.858094e+03
3.308430e+06 4.979313e+02 -5.480963e+03
3.305227e+06 7.520809e+02 5.024548e+03
3.307507e+06 4.753629e+02 -5.817064e+03
3.304239e+06 7.120727e+02 5.263604e+03
3.305846e+06 -2.226451e+01 -5.874577e+03
3.303210e+06 6.720964e+02 5.488974e+03
3.304917e+06 -1.919626e+01 -6.180277e+03
3.302143e+06 6.321448e+02 5.700677e+03
3.303945e+06 -1.616111e+01 -6.469429e+03
3.301041e+06 5.922079e+02 5.898734e+03
3.302932e+06 -1.316098e+01 -6.742051e+03
3.299905e+06 5.522756e+02 6.083167e+03
3.301882e+06 -1.019988e+01 -6.998163e+03
3.298738e+06 5.123375e+02 6.253997e+03
3.300796e+06 -7.282262e+00 -7.237785e+03
3.297543e+06 4.723839e+02 6.411245e+03
3.299676e+06 -4.412892e+00 -7.460938e+03
3.296322e+06 4.324055e+02 6.554931e+03
3.298526e+06 -1.597740e+00 -7.667643e+03
3.295077e+06 3.923941e+02 6.685072e+03
3.297347e+06 1.158518e+00 -7.857922e+03
3.293810e+06 3.523423e+02 6.801688e+03
3.292525e+06 3.122442e+02 6.904795e+03
3.296142e+06 3.850360e+00 -8.031795e+03
3.291223e+06 2.720952e+02 6.994412e+03
3.294913e+06 6.473394e+00 -8.189285e+03
3.293504e+06 2.047676e+02 -8.541848e+03
3.289908e+06 2.318932e+02 7.070558e+03
3.292165e+06 1.819264e+02 -8.660478e+03
3.288580e+06 1.916391e+02 7.133254e+03
3.291110e+06 1.389367e+01 -8.563658e+03
3.287243e+06 1.513383e+02 7.182529e+03
3.289810e+06 1.621020e+01 -8.655824e+03
3.285899e+06 1.110018e+02 7.218418e+03
3.288499e+06 1.844760e+01 -8.731714e+03
3.284550e+06 7.064970e+01 7.240969e+03
3.287179e+06 2.060773e+01 -8.791354e+03
3.283199e+06 3.031493e+01 7.250247e+03
3.285851e+06 2.269335e+01 -8.834772e+03
3.281848e+06 -9.953600e+00 7.246343e+03
3.284519e+06 2.471039e+01 -8.862001e+03
3.280499e+06 -5.008197e+01 7.229385e+03
3.283184e+06 2.666491e+01 -8.873082e+03
3.279156e+06 -8.996392e+01 7.199551e+03
3.281850e+06 2.856615e+01 -8.868066e+03
3.277820e+06 -1.294461e+02 7.157086e+03
3.280518e+06 3.042379e+01 -8.847021e+03
3.276495e+06 -1.683104e+02 7.102324e+03
3.279191e+06 3.224847e+01 -8.810038e+03
3.275183e+06 -2.062475e+02 7.035721e+03
3.273887e+06 -2.428179e+02 6.957883e+03
3.277819e+06 -1.295020e+02 -7.157244e+03
3.277872e+06 3.405051e+01 -8.757245e+03
3.272610e+06 -2.774028e+02 6.869603e+03
3.276493e+06 -1.683657e+02 -7.102477e+03
3.276563e+06 3.583634e+01 -8.688821e+03
3.274226e+06 -1.213771e+02 -8.707412e+03
3.271356e+06 -3.091511e+02 6.771871e+03
3.272893e+06 -1.439671e+02 -8.599279e+03
3.270129e+06 -3.369773e+02 6.665819e+03
3.272723e+06 4.097741e+01 -8.393014e+03
3.268930e+06 -3.599019e+02 6.552368e+03
3.271483e+06 4.240612e+01 -8.266256e+03
3.267762e+06 -3.777683e+02 6.432081e+03
3.270267e+06 4.337200e+01 -8.127339e+03
3.266625e+06 -3.913922e+02 6.305744e+03
3.269078e+06 4.358038e+01 -7.978336e+03
3.265517e+06 -4.018842e+02 6.174476e+03
3.267918e+06 4.300194e+01 -7.821772e+03
3.264437e+06 -4.101565e+02 6.039301e+03
3.266785e+06 4.192899e+01 -7.659881e+03
3.263385e+06 -4.168797e+02 5.901044e+03
3.265681e+06 4.066525e+01 -7.494194e+03
3.262359e+06 -4.225306e+02 5.760339e+03
3.264605e+06 3.937327e+01 -7.325677e+03
3.261361e+06 -4.274448e+02 5.617654e+03
3.263555e+06 3.812891e+01 -7.154939e+03
3.260388e+06 -4.318579e+02 5.473331e+03
3.259442e+06 -4.359354e+02 5.327611e+03
3.262532e+06 3.696438e+01 -6.982372e+03
3.258521e+06 -4.397920e+02 5.180665e+03
3.261535e+06 3.588900e+01 -6.808230e+03
3.259408e+06 -2.439288e+02 -6.656303e+03
3.257626e+06 -4.435076e+02 5.032608e+03
3.258473e+06 -2.463385e+02 -6.475854e+03
3.256758e+06 -4.471372e+02 4.883516e+03
3.258700e+06 3.316197e+01 -6.277751e+03
3.255916e+06 -4.507167e+02 4.733438e+03
3.257807e+06 3.239164e+01 -6.098485e+03
3.255099e+06 -4.542702e+02 4.582403e+03
3.256940e+06 3.167614e+01 -5.918060e+03
3.254310e+06 -4.578121e+02 4.430423e+03
3.256099e+06 3.100797e+01 -5.736488e+03
3.253547e+06 -4.613513e+02 4.277505e+03
3.255284e+06 3.038050e+01 -5.553775e+03
3.252810e+06 -4.648921e+02 4.123648e+03
3.254496e+06 2.978889e+01 -5.369920e+03
3.252101e+06 -4.684369e+02 3.968848e+03
3.253734e+06 2.922864e+01 -5.184922e+03
3.251419e+06 -4.719858e+02 3.813097e+03
3.253000e+06 2.869709e+01 -4.998774e+03
3.250763e+06 -4.755385e+02 3.656388e+03
3.252292e+06 2.819187e+01 -4.811470e+03
3.250136e+06 -4.790946e+02 3.498713e+03
3.249535e+06 -4.826531e+02 3.340061e+03
3.251611e+06 2.771106e+01 -4.623003e+03
3.248963e+06 -4.862137e+02 3.180423e+03
3.250957e+06 2.725406e+01 -4.433366e+03
3.249293e+06 -2.749194e+02 -4.218091e+03
3.248418e+06 -4.897757e+02 3.019790e+03
3.250135e+06 -4.791089e+02 -3.498751e+03
3.248704e+06 -2.772539e+02 -4.022214e+03
3.247902e+06 -4.933395e+02 2.858154e+03
3.249535e+06 -4.826667e+02 -3.340099e+03
3.249161e+06 2.602074e+01 -3.857362e+03
3.247413e+06 -4.969051e+02 2.695503e+03
3.248618e+06 2.565657e+01 -3.662972e+03
3.246953e+06 -5.004723e+02 2.531831e+03
3.248102e+06 2.531683e+01 -3.467375e+03
3.246521e+06 -5.040409e+02 2.367127e+03
3.247615e+06 2.500241e+01 -3.270563e+03
3.246118e+06 -5.076095e+02 2.201386e+03
3.247157e+06 2.471591e+01 -3.072529e+03
3.245744e+06 -5.111751e+02 2.034603e+03
3.246726e+06 2.445858e+01 -2.873265e+03
3.245398e+06 -5.147310e+02 1.866777e+03
3.246325e+06 2.423346e+01 -2.672762e+03
3.245082e+06 -5.182676e+02 1.697916e+03
3.245952e+06 2.404384e+01 -2.471014e+03
3.244795e+06 -5.217672e+02 1.528034e+03
3.245608e+06 2.389380e+01 -2.268015e+03
3.244538e+06 -5.252043e+02 1.357163e+03
3.244310e+06 -5.285383e+02 1.185352e+03
3.245293e+06 2.378910e+01 -2.063761e+03
3.244112e+06 -5.317106e+02 1.012682e+03
3.245008e+06 2.373534e+01 -1.858250e+03
3.243834e+06 -3.043764e+02 -1.574732e+03
3.243944e+06 -5.346362e+02 8.392744e+02
3.243617e+06 -3.065701e+02 -1.362570e+03
3.243807e+06 -5.371939e+02 6.653041e+02
3.244329e+06 2.396042e+01 -1.234282e+03
3.243702e+06 -5.392096e+02 4.910214e+02
3.244163e+06 2.419478e+01 -1.023908e+03
3.243628e+06 -5.404377e+02 3.167740e+02
3.244027e+06 2.452501e+01 -8.124412e+02
3.243586e+06 -5.405294e+02 1.430376e+02
3.243922e+06 2.495657e+01 -5.999954e+02
3.243578e+06 -5.389911e+02 -2.955343e+01
3.243849e+06 2.549087e+01 -3.867452e+02
3.243605e+06 -5.351374e+02 -2.001816e+02
3.243808e+06 2.611494e+01 -1.729576e+02
3.243668e+06 -5.280536e+02 -3.678600e+02
3.243800e+06 2.679248e+01 4.095493e+01
3.243768e+06 -5.167148e+02 -5.315994e+02
3.243825e+06 2.743669e+01 2.543479e+02
3.243904e+06 -5.005571e+02 -6.907929e+02
3.243885e+06 2.786659e+01 4.662003e+02
3.244077e+06 -4.799894e+02 -8.448884e+02
3.244282e+06 -4.560088e+02 -9.929433e+02
3.243980e+06 2.778256e+01 6.749181e+02
3.244518e+06 -4.295706e+02 -1.133946e+03
3.244111e+06 2.698422e+01 8.782999e+02
3.243620e+06 -2.776485e+02 1.191550e+03
3.244782e+06 -4.014036e+02 -1.267042e+03
3.243877e+06 -2.611845e+02 1.376341e+03
3.245070e+06 -3.720354e+02 -1.391560e+03
3.244694e+06 2.223809e+01 1.436548e+03
3.245381e+06 -3.418389e+02 -1.506992e+03
3.244518e+06 -4.295936e+02 1.134007e+03
3.244946e+06 2.053190e+01 1.601419e+03
3.245712e+06 -3.110788e+02 -1.612962e+03
3.244781e+06 -4.014264e+02 1.267110e+03
3.245222e+06 1.888457e+01 1.754692e+03
3.246062e+06 -2.799413e+02 -1.709199e+03
3.245521e+06 1.730797e+01 1.896070e+03
3.246427e+06 -2.485579e+02 -1.795508e+03
3.245839e+06 1.579956e+01 2.025357e+03
3.246807e+06 -2.170202e+02 -1.871751e+03
3.246175e+06 1.435162e+01 2.142422e+03
3.247199e+06 -1.853923e+02 -1.937835e+03
3.246528e+06 1.295196e+01 2.247176e+03
3.247602e+06 -1.537170e+02 -1.993694e+03
3.246895e+06 1.158952e+01 2.339560e+03
3.248013e+06 -1.220232e+02 -2.039287e+03
3.247274e+06 1.025235e+01 2.419534e+03
3.248432e+06 -9.032912e+01 -2.074586e+03
3.248855e+06 -5.864478e+01 -2.099572e+03
3.247664e+06 8.930793e+00 2.487073e+03
3.249282e+06 -2.697589e+01 -2.114233e+03
3.248062e+06 7.615741e+00 2.542160e+03
3.248557e+06 -4.175631e+01 2.649719e+03
3.249711e+06 4.676354e+00 -2.118563e+03
3.249017e+06 -2.342724e+01 2.674033e+03
3.250139e+06 3.631324e+01 -2.112553e+03
3.249292e+06 3.645786e+00 2.632603e+03
3.250566e+06 6.793787e+01 -2.096197e+03
3.249708e+06 2.298819e+00 2.637791e+03
3.250989e+06 9.955473e+01 -2.069488e+03
3.250123e+06 9.349863e-01 2.630488e+03
3.251406e+06 1.311710e+02 -2.032416e+03
3.250537e+06 -4.474706e-01 2.610690e+03
3.251816e+06 1.627927e+02 -1.984971e+03
3.250947e+06 -1.848810e+00 2.578389e+03
3.252217e+06 1.944288e+02 -1.927139e+03
3.251351e+06 -3.270775e+00 2.533579e+03
3.252608e+06 2.260871e+02 -1.858904e+03
3.251749e+06 -4.712339e+00 2.476249e+03
3.252985e+06 2.577766e+02 -1.780251e+03
3.252137e+06 -6.175313e+00 2.406389e+03
3.253349e+06 2.895058e+02 -1.691160e+03
3.252514e+06 -7.658978e+00 2.323988e+03
3.253696e+06 3.212802e+02 -1.591615e+03
3.254026e+06 3.531032e+02 -1.481602e+03
3.252879e+06 -9.165439e+00 2.229032e+03
3.254336e+06 3.849709e+02 -1.361115e+03
3.253229e+06 -1.069589e+01 2.121507e+03
3.254232e+06 1.952848e+02 1.973643e+03
3.254625e+06 4.168690e+02 -1.230161e+03
3.254587e+06 2.135755e+02 1.832295e+03
3.254890e+06 4.487679e+02 -1.088771e+03
3.254177e+06 -1.547575e+01 1.723371e+03
3.255131e+06 4.806142e+02 -9.370103e+02
3.254453e+06 -1.715690e+01 1.565430e+03
3.255344e+06 5.123189e+02 -7.749968e+02
3.254705e+06 -1.890272e+01 1.394867e+03
3.255529e+06 5.437444e+02 -6.029256e+02
3.254889e+06 4.487307e+02 1.088858e+03
3.254933e+06 -2.073024e+01 1.211693e+03
3.255683e+06 5.746821e+02 -4.211016e+02
3.255129e+06 4.805794e+02 9.370913e+02
3.255133e+06 -2.266288e+01 1.015940e+03
3.255804e+06 6.048253e+02 -2.299817e+02
3.255305e+06 -2.472728e+01 8.076724e+02
3.255889e+06 6.337299e+02 -3.023372e+01
3.255446e+06 -2.695477e+01 5.870015e+02
3.255936e+06 6.607583e+02 1.771910e+02
3.255554e+06 -2.937973e+01 3.541088e+02
3.255940e+06 6.850027e+02 3.909619e+02
3.255627e+06 -3.203519e+01 1.092788e+02
3.255898e+06 7.051710e+02 6.092502e+02
3.255805e+06 7.194291e+02 8.295950e+02
3.255662e+06 -3.494827e+01 -1.470540e+02
3.255656e+06 7.251968e+02 1.048772e+03
3.255655e+06 -3.812705e+01 -4.142330e+02
3.256752e+06 4.314858e+02 -8.443103e+02
3.255443e+06 7.189404e+02 1.262751e+03
3.256675e+06 4.444407e+02 -1.139145e+03
3.255161e+06 6.962169e+02 1.466997e+03
3.255351e+06 -4.848595e+01 -1.268041e+03
3.254806e+06 6.532630e+02 1.658010e+03
3.255140e+06 -5.118218e+01 -1.561802e+03
3.254381e+06 5.898685e+02 1.833574e+03
3.254866e+06 -5.206424e+01 -1.852158e+03
3.253893e+06 5.095827e+02 1.990376e+03
3.254529e+06 -4.992030e+01 -2.130523e+03
3.253355e+06 4.168850e+02 2.123905e+03
3.254130e+06 -4.470834e+01 -2.386689e+03
3.252776e+06 3.153990e+02 2.230093e+03
3.253677e+06 -3.764013e+01 -2.611850e+03
3.252169e+06 2.077798e+02 2.305679e+03
3.253177e+06 -2.990124e+01 -2.800043e+03
3.251543e+06 9.591940e+01 2.348182e+03
3.252642e+06 -2.211964e+01 -2.947509e+03
3.250907e+06 -1.884777e+01 2.355764e+03
3.252079e+06 -1.459214e+01 -3.051878e+03
3.250269e+06 -1.355807e+02 2.327098e+03
3.249639e+06 -2.536196e+02 2.261241e+03
3.251500e+06 -7.447449e+00 -3.111636e+03
3.249023e+06 -3.725052e+02 2.157535e+03
3.250911e+06 -7.247237e-01 -3.125807e+03
3.249754e+06 -1.084902e+02 -3.126828e+03
3.248429e+06 -4.919240e+02 2.015522e+03
3.248992e+06 -1.782569e+02 -3.022844e+03
3.247863e+06 -6.116730e+02 1.834885e+03
3.249174e+06 1.706661e+01 -2.889595e+03
3.247333e+06 -7.316376e+02 1.615386e+03
3.248629e+06 2.232537e+01 -2.717069e+03
3.246845e+06 -8.517753e+02 1.356824e+03
3.248112e+06 2.731480e+01 -2.497448e+03
3.246407e+06 -9.721118e+02 1.058992e+03
3.247864e+06 -6.116208e+02 -1.835379e+03
3.247632e+06 3.207259e+01 -2.230681e+03
3.246024e+06 -1.092742e+03 7.216356e+02
3.247334e+06 -7.315771e+02 -1.615893e+03
3.247193e+06 3.663193e+01 -1.916729e+03
3.245703e+06 -1.213837e+03 3.444077e+02
3.246804e+06 4.102173e+01 -1.555545e+03
3.245450e+06 -1.335658e+03 -7.317462e+01
3.246470e+06 4.526829e+01 -1.147057e+03
3.245271e+06 -1.458577e+03 -5.317854e+02
3.246199e+06 4.939584e+01 -6.911459e+02
3.245171e+06 -1.583097e+03 -1.032351e+03
3.245996e+06 5.342908e+01 -1.876216e+02
3.245155e+06 -1.709884e+03 -1.576118e+03
3.245229e+06 -1.839793e+03 -2.164733e+03
3.245866e+06 5.739944e+01 3.638012e+02
3.245394e+06 -1.973902e+03 -2.800321e+03
3.245817e+06 6.134767e+01 9.635348e+02
3.243304e+06 -1.010709e+03 1.974486e+03
3.245654e+06 -2.113533e+03 -3.485576e+03
3.243302e+06 -1.080759e+03 2.709259e+03
3.246010e+06 -2.260267e+03 -4.223828e+03
3.246198e+06 7.388684e+01 3.059487e+03
3.246463e+06 -2.415931e+03 -5.019102e+03
3.246515e+06 7.882998e+01 3.860612e+03
3.247009e+06 -2.582547e+03 -5.876108e+03
3.246931e+06 8.464757e+01 4.715579e+03
3.247645e+06 -2.762221e+03 -6.800172e+03
3.247446e+06 9.185459e+01 5.626574e+03
3.248367e+06 -2.956940e+03 -7.797005e+03
3.248061e+06 1.012006e+02 6.596268e+03
3.249166e+06 -3.168230e+03 -8.872281e+03
3.248772e+06 1.137459e+02 7.627846e+03
3.250034e+06 -3.396614e+03 -1.003089e+04
3.249575e+06 1.309734e+02 8.724988e+03
3.250964e+06 -3.640790e+03 -1.127575e+04
3.250465e+06 1.549157e+02 9.891787e+03
3.251947e+06 -3.896367e+03 -1.260589e+04
3.251434e+06 1.883180e+02 1.113254e+04
3.252985e+06 -4.153963e+03 -1.401367e+04
3.252475e+06 2.348334e+02 1.245139e+04
3.254085e+06 -4.396245e+03 -1.548044e+04
3.255276e+06 -4.593271e+03 -1.697019e+04
3.253581e+06 2.992500e+02 1.385164e+04
3.254750e+06 3.877645e+02 1.533469e+04
3.256615e+06 -4.694903e+03 -1.841992e+04
3.248228e+06 -2.537684e+03 1.779664e+04
3.258208e+06 -4.617181e+03 -1.972456e+04
3.257304e+06 6.707680e+02 1.853284e+04
3.260236e+06 -4.220859e+03 -2.071151e+04
3.258742e+06 8.872617e+02 2.021666e+04
3.262982e+06 -3.471687e+03 -2.115406e+04
3.260364e+06 1.170372e+03 2.190412e+04
3.293867e+06 4.666601e+04 9.619314e+00
3.262271e+06 1.525422e+03 2.350955e+04
3.247623e+06 -3.111653e+03 2.549545e+04
3.272628e+06 5.335067e+03 1.796089e+04
3.294306e+06 1.255015e+04 7.355596e+03
3.277090e+06 4.713968e+03 2.364575e+04
3.267668e+06 2.606656e+03 2.591584e+04
3.293167e+06 4.645860e+04 2.085079e+02
3.276755e+06 7.018315e+03 1.588484e+04
3.305765e+06 1.481811e+04 1.085812e+04
3.270435e+06 2.954134e+03 2.545794e+04
3.282273e+06 3.680003e+03 1.302340e+04
3.291839e+06 4.483891e+04 8.987681e+02
3.299512e+06 3.529409e+04 3.403718e+02
3.273812e+06 3.151467e+03 -1.805663e+04
3.292853e+06 3.494185e+04 8.812350e+02
3.298869e+06 3.729537e+04 9.706157e+00
3.298663e+06 3.770295e+04 2.233999e+01
3.266867e+06 -1.650585e+03 -2.066621e+04
3.298908e+06 3.736898e+04 3.153411e+01
3.300124e+06 3.162281e+04 -1.156443e+03
3.299472e+06 3.553776e+04 -3.302061e+02
3.291043e+06 3.224011e+04 -2.576246e+03
3.280718e+06 8.954470e+03 -1.355923e+04
3.285865e+06 8.343881e+03 -1.681173e+04
3.292810e+06 3.498353e+04 -8.075065e+02
3.297148e+06 1.115369e+04 -9.520138e+03
3.293495e+06 1.240916e+04 -7.232306e+03
3.299117e+06 2.091644e+04 -3.181493e+03
3.288004e+06 -4.911409e+02 2.476348e+03
3.299118e+06 2.605545e+04 -1.250966e+03
3.289008e+06 5.583447e+03 -1.281077e+04
3.298877e+06 2.781459e+04 -1.927395e+02
3.298859e+06 2.782620e+04 2.756315e+02
3.291180e+06 3.200816e+04 2.724035e+03
3.262662e+06 -3.370929e+03 2.125533e+04
3.299199e+06 2.617373e+04 1.360086e+03
3.298623e+06 1.719596e+04 8.288091e+03
3.266143e+06 -1.535413e+03 2.091951e+04
3.271755e+06 2.939598e+03 1.887597e+04
3.300407e+06 2.137009e+04 3.481074e+03
3.285183e+06 5.625474e+03 1.832156e+04
3.292630e+06 2.538928e+04 8.178786e+02
3.281548e+06 2.730985e+03 2.112841e+04
3.291373e+06 2.311239e+04 3.291023e+03
3.260091e+06 -4.164425e+03 2.076261e+04
3.258141e+06 -4.596026e+03 1.975770e+04
3.277321e+06 7.524103e+02 2.150686e+04
3.256584e+06 -4.694418e+03 1.844354e+04
3.273363e+06 -3.422205e+02 2.106661e+04
3.255262e+06 -4.599597e+03 1.698681e+04
3.270201e+06 -9.041733e+02 2.022715e+04
3.254081e+06 -4.403375e+03 1.549182e+04
3.267336e+06 -1.287966e+03 1.896316e+04
3.252985e+06 -4.159963e+03 1.402118e+04
3.264773e+06 -1.505192e+03 1.751771e+04
3.263029e+06 -5.986783e+03 -1.454271e+04
3.251951e+06 -3.900854e+03 1.261059e+04
3.262476e+06 -1.613205e+03 1.601200e+04
3.250969e+06 -3.643906e+03 1.127845e+04
3.260406e+06 -1.651812e+03 1.451754e+04
3.258778e+06 -5.824432e+03 -1.226218e+04
3.250040e+06 -3.398644e+03 1.003221e+04
3.258536e+06 -1.646033e+03 1.307655e+04
3.249172e+06 -3.169457e+03 8.872677e+03
3.256843e+06 -1.611965e+03 1.171197e+04
3.263265e+06 -3.612691e+03 -1.133639e+04
3.248373e+06 -2.957604e+03 7.796810e+03
3.255312e+06 -1.560270e+03 1.043415e+04
3.247651e+06 -2.762506e+03 6.799621e+03
3.253932e+06 -1.498102e+03 9.245481e+03
3.247014e+06 -2.582588e+03 5.875361e+03
3.252696e+06 -1.430233e+03 8.143652e+03
3.246468e+06 -2.415826e+03 5.018262e+03
3.251596e+06 -1.359775e+03 7.123802e+03
3.246015e+06 -2.260082e+03 4.222965e+03
3.250629e+06 -1.288687e+03 6.179962e+03
3.245659e+06 -2.113312e+03 3.484726e+03
3.249789e+06 -1.218122e+03 5.305960e+03
3.245398e+06 -1.973672e+03 2.799507e+03
3.249072e+06 -1.148694e+03 4.495947e+03
3.245232e+06 -1.839572e+03 2.163963e+03
3.248472e+06 -1.080657e+03 3.744688e+03
3.245159e+06 -1.709681e+03 1.575394e+03
3.247984e+06 -1.014047e+03 3.047675e+03
3.247304e+06 -2.746960e+03 -2.616599e+03
3.245174e+06 -1.582916e+03 1.031670e+03
3.247604e+06 -9.487697e+02 2.401149e+03
3.245273e+06 -1.458419e+03 5.311433e+02
3.247326e+06 -8.846658e+02 1.802053e+03
3.246743e+06 -2.369557e+03 -1.609141e+03
3.245452e+06 -1.335522e+03 7.256512e+01
3.247144e+06 -8.215527e+02 1.247960e+03
3.248270e+06 -1.612942e+03 -1.290499e+03
3.245705e+06 -1.213720e+03 -3.449895e+02
3.247053e+06 -7.592493e+02 7.369810e+02
3.246026e+06 -1.092643e+03 -7.221940e+02
3.247045e+06 -6.975917e+02 2.676770e+02
3.246408e+06 -9.720279e+02 -1.059531e+03
3.247116e+06 -6.364410e+02 -1.610261e+02
3.246847e+06 -8.517044e+02 -1.357346e+03
3.247258e+06 -5.756859e+02 -5.499124e+02
3.247465e+06 -5.152424e+02 -8.995453e+02
3.247730e+06 -4.550538e+02 -1.210323e+03
3.248429e+06 -4.918779e+02 -2.016003e+03
3.248048e+06 -3.950906e+02 -1.482531e+03
3.249023e+06 -3.724640e+02 -2.158001e+03
3.248410e+06 -3.353471e+02 -1.716385e+03
3.247793e+06 -1.046184e+03 9.946083e+02
3.249639e+06 -2.535817e+02 -2.261692e+03
3.248811e+06 -2.758434e+02 -1.912072e+03
3.250269e+06 -1.355450e+02 -2.327532e+03
3.249244e+06 -2.166256e+02 -2.069793e+03
3.249105e+06 -5.724761e+02 1.455507e+03
3.250906e+06 -1.881306e+01 -2.356179e+03
3.249701e+06 -1.577683e+02 -2.189807e+03
3.251542e+06 9.595280e+01 -2.348576e+03
3.250176e+06 -9.938148e+01 -2.272476e+03
3.250114e+06 -2.616825e+02 1.616315e+03
3.252168e+06 2.078128e+02 -2.306049e+03
3.250662e+06 -4.161660e+01 -2.318326e+03
3.250492e+06 -1.335465e+02 1.641627e+03
3.252775e+06 3.154320e+02 -2.230436e+03
3.251152e+06 1.531752e+01 -2.328114e+03
3.253354e+06 4.169190e+02 -2.124220e+03
3.251639e+06 7.112978e+01 -2.302910e+03
3.251164e+06 4.011422e+01 1.665652e+03
3.253892e+06 5.096170e+02 -1.990660e+03
3.252115e+06 1.254074e+02 -2.244196e+03
3.251686e+06 1.850651e+02 1.651209e+03
3.254380e+06 5.899035e+02 -1.833824e+03
3.252574e+06 1.775371e+02 -2.153975e+03
3.254805e+06 6.532969e+02 -1.658224e+03
3.253008e+06 2.265748e+02 -2.034872e+03
3.255160e+06 6.962477e+02 -1.467176e+03
3.253411e+06 2.710263e+02 -1.890189e+03
3.255441e+06 7.189654e+02 -1.262894e+03
3.253777e+06 3.085284e+02 -1.723796e+03
3.255654e+06 7.252155e+02 -1.048881e+03
3.254101e+06 3.357271e+02 -1.539685e+03
3.255804e+06 7.194406e+02 -8.296735e+02
3.254380e+06 3.508650e+02 -1.341594e+03
3.255897e+06 7.051758e+02 -6.093006e+02
3.254612e+06 3.560208e+02 -1.133286e+03
3.254830e+06 9.090416e+02 8.724863e+02
3.255938e+06 6.850016e+02 -3.909868e+02
3.254797e+06 3.545165e+02 -9.187821e+02
3.255934e+06 6.607514e+02 -1.771932e+02
3.254936e+06 3.486373e+02 -7.019369e+02
3.255159e+06 9.134298e+02 5.654928e+02
3.255888e+06 6.337172e+02 3.025179e+01
3.255031e+06 3.398291e+02 -4.860252e+02
3.254541e+06 6.421589e+02 4.680783e+02
3.255803e+06 6.048072e+02 2.300174e+02
3.255084e+06 3.290079e+02 -2.736511e+02
3.255682e+06 5.746592e+02 4.211520e+02
3.255096e+06 3.167715e+02 -6.680768e+01
3.255528e+06 5.437167e+02 6.029885e+02
3.255070e+06 3.035241e+02 1.330221e+02
3.255343e+06 5.122874e+02 7.750698e+02
3.255007e+06 2.895500e+02 3.247594e+02
3.254911e+06 2.750539e+02 5.076372e+02
3.254783e+06 2.601860e+02 6.811223e+02
3.254623e+06 4.168303e+02 1.230253e+03
3.254625e+06 2.450572e+02 8.448556e+02
3.254334e+06 3.849310e+02 1.361210e+03
3.254438e+06 2.297480e+02 9.986032e+02
3.254787e+06 6.555602e+02 -6.165135e+02
3.254024e+06 3.530632e+02 1.481699e+03
3.254226e+06 2.143172e+02 1.142220e+03
3.253695e+06 3.212406e+02 1.591714e+03
3.253989e+06 1.988067e+02 1.275625e+03
3.254120e+06 5.298794e+02 -9.548829e+02
3.253348e+06 2.894665e+02 1.691260e+03
3.253730e+06 1.832452e+02 1.398776e+03
3.252984e+06 2.577384e+02 1.780351e+03
3.253449e+06 1.676528e+02 1.511660e+03
3.253560e+06 4.455126e+02 -1.140613e+03
3.252606e+06 2.260499e+02 1.859005e+03
3.253150e+06 1.520414e+02 1.614281e+03
3.253105e+06 3.003604e+02 -1.163011e+03
3.252216e+06 1.943926e+02 1.927239e+03
3.252834e+06 1.364189e+02 1.706650e+03
3.251815e+06 1.627583e+02 1.985071e+03
3.252502e+06 1.207889e+02 1.788785e+03
3.251405e+06 1.311373e+02 2.032517e+03
3.252157e+06 1.051532e+02 1.860705e+03
3.250988e+06 9.952302e+01 2.069588e+03
3.251800e+06 8.951174e+01 1.922429e+03
3.250565e+06 6.790717e+01 2.096298e+03
3.251433e+06 7.386393e+01 1.973973e+03
3.250138e+06 3.628416e+01 2.112653e+03
3.251058e+06 5.820825e+01 2.015352e+03
3.251481e+06 1.934475e+02 -1.504378e+03
3.249710e+06 4.648736e+00 2.118663e+03
3.250677e+06 4.254377e+01 2.046578e+03
3.251096e+06 1.515849e+02 -1.536912e+03
3.249281e+06 -2.700237e+01 2.114333e+03
3.250291e+06 2.686933e+01 2.067660e+03
3.248854e+06 -5.866997e+01 2.099671e+03
3.249902e+06 1.118410e+01 2.078607e+03
3.248431e+06 -9.035322e+01 2.074684e+03
3.249512e+06 -4.511239e+00 2.079426e+03
3.249509e+06 -1.577271e+01 -1.587236e+03
3.248012e+06 -1.220467e+02 2.039385e+03
3.249123e+06 -2.021558e+01 2.070122e+03
3.247601e+06 -1.537397e+02 1.993790e+03
3.248736e+06 -3.592588e+01 2.050701e+03
3.248713e+06 -9.946002e+01 -1.564633e+03
3.247198e+06 -1.854148e+02 1.937929e+03
3.248354e+06 -5.163826e+01 2.021174e+03
3.248603e+06 -8.465365e+01 -1.524873e+03
3.246806e+06 -2.170425e+02 1.871844e+03
3.247978e+06 -6.734527e+01 1.981552e+03
3.246427e+06 -2.485798e+02 1.795598e+03
3.247610e+06 -8.303767e+01 1.931856e+03
3.246061e+06 -2.799630e+02 1.709286e+03
3.247251e+06 -9.870166e+01 1.872120e+03
3.245712e+06 -3.111009e+02 1.613045e+03
3.246905e+06 -1.143177e+02 1.802393e+03
3.245381e+06 -3.418611e+02 1.507070e+03
3.246571e+06 -1.298614e+02 1.722749e+03
3.245070e+06 -3.720575e+02 1.391633e+03
3.246253e+06 -1.452988e+02 1.633298e+03
3.245951e+06 -1.605856e+02 1.534199e+03
3.245669e+06 -1.756598e+02 1.425670e+03
3.244282e+06 -4.560324e+02 9.929974e+02
3.245407e+06 -1.904374e+02 1.308019e+03
3.244077e+06 -4.800137e+02 8.449349e+02
3.245167e+06 -2.047963e+02 1.181656e+03
3.245283e+06 -5.071991e+02 -9.859651e+02
3.243904e+06 -5.005814e+02 6.908315e+02
3.244952e+06 -2.185540e+02 1.047124e+03
3.244812e+06 -5.776963e+02 -7.862752e+02
3.243768e+06 -5.167390e+02 5.316296e+02
3.244763e+06 -2.314272e+02 9.051160e+02
3.244616e+06 -6.089271e+02 -6.785536e+02
3.243668e+06 -5.280769e+02 3.678820e+02
3.244602e+06 -2.429695e+02 7.564693e+02
3.244978e+06 -4.425690e+02 -6.148466e+02
3.243605e+06 -5.351593e+02 2.001954e+02
3.244470e+06 -2.524987e+02 6.021035e+02
3.243578e+06 -5.390118e+02 2.955987e+01
3.244369e+06 -2.593207e+02 4.429013e+02
3.243586e+06 -5.405486e+02 -1.430380e+02
3.244298e+06 -2.635173e+02 2.797022e+02
3.243628e+06 -5.404556e+02 -3.167806e+02
3.244259e+06 -2.658394e+02 1.134000e+02
3.243702e+06 -5.392266e+02 -4.910335e+02
3.244252e+06 -2.669185e+02 -5.509413e+01
3.243807e+06 -5.372096e+02 -6.653214e+02
3.244276e+06 -2.671625e+02 -2.249699e+02
3.243944e+06 -5.346513e+02 -8.392960e+02
3.244331e+06 -2.668294e+02 -3.955668e+02
3.244112e+06 -5.317242e+02 -1.012708e+03
3.244418e+06 -2.660850e+02 -5.663732e+02
3.244158e+06 -7.094049e+02 3.092553e+02
3.244310e+06 -5.285510e+02 -1.185380e+03
3.244535e+06 -2.650409e+02 -7.370041e+02
3.244245e+06 -7.084998e+02 4.418723e+02
3.244537e+06 -5.252161e+02 -1.357194e+03
3.244683e+06 -2.637744e+02 -9.071782e+02
3.244511e+06 -7.035371e+02 7.077347e+02
3.244795e+06 -5.217787e+02 -1.528067e+03
3.244861e+06 -2.623410e+02 -1.076693e+03
3.245082e+06 -5.182785e+02 -1.697951e+03
3.245069e+06 -2.607824e+02 -1.245410e+03
3.244899e+06 -6.961500e+02 9.725996e+02
3.245398e+06 -5.147418e+02 -1.866814e+03
3.245307e+06 -2.591288e+02 -1.413234e+03
3.245511e+06 -4.908873e+02 1.011546e+03
3.245743e+06 -5.111856e+02 -2.034640e+03
3.245575e+06 -2.574032e+02 -1.580102e+03
3.246118e+06 -5.076202e+02 -2.201423e+03
3.245872e+06 -2.556224e+02 -1.745979e+03
3.246521e+06 -5.040519e+02 -2.367165e+03
3.246199e+06 -2.537996e+02 -1.910843e+03
3.246952e+06 -5.004836e+02 -2.531869e+03
3.246554e+06 -2.519431e+02 -2.074685e+03
3.247413e+06 -4.969167e+02 -2.695542e+03
3.246939e+06 -2.500603e+02 -2.237504e+03
3.247901e+06 -4.933513e+02 -2.858192e+03
3.247352e+06 -2.481556e+02 -2.399302e+03
3.248418e+06 -4.897883e+02 -3.019829e+03
3.247794e+06 -2.462323e+02 -2.560087e+03
3.248962e+06 -4.862268e+02 -3.180461e+03
3.248264e+06 -2.442927e+02 -2.719867e+03
3.248763e+06 -2.423386e+02 -2.878650e+03
3.249290e+06 -2.403713e+02 -3.036446e+03
3.249133e+06 -6.467769e+02 2.378698e+03
3.250763e+06 -4.755534e+02 -3.656427e+03
3.249845e+06 -2.383910e+02 -3.193265e+03
3.251418e+06 -4.720013e+02 -3.813136e+03
3.250427e+06 -2.363986e+02 -3.349116e+03
3.252100e+06 -4.684530e+02 -3.968886e+03
3.251037e+06 -2.343942e+02 -3.504009e+03
3.251030e+06 -4.487961e+02 2.613754e+03
3.252810e+06 -4.649091e+02 -4.123687e+03
3.251675e+06 -2.323779e+02 -3.657953e+03
3.253546e+06 -4.613691e+02 -4.277544e+03
3.252340e+06 -2.303494e+02 -3.810957e+03
3.254309e+06 -4.578310e+02 -4.430462e+03
3.253032e+06 -2.283073e+02 -3.963031e+03
3.255099e+06 -4.542905e+02 -4.582443e+03
3.253752e+06 -2.262511e+02 -4.114181e+03
3.255915e+06 -4.507384e+02 -4.733480e+03
3.254498e+06 -2.241776e+02 -4.264416e+03
3.256757e+06 -4.471604e+02 -4.883559e+03
3.255271e+06 -2.220835e+02 -4.413737e+03
3.257626e+06 -4.435327e+02 -5.032653e+03
3.256070e+06 -2.199633e+02 -4.562145e+03
3.258520e+06 -4.398188e+02 -5.180712e+03
3.256896e+06 -2.178086e+02 -4.709630e+03
3.259441e+06 -4.359644e+02 -5.327661e+03
3.257749e+06 -2.156087e+02 -4.856175e+03
3.260387e+06 -4.318893e+02 -5.473385e+03
3.258627e+06 -2.133477e+02 -5.001744e+03
3.257605e+06 -5.932425e+02 3.807294e+03
3.261360e+06 -4.274781e+02 -5.617713e+03
3.259532e+06 -2.110046e+02 -5.146279e+03
3.258485e+06 -5.884999e+02 3.921431e+03
3.262359e+06 -4.225662e+02 -5.760403e+03
3.260462e+06 -2.085511e+02 -5.289689e+03
3.260323e+06 -5.781368e+02 4.146803e+03
3.263384e+06 -4.169175e+02 -5.901114e+03
3.261418e+06 -2.059484e+02 -5.431840e+03
3.261218e+06 -4.037343e+02 4.090933e+03
3.264436e+06 -4.101966e+02 -6.039376e+03
3.262401e+06 -2.031442e+02 -5.572535e+03
3.265516e+06 -4.019271e+02 -6.174559e+03
3.263408e+06 -2.000656e+02 -5.711500e+03
3.266624e+06 -3.914378e+02 -6.305835e+03
3.264442e+06 -1.966088e+02 -5.848355e+03
3.267761e+06 -3.778163e+02 -6.432179e+03
3.265501e+06 -1.926188e+02 -5.982589e+03
3.268929e+06 -3.599521e+02 -6.552475e+03
3.266586e+06 -1.878561e+02 -6.113535e+03
3.270128e+06 -3.370286e+02 -6.665935e+03
3.267696e+06 -1.819393e+02 -6.240359e+03
3.271355e+06 -3.092034e+02 -6.771995e+03
3.268831e+06 -1.742663e+02 -6.362091e+03
3.272609e+06 -2.774559e+02 -6.869735e+03
3.269990e+06 -1.640045e+02 -6.477737e+03
3.273885e+06 -2.428719e+02 -6.958023e+03
3.271173e+06 -1.508033e+02 -6.586370e+03
3.275181e+06 -2.063022e+02 -7.035868e+03
3.272377e+06 -1.352515e+02 -6.687041e+03
3.272287e+06 -3.862196e+02 5.205438e+03
3.273601e+06 -1.181580e+02 -6.778743e+03
3.274843e+06 -1.000684e+02 -6.860520e+03
3.274774e+06 -3.000835e+02 5.333845e+03
3.279154e+06 -9.002080e+01 -7.199714e+03
3.276100e+06 -8.132777e+01 -6.931565e+03
3.275082e+06 -3.737735e+02 2.172655e+03
3.280498e+06 -5.014008e+01 -7.229552e+03
3.277371e+06 -6.215651e+01 -6.991234e+03
3.281846e+06 -1.001270e+01 -7.246513e+03
3.278653e+06 -4.269958e+01 -7.039033e+03
3.283197e+06 3.025446e+01 -7.250419e+03
3.279943e+06 -2.305601e+01 -7.074589e+03
3.284548e+06 7.058804e+01 -7.241144e+03
3.281239e+06 -3.296158e+00 -7.097628e+03
3.285897e+06 1.109382e+02 -7.218595e+03
3.282539e+06 1.652906e+01 -7.107949e+03
3.287241e+06 1.512730e+02 -7.182707e+03
3.283840e+06 3.638216e+01 -7.105406e+03
3.288578e+06 1.915718e+02 -7.133433e+03
3.285140e+06 5.623589e+01 -7.089894e+03
3.289905e+06 2.318236e+02 -7.070737e+03
3.286436e+06 7.607050e+01 -7.061341e+03
3.291221e+06 2.720231e+02 -6.994591e+03
3.287727e+06 9.587187e+01 -7.019692e+03
3.292523e+06 3.121695e+02 -6.904975e+03
3.289010e+06 1.156308e+02 -6.964907e+03
3.293808e+06 3.522651e+02 -6.801868e+03
3.290282e+06 1.353420e+02 -6.896958e+03
3.290831e+06 4.023031e+02 3.689349e+03
3.295074e+06 3.923145e+02 -6.685252e+03
3.291541e+06 1.550019e+02 -6.815822e+03
3.290365e+06 3.227103e+02 5.353868e+03
3.296319e+06 4.323232e+02 -6.555111e+03
3.292784e+06 1.746099e+02 -6.721478e+03
3.291273e+06 3.604305e+02 3.548889e+03
3.297540e+06 4.722989e+02 -6.411425e+03
3.294010e+06 1.941668e+02 -6.613908e+03
3.298735e+06 5.122495e+02 -6.254177e+03
3.295216e+06 2.136750e+02 -6.493096e+03
3.299902e+06 5.521851e+02 -6.083347e+03
3.296400e+06 2.331375e+02 -6.359025e+03
3.301038e+06 5.921146e+02 -5.898914e+03
3.297558e+06 2.525580e+02 -6.211675e+03
3.302140e+06 6.320489e+02 -5.700857e+03
3.298689e+06 2.719414e+02 -6.051030e+03
3.303207e+06 6.719983e+02 -5.489153e+03
3.299791e+06 2.912926e+02 -5.877067e+03
3.304236e+06 7.119723e+02 -5.263782e+03
3.300860e+06 3.106161e+02 -5.689766e+03
3.305224e+06 7.519787e+02 -5.024726e+03
3.301895e+06 3.299167e+02 -5.489105e+03
3.306169e+06 7.920212e+02 -4.771970e+03
3.302893e+06 3.491983e+02 -5.275062e+03
3.307069e+06 8.320978e+02 -4.505511e+03
3.303851e+06 3.684636e+02 -5.047615e+03
3.307922e+06 8.721954e+02 -4.225360e+03
3.304768e+06 3.877127e+02 -4.806748e+03
3.305020e+06 1.015280e+03 3.712614e+03
3.308724e+06 9.122855e+02 -3.931554e+03
3.305640e+06 4.069434e+02 -4.552448e+03
3.309474e+06 9.523158e+02 -3.624166e+03
3.306466e+06 4.261485e+02 -4.284717e+03
3.306744e+06 1.122092e+03 3.302721e+03
3.307242e+06 4.453140e+02 -4.003573e+03
3.306330e+06 8.139118e+02 3.124855e+03
3.307967e+06 4.644179e+02 -3.709064e+03
3.311381e+06 1.070906e+03 -2.622208e+03
3.308637e+06 4.834259e+02 -3.401283e+03
3.311893e+06 1.109220e+03 -2.262723e+03
3.309251e+06 5.022878e+02 -3.080386e+03
3.308954e+06 1.281300e+03 2.609717e+03
3.312339e+06 1.146294e+03 -1.891457e+03
3.309806e+06 5.209325e+02 -2.746618e+03
3.312715e+06 1.181491e+03 -1.509371e+03
3.310298e+06 5.392609e+02 -2.400351e+03
3.313016e+06 1.213891e+03 -1.117802e+03
3.310727e+06 5.571344e+02 -2.042132e+03
3.313238e+06 1.242182e+03 -7.185734e+02
3.311088e+06 5.743588e+02 -1.672737e+03
3.313376e+06 1.264494e+03 -3.141065e+02
3.311380e+06 5.906559e+02 -1.293248e+03
3.313423e+06 1.278219e+03 9.250070e+01
3.311599e+06 6.056138e+02 -9.051404e+02
3.313374e+06 1.279934e+03 4.975923e+02
3.311742e+06 6.185990e+02 -5.103686e+02
3.312142e+06 1.629720e+03 3.740977e+02
3.313223e+06 1.266192e+03 8.978717e+02
3.311809e+06 6.286062e+02 -1.114378e+02
3.312971e+06 1.235847e+03 1.291374e+03
3.311796e+06 6.340189e+02 2.886168e+02
3.312197e+06 1.650767e+03 -2.236477e+02
3.312621e+06 1.191150e+03 1.675753e+03
3.311702e+06 6.323405e+02 6.864833e+02
3.312183e+06 1.135753e+03 2.047382e+03
3.311528e+06 6.212373e+02 1.078992e+03
3.310968e+06 1.172563e+03 -3.645064e+02
3.311663e+06 1.072784e+03 2.402782e+03
3.311275e+06 6.013058e+02 1.463097e+03
3.311071e+06 1.004555e+03 2.739122e+03
3.310946e+06 5.752828e+02 1.835553e+03
3.310413e+06 9.327034e+02 3.054228e+03
3.310544e+06 5.453090e+02 2.193105e+03
3.309697e+06 8.583761e+02 3.346492e+03
3.310074e+06 5.127333e+02 2.532912e+03
3.308929e+06 7.823721e+02 3.614748e+03
3.309540e+06 4.783928e+02 2.852692e+03
3.284557e+06 4.881312e+03 -1.738795e+04
3.292578e+06 2.535032e+04 -7.829320e+02
3.308114e+06 7.052474e+02 3.858171e+03
3.308948e+06 4.428174e+02 3.150696e+03
3.281223e+06 2.020316e+03 -2.058850e+04
3.291225e+06 2.296753e+04 -3.302006e+03
3.307257e+06 6.273855e+02 4.076190e+03
3.308303e+06 4.063549e+02 3.425624e+03
3.277206e+06 3.920675e+02 -2.127542e+04
3.306364e+06 5.490497e+02 4.268423e+03
3.307609e+06 3.692427e+02 3.676538e+03
3.272344e+06 -3.120147e+03 1.605951e+04
3.273309e+06 -5.242968e+02 -2.094978e+04
3.305440e+06 4.704161e+02 4.434622e+03
3.306872e+06 3.316474e+02 3.902778e+03
3.268706e+06 -4.859725e+03 1.608544e+04
3.270161e+06 -9.913728e+02 -2.015995e+04
3.304490e+06 3.916008e+02 4.574641e+03
3.306096e+06 2.936883e+02 4.103892e+03
3.306289e+06 7.725930e+02 -3.108140e+03
3.265655e+06 -5.687746e+03 1.549156e+04
3.267300e+06 -1.326429e+03 -1.892121e+04
3.303518e+06 3.126767e+02 4.688397e+03
3.305286e+06 2.554507e+02 4.279584e+03
3.302529e+06 2.336876e+02 4.775858e+03
3.304446e+06 2.169967e+02 4.429669e+03
3.304589e+06 5.653620e+02 -3.363499e+03
3.260781e+06 -6.010719e+03 1.345097e+04
3.262454e+06 -1.617464e+03 -1.599655e+04
3.301527e+06 1.546569e+02 4.837021e+03
3.303583e+06 1.783696e+02 4.554043e+03
3.303784e+06 3.641517e+02 -3.355772e+03
3.255439e+06 -5.233415e+03 9.929337e+03
3.258522e+06 -1.645340e+03 -1.307079e+04
3.302700e+06 1.396003e+02 4.652656e+03
3.256832e+06 -1.610989e+03 -1.170870e+04
3.301802e+06 1.007096e+02 4.725496e+03
3.254019e+06 -4.892942e+03 8.838802e+03
3.255303e+06 -1.559348e+03 -1.043253e+04
3.298493e+06 -8.262107e+01 4.862939e+03
3.300893e+06 6.171150e+01 4.772572e+03
3.252744e+06 -4.557181e+03 7.820319e+03
3.253925e+06 -1.497330e+03 -9.244949e+03
3.297488e+06 -1.617834e+02 4.819160e+03
3.299979e+06 2.261547e+01 4.793911e+03
3.300933e+06 1.477147e+02 -3.633462e+03
3.251604e+06 -4.237172e+03 6.877439e+03
3.252689e+06 -1.429619e+03 -8.143808e+03
3.296493e+06 -2.409913e+02 4.749228e+03
3.299063e+06 -1.657240e+01 4.789544e+03
3.250593e+06 -3.938074e+03 6.008885e+03
3.251591e+06 -1.359298e+03 -7.124371e+03
3.295513e+06 -3.202521e+02 4.653173e+03
3.298151e+06 -5.584716e+01 4.759506e+03
3.249705e+06 -3.661312e+03 5.210701e+03
3.250625e+06 -1.288320e+03 -6.180761e+03
3.294552e+06 -3.995730e+02 4.531018e+03
3.297247e+06 -9.520565e+01 4.703830e+03
3.248936e+06 -3.406069e+03 4.477677e+03
3.249785e+06 -1.217839e+03 -5.306865e+03
3.293616e+06 -4.789611e+02 4.382782e+03
3.296356e+06 -1.346442e+02 4.622550e+03
3.248283e+06 -3.170297e+03 3.804260e+03
3.249068e+06 -1.148472e+03 -4.496883e+03
3.292708e+06 -5.584215e+02 4.208478e+03
3.295482e+06 -1.741584e+02 4.515690e+03
3.247741e+06 -2.951392e+03 3.185104e+03
3.248468e+06 -1.080481e+03 -3.745610e+03
3.291833e+06 -6.379586e+02 4.008114e+03
3.294629e+06 -2.137432e+02 4.383272e+03
3.294489e+06 -5.845199e+02 -3.329105e+03
3.290995e+06 -7.175737e+02 3.781693e+03
3.293803e+06 -2.533921e+02 4.225310e+03
3.247602e+06 -9.486516e+02 -2.401982e+03
3.290200e+06 -7.972640e+02 3.529214e+03
3.293008e+06 -2.930961e+02 4.041815e+03
3.292816e+06 -7.941011e+02 -3.061101e+03
3.246608e+06 -2.192262e+03 1.164110e+03
3.247142e+06 -8.214662e+02 -1.248693e+03
3.289451e+06 -8.770207e+02 3.250676e+03
3.292248e+06 -3.328438e+02 3.832789e+03
3.246559e+06 -2.020705e+03 7.567000e+02
3.247051e+06 -7.591744e+02 -7.376700e+02
3.288753e+06 -9.568253e+02 2.946086e+03
3.291528e+06 -3.726198e+02 3.598231e+03
3.246593e+06 -1.853193e+03 3.840504e+02
3.247044e+06 -6.975265e+02 -2.683285e+02
3.288110e+06 -1.036644e+03 2.615460e+03
3.290853e+06 -4.124046e+02 3.338137e+03
3.291285e+06 -1.003991e+03 -2.712743e+03
3.246704e+06 -1.688630e+03 4.479125e+01
3.247114e+06 -6.363841e+02 1.604053e+02
3.287527e+06 -1.116422e+03 2.258840e+03
3.290226e+06 -4.521721e+02 3.052507e+03
3.246886e+06 -1.526177e+03 -2.621076e+02
3.247256e+06 -5.756363e+02 5.493177e+02
3.287008e+06 -1.196073e+03 1.876306e+03
3.289653e+06 -4.918886e+02 2.741344e+03
3.247133e+06 -1.365205e+03 -5.374133e+02
3.247464e+06 -5.151998e+02 8.989720e+02
3.286558e+06 -1.275464e+03 1.467999e+03
3.289138e+06 -5.315097e+02 2.404673e+03
3.247437e+06 -1.205272e+03 -7.816934e+02
3.247729e+06 -4.550186e+02 1.209768e+03
3.286182e+06 -1.354399e+03 1.034152e+03
3.288685e+06 -5.709777e+02 2.042544e+03
3.248195e+06 -8.875400e+02 -1.178817e+03
3.248047e+06 -3.950620e+02 1.481991e+03
3.285885e+06 -1.432590e+03 5.751308e+02
3.288299e+06 -6.102174e+02 1.655056e+03
3.248409e+06 -3.353260e+02 1.715859e+03
3.285671e+06 -1.509624e+03 9.148712e+01
3.287986e+06 -6.491306e+02 1.242380e+03
3.248635e+06 -7.295985e+02 -1.332323e+03
3.248811e+06 -2.758290e+02 1.911559e+03
3.285546e+06 -1.584913e+03 -4.159674e+02
3.287748e+06 -6.875907e+02 8.047946e+02
3.285517e+06 -1.657619e+03 -9.460671e+02
3.287592e+06 -7.254323e+02 3.427311e+02
3.287117e+06 -1.939119e+03 -1.598961e+02
3.249701e+06 -1.577675e+02 2.189323e+03
3.285590e+06 -1.726559e+03 -1.497172e+03
3.287521e+06 -7.624396e+02 -1.431667e+02
3.250637e+06 -1.091498e+02 -1.655118e+03
3.250663e+06 -4.162828e+01 2.317877e+03
3.285772e+06 -1.790052e+03 -2.067017e+03
3.287542e+06 -7.983272e+02 -6.519645e+02
3.287020e+06 -2.130304e+03 6.134349e+02
3.251685e+06 1.851501e+02 -1.651804e+03
3.251153e+06 1.530007e+01 2.327686e+03
3.286072e+06 -1.845718e+03 -2.652544e+03
3.287658e+06 -8.327076e+02 -1.182341e+03
3.288627e+06 -1.536719e+03 7.677666e+02
3.252194e+06 3.240551e+02 -1.613392e+03
3.251640e+06 7.110738e+01 2.302506e+03
3.286500e+06 -1.890220e+03 -3.249752e+03
3.287875e+06 -8.650366e+02 -1.732468e+03
3.252116e+06 1.253798e+02 2.243819e+03
3.287065e+06 -1.919039e+03 -3.853698e+03
3.288197e+06 -8.945158e+02 -2.299885e+03
3.252684e+06 4.547611e+02 -1.553197e+03
3.252575e+06 1.775037e+02 2.153626e+03
3.288631e+06 -9.199212e+02 -2.881373e+03
3.253145e+06 5.745795e+02 -1.473793e+03
3.253009e+06 2.265358e+02 2.034555e+03
3.289179e+06 -9.393183e+02 -3.472907e+03
3.253572e+06 6.803045e+02 -1.378028e+03
3.253412e+06 2.709816e+02 1.889907e+03
3.289659e+06 -1.869371e+03 -5.661017e+03
3.289845e+06 -9.496655e+02 -4.069836e+03
3.253957e+06 7.684916e+02 -1.268626e+03
3.253778e+06 3.084794e+02 1.723551e+03
3.290816e+06 -1.810355e+03 -6.250270e+03
3.290632e+06 -9.469218e+02 -4.667469e+03
3.289247e+06 -2.483157e+03 3.202654e+03
3.254297e+06 8.363374e+02 -1.147429e+03
3.254102e+06 3.356743e+02 1.539479e+03
3.292105e+06 -1.737928e+03 -6.824864e+03
3.291539e+06 -9.297921e+02 -5.261418e+03
3.254588e+06 8.828129e+02 -1.015174e+03
3.254381e+06 3.508105e+02 1.341426e+03
3.293514e+06 -1.656079e+03 -7.380207e+03
3.292564e+06 -9.014300e+02 -5.847159e+03
3.295033e+06 -1.567697e+03 -7.912674e+03
3.293705e+06 -8.656392e+02 -6.419907e+03
3.254799e+06 3.544608e+02 9.186861e+02
3.296653e+06 -1.474832e+03 -8.419516e+03
3.294956e+06 -8.249428e+02 -6.975203e+03
3.255250e+06 8.981434e+02 -4.066200e+02
3.255033e+06 3.397731e+02 4.859882e+02
3.298367e+06 -1.378933e+03 -8.898699e+03
3.296312e+06 -7.809387e+02 -7.509328e+03
3.295798e+06 -2.120317e+03 5.777142e+03
3.255297e+06 8.747798e+02 -2.475759e+02
3.255085e+06 3.289512e+02 2.736397e+02
3.300167e+06 -1.281023e+03 -9.348740e+03
3.297767e+06 -7.346547e+02 -8.019352e+03
3.255303e+06 8.455119e+02 -9.058282e+01
3.255097e+06 3.167145e+02 6.681898e+01
3.302046e+06 -1.181826e+03 -9.768574e+03
3.299316e+06 -6.867775e+02 -8.503046e+03
3.298858e+06 -1.890695e+03 6.542772e+03
3.255268e+06 8.119674e+02 6.265966e+01
3.255071e+06 3.034671e+02 -1.329910e+02
3.303998e+06 -1.081851e+03 -1.015744e+04
3.300953e+06 -6.377862e+02 -8.958758e+03
3.301020e+06 -1.284350e+03 6.580957e+03
3.255197e+06 7.753862e+02 2.108473e+02
3.255009e+06 2.894931e+02 -3.247114e+02
3.306017e+06 -9.814542e+02 -1.051481e+04
3.302671e+06 -5.880287e+02 -9.385281e+03
3.255092e+06 7.366965e+02 3.530088e+02
3.254912e+06 2.749982e+02 -5.075750e+02
3.308098e+06 -8.808805e+02 -1.084032e+04
3.304464e+06 -5.377652e+02 -9.781750e+03
3.302274e+06 -1.641925e+03 7.228580e+03
3.254954e+06 6.965826e+02 4.884392e+02
3.254784e+06 2.601316e+02 -6.810486e+02
3.310234e+06 -7.802965e+02 -1.113369e+04
3.306328e+06 -4.871928e+02 -1.014755e+04
3.304100e+06 -1.513663e+03 7.538095e+03
3.254589e+06 6.139199e+02 7.372765e+02
3.254626e+06 2.450043e+02 -8.447726e+02
3.312420e+06 -6.798123e+02 -1.139475e+04
3.308256e+06 -4.364625e+02 -1.048227e+04
3.254440e+06 2.296967e+02 -9.985132e+02
3.314650e+06 -5.794979e+02 -1.162338e+04
3.310243e+06 -3.856895e+02 -1.078559e+04
3.254366e+06 5.719667e+02 8.501191e+02
3.254227e+06 2.142678e+02 -1.142125e+03
3.316919e+06 -4.793958e+02 -1.181946e+04
3.312283e+06 -3.349617e+02 -1.105732e+04
3.319220e+06 -3.795289e+02 -1.198291e+04
3.314370e+06 -2.843464e+02 -1.129731e+04
3.253731e+06 1.831996e+02 -1.398675e+03
3.321549e+06 -2.799078e+02 -1.211368e+04
3.316499e+06 -2.338926e+02 -1.150545e+04
3.253249e+06 4.033283e+02 1.221531e+03
3.253151e+06 1.519993e+02 -1.614176e+03
3.323900e+06 -1.805331e+02 -1.221168e+04
3.318664e+06 -1.836379e+02 -1.168166e+04
3.252922e+06 3.612374e+02 1.294226e+03
3.252835e+06 1.363782e+02 -1.706544e+03
3.326267e+06 -8.140076e+01 -1.227684e+04
3.320859e+06 -1.336088e+02 -1.182586e+04
3.252580e+06 3.192055e+02 1.358858e+03
3.252503e+06 1.207497e+02 -1.788679e+03
3.328644e+06 1.749876e+01 -1.230909e+04
3.323079e+06 -8.382399e+01 -1.193800e+04
3.323008e+06 -3.341372e+02 9.227401e+03
3.252225e+06 2.772298e+02 1.415442e+03
3.252158e+06 1.051159e+02 -1.860599e+03
3.331026e+06 1.161771e+02 -1.230836e+04
3.325318e+06 -3.429609e+01 -1.201800e+04
3.251858e+06 2.353025e+02 1.463995e+03
3.251801e+06 8.947619e+01 -1.922323e+03
3.333406e+06 2.146484e+02 -1.227456e+04
3.327569e+06 1.496718e+01 -1.206579e+04
3.327563e+06 -7.259790e+01 9.327098e+03
3.251095e+06 1.515520e+02 1.537063e+03
3.251434e+06 7.382970e+01 -1.973867e+03
3.335779e+06 3.129286e+02 -1.220759e+04
3.329828e+06 6.396232e+01 -1.208130e+04
3.328748e+06 9.086158e+00 9.129716e+03
3.250704e+06 1.097079e+02 1.561606e+03
3.251059e+06 5.817575e+01 -2.015246e+03
3.338139e+06 4.110352e+02 -1.210737e+04
3.332089e+06 1.126888e+02 -1.206445e+04
3.250677e+06 4.251276e+01 -2.046472e+03
3.340480e+06 5.089867e+02 -1.197380e+04
3.334345e+06 1.611489e+02 -1.201515e+04
3.250307e+06 6.787222e+01 1.578169e+03
3.250291e+06 2.683992e+01 -2.067555e+03
3.336591e+06 2.093464e+02 -1.193331e+04
3.249908e+06 2.603767e+01 1.586760e+03
3.249902e+06 1.115631e+01 -2.078502e+03
3.338821e+06 2.572868e+02 -1.181884e+04
3.347331e+06 8.020756e+02 -1.137203e+04
3.341028e+06 3.049764e+02 -1.167163e+04
3.249123e+06 -2.024047e+01 -2.070017e+03
3.349536e+06 8.995504e+02 -1.110413e+04
3.343208e+06 3.524205e+02 -1.149160e+04
3.341213e+06 7.091109e+02 9.015230e+03
3.248320e+06 -1.413188e+02 1.541576e+03
3.248355e+06 -5.166012e+01 -2.021070e+03
3.351693e+06 9.969057e+02 -1.080248e+04
3.345353e+06 3.996236e+02 -1.127865e+04
3.247933e+06 -1.831229e+02 1.510457e+03
3.247979e+06 -6.736547e+01 -1.981450e+03
3.353795e+06 1.094105e+03 -1.046705e+04
3.347458e+06 4.465866e+02 -1.103268e+04
3.247555e+06 -2.248655e+02 1.471460e+03
3.247610e+06 -8.305626e+01 -1.931756e+03
3.355835e+06 1.191076e+03 -1.009791e+04
3.349516e+06 4.933055e+02 -1.075364e+04
3.247186e+06 -2.664974e+02 1.424630e+03
3.247252e+06 -9.871848e+01 -1.872021e+03
3.357808e+06 1.287695e+03 -9.695189e+03
3.351522e+06 5.397678e+02 -1.044149e+04
3.351866e+06 1.358614e+03 8.047681e+03
3.246829e+06 -3.079467e+02 1.370041e+03
3.246905e+06 -1.143333e+02 -1.802296e+03
3.359707e+06 1.383757e+03 -9.259151e+03
3.353470e+06 5.859490e+02 -1.009624e+04
3.246486e+06 -3.491118e+02 1.307795e+03
3.246571e+06 -1.298756e+02 -1.722656e+03
3.361525e+06 1.478949e+03 -8.790243e+03
3.355352e+06 6.318080e+02 -9.717963e+03
3.355758e+06 1.616551e+03 7.479960e+03
3.246157e+06 -3.898506e+02 1.238037e+03
3.246253e+06 -1.453120e+02 -1.633209e+03
3.363255e+06 1.572797e+03 -8.289163e+03
3.357163e+06 6.772807e+02 -9.306848e+03
3.355506e+06 1.195263e+03 7.168748e+03
3.245846e+06 -4.299704e+02 1.160970e+03
3.245951e+06 -1.605973e+02 -1.534113e+03
3.364890e+06 1.664607e+03 -7.756957e+03
3.358897e+06 7.222711e+02 -8.863225e+03
3.245554e+06 -4.692119e+02 1.076864e+03
3.245669e+06 -1.756707e+02 -1.425590e+03
3.366421e+06 1.753361e+03 -7.195138e+03
3.360547e+06 7.666401e+02 -8.387633e+03
3.245035e+06 -5.435956e+02 8.890580e+02
3.245407e+06 -1.904471e+02 -1.307945e+03
3.367840e+06 1.837587e+03 -6.605847e+03
3.362106e+06 8.101879e+02 -7.880895e+03
3.369137e+06 1.915155e+03 -5.992034e+03
3.363567e+06 8.526260e+02 -7.344222e+03
3.362632e+06 2.114905e+03 6.046852e+03
3.244812e+06 -5.777352e+02 7.863650e+02
3.370300e+06 1.983010e+03 -5.357664e+03
3.364925e+06 8.935308e+02 -6.779331e+03
3.364121e+06 2.230719e+03 5.631741e+03
3.244448e+06 -6.365160e+02 5.665134e+02
3.244602e+06 -2.429746e+02 -7.564242e+02
3.371317e+06 2.036864e+03 -4.707834e+03
3.366172e+06 9.322593e+02 -6.188594e+03
3.244311e+06 -6.596363e+02 4.505473e+02
3.244470e+06 -2.525032e+02 -6.020672e+02
3.372176e+06 2.071087e+03 -4.048548e+03
3.367302e+06 9.678007e+02 -5.575194e+03
3.244205e+06 -6.778822e+02 3.310028e+02
3.244369e+06 -2.593245e+02 -4.428741e+02
3.372868e+06 2.080262e+03 -3.385034e+03
3.368308e+06 9.985153e+02 -4.943240e+03
3.244131e+06 -6.913001e+02 2.080076e+02
3.244298e+06 -2.635216e+02 -2.796839e+02
3.373389e+06 2.063055e+03 -2.720486e+03
3.369186e+06 1.021721e+03 -4.297727e+03
3.244089e+06 -7.004096e+02 8.187990e+01
3.244259e+06 -2.658437e+02 -1.133897e+02
3.373747e+06 2.023534e+03 -2.059023e+03
3.369931e+06 1.033246e+03 -3.644082e+03
3.244080e+06 -7.059754e+02 -4.680800e+01
3.244252e+06 -2.669230e+02 5.509664e+01
3.373951e+06 1.967651e+03 -1.406695e+03
3.370540e+06 1.029579e+03 -2.987487e+03
3.371189e+06 2.670390e+03 2.357219e+03
3.244103e+06 -7.087635e+02 -1.773994e+02
3.244276e+06 -2.671672e+02 2.249656e+02
3.374013e+06 1.900340e+03 -7.691244e+02
3.371016e+06 1.012202e+03 -2.332992e+03
3.244245e+06 -7.085272e+02 -4.418992e+02
3.244331e+06 -2.668339e+02 3.955564e+02
3.373944e+06 1.825194e+03 -1.508349e+02
3.371359e+06 9.856660e+02 -1.685977e+03
3.371992e+06 2.589542e+03 1.387334e+03
3.244362e+06 -7.064602e+02 -5.748444e+02
3.244418e+06 -2.660899e+02 5.663571e+02
3.373755e+06 1.744741e+03 4.447272e+02
3.371573e+06 9.533217e+02 -1.051763e+03
3.370261e+06 1.812163e+03 1.095255e+03
3.244535e+06 -2.650457e+02 7.369831e+02
3.373452e+06 1.660736e+03 1.015017e+03
3.371664e+06 9.172462e+02 -4.349253e+02
3.373045e+06 1.574393e+03 1.558199e+03
3.371638e+06 8.787163e+02 1.608869e+02
3.244861e+06 -2.623467e+02 1.076665e+03
3.371500e+06 8.385350e+02 7.328942e+02
3.245138e+06 -6.919932e+02 -1.104276e+03
3.245307e+06 -2.591355e+02 1.413200e+03
3.371256e+06 7.972243e+02 1.279041e+03
3.245407e+06 -6.876410e+02 -1.235230e+03
3.245575e+06 -2.574105e+02 1.580066e+03
3.371264e+06 1.308442e+03 3.013963e+03
3.370913e+06 7.551367e+02 1.797844e+03
3.245705e+06 -6.831782e+02 -1.365452e+03
3.245872e+06 -2.556306e+02 1.745942e+03
3.370505e+06 1.218817e+03 3.439179e+03
3.370476e+06 7.125149e+02 2.288259e+03
3.371412e+06 2.015742e+03 -1.286925e+03
3.246033e+06 -6.786524e+02 -1.494903e+03
3.246199e+06 -2.538082e+02 1.910804e+03
3.369672e+06 1.129054e+03 3.833830e+03
3.369951e+06 6.695277e+02 2.749570e+03
3.246390e+06 -6.740939e+02 -1.623564e+03
3.246554e+06 -2.519523e+02 2.074646e+03
3.368771e+06 1.039246e+03 4.197775e+03
3.369344e+06 6.262925e+02 3.181303e+03
3.246776e+06 -6.695237e+02 -1.751424e+03
3.246939e+06 -2.500701e+02 2.237464e+03
3.367809e+06 9.494442e+02 4.530946e+03
3.368661e+06 5.828883e+02 3.583155e+03
3.247190e+06 -6.649541e+02 -1.878480e+03
3.247352e+06 -2.481660e+02 2.399262e+03
3.366790e+06 8.596692e+02 4.833323e+03
3.367906e+06 5.393666e+02 3.954949e+03
3.247633e+06 -6.603926e+02 -2.004735e+03
3.247794e+06 -2.462435e+02 2.560047e+03
3.365721e+06 7.699234e+02 5.104918e+03
3.367087e+06 4.957589e+02 4.296591e+03
3.367413e+06 1.309880e+03 -3.243240e+03
3.248105e+06 -6.558438e+02 -2.130195e+03
3.248265e+06 -2.443045e+02 2.719827e+03
3.364606e+06 6.801970e+02 5.345760e+03
3.366208e+06 4.520815e+02 4.608046e+03
3.250435e+06 -4.520838e+02 2.495065e+03
3.248604e+06 -6.513087e+02 -2.254865e+03
3.248763e+06 -2.423511e+02 2.878610e+03
3.363451e+06 5.904746e+02 5.555892e+03
3.365275e+06 4.083404e+02 4.889314e+03
3.365543e+06 1.071631e+03 -3.708616e+03
3.362262e+06 5.007370e+02 5.735360e+03
3.364294e+06 3.645350e+02 5.140422e+03
3.364329e+06 7.176060e+02 -3.746735e+03
3.361044e+06 4.109644e+02 5.884212e+03
3.363270e+06 3.206598e+02 5.361406e+03
3.250883e+06 -6.333255e+02 -2.745841e+03
3.251038e+06 -2.344089e+02 3.503969e+03
3.359802e+06 3.211370e+02 6.002496e+03
3.362208e+06 2.767071e+02 5.552313e+03
3.251522e+06 -6.288696e+02 -2.866704e+03
3.251676e+06 -2.323931e+02 3.657913e+03
3.358543e+06 2.312366e+02 6.090257e+03
3.361115e+06 2.326675e+02 5.713192e+03
3.252188e+06 -6.244301e+02 -2.986831e+03
3.252341e+06 -2.303651e+02 3.810917e+03
3.357271e+06 1.412459e+02 6.147536e+03
3.359995e+06 1.885318e+02 5.844089e+03
3.252882e+06 -6.200053e+02 -3.106231e+03
3.253033e+06 -2.283239e+02 3.962990e+03
3.355992e+06 5.115014e+01 6.174372e+03
3.358855e+06 1.442917e+02 5.945052e+03
3.360117e+06 4.764887e+02 -4.458534e+03
3.253602e+06 -6.155925e+02 -3.224909e+03
3.253752e+06 -2.262680e+02 4.114141e+03
3.354711e+06 -3.906384e+01 6.170799e+03
3.357699e+06 9.993979e+01 6.016123e+03
3.358948e+06 3.574786e+02 -4.537860e+03
3.254350e+06 -6.111852e+02 -3.342868e+03
3.254498e+06 -2.241951e+02 4.264374e+03
3.353434e+06 -1.294052e+02 6.136849e+03
3.356533e+06 5.547057e+01 6.057342e+03
3.255124e+06 -6.067731e+02 -3.460107e+03
3.255271e+06 -2.221015e+02 4.413695e+03
3.352165e+06 -2.198803e+02 6.072550e+03
3.355363e+06 1.088086e+01 6.068742e+03
3.255924e+06 -6.023377e+02 -3.576617e+03
3.256071e+06 -2.199817e+02 4.562102e+03
3.350911e+06 -3.104888e+02 5.977935e+03
3.354194e+06 -3.382939e+01 6.050356e+03
3.256751e+06 -5.978511e+02 -3.692379e+03
3.256897e+06 -2.178273e+02 4.709586e+03
3.349677e+06 -4.012228e+02 5.853039e+03
3.353031e+06 -7.865681e+01 6.002212e+03
3.352978e+06 -2.385346e+02 -4.582915e+03
3.258484e+06 -5.885299e+02 -3.921498e+03
3.257749e+06 -2.156278e+02 4.856129e+03
3.348468e+06 -4.920611e+02 5.697907e+03
3.351880e+06 -1.235938e+02 5.924339e+03
3.347290e+06 -5.829647e+02 5.512605e+03
3.350747e+06 -1.686270e+02 5.816764e+03
3.350634e+06 -4.775714e+02 -4.437326e+03
3.259390e+06 -5.835410e+02 -4.034714e+03
3.346147e+06 -6.738684e+02 5.297230e+03
3.349636e+06 -2.137360e+02 5.679525e+03
3.350452e+06 -3.763187e+02 -4.307804e+03
3.261280e+06 -5.722545e+02 -4.257813e+03
3.261419e+06 -2.059704e+02 5.431781e+03
3.345045e+06 -7.646687e+02 5.051932e+03
3.348553e+06 -2.588911e+02 5.512672e+03
3.262264e+06 -5.655423e+02 -4.367269e+03
3.262401e+06 -2.031673e+02 5.572471e+03
3.343990e+06 -8.552092e+02 4.776932e+03
3.347503e+06 -3.040510e+02 5.316277e+03
3.263274e+06 -5.577198e+02 -4.474914e+03
3.263409e+06 -2.000901e+02 5.711431e+03
3.342987e+06 -9.452574e+02 4.472564e+03
3.346492e+06 -3.491596e+02 5.090454e+03
3.264310e+06 -5.483698e+02 -4.580314e+03
3.264443e+06 -1.966344e+02 5.848279e+03
3.345525e+06 -3.941413e+02 4.835375e+03
3.265373e+06 -5.369546e+02 -4.682925e+03
3.265502e+06 -1.926454e+02 5.982506e+03
3.344608e+06 -4.388955e+02 4.551300e+03
3.266461e+06 -5.228018e+02 -4.782099e+03
3.266587e+06 -1.878834e+02 6.113445e+03
3.340351e+06 -1.208281e+03 3.389290e+03
3.343745e+06 -4.832890e+02 4.238617e+03
3.267576e+06 -5.051131e+02 -4.877123e+03
3.267697e+06 -1.819677e+02 6.240261e+03
3.339618e+06 -1.291190e+03 2.974909e+03
3.342944e+06 -5.271460e+02 3.897889e+03
3.343428e+06 -1.307712e+03 -3.202147e+03
3.268717e+06 -4.830415e+02 -4.967328e+03
3.268832e+06 -1.742960e+02 6.361983e+03
3.338971e+06 -1.369705e+03 2.536670e+03
3.342208e+06 -5.702309e+02 3.529922e+03
3.269883e+06 -4.559233e+02 -5.052274e+03
3.269991e+06 -1.640357e+02 6.477620e+03
3.338417e+06 -1.441832e+03 2.077164e+03
3.341544e+06 -6.122211e+02 3.135847e+03
3.271073e+06 -4.235555e+02 -5.131787e+03
3.271174e+06 -1.508365e+02 6.586243e+03
3.337967e+06 -1.504765e+03 1.599771e+03
3.340958e+06 -6.526602e+02 2.717216e+03
3.337630e+06 -1.554707e+03 1.108647e+03
3.340454e+06 -6.908741e+02 2.276118e+03
3.340011e+06 -1.831165e+03 -1.692684e+03
3.273602e+06 -1.181958e+02 6.778599e+03
3.337416e+06 -1.587220e+03 6.081340e+02
3.340040e+06 -7.258208e+02 1.815275e+03
3.277324e+06 -2.037633e+02 -5.432157e+03
3.276101e+06 -8.137017e+01 6.931407e+03
3.337329e+06 -1.599559e+03 1.010218e+02
3.339718e+06 -7.558435e+02 1.338079e+03
3.339241e+06 -1.978321e+03 -9.884392e+02
3.277372e+06 -6.220135e+01 6.991070e+03
3.337369e+06 -1.593104e+03 -4.103634e+02
3.339494e+06 -7.783272e+02 8.484211e+02
3.340562e+06 -1.425367e+03 -8.015760e+02
3.278618e+06 -1.532388e+02 -5.468311e+03
3.278654e+06 -4.274678e+01 7.038864e+03
3.337529e+06 -1.572026e+03 -9.220946e+02
3.339371e+06 -7.899290e+02 3.501821e+02
3.279921e+06 -1.017227e+02 -5.495274e+03
3.279944e+06 -2.310552e+01 7.074416e+03
3.337803e+06 -1.540460e+03 -1.429824e+03
3.339349e+06 -7.899101e+02 -1.530040e+02
3.281230e+06 -4.951278e+01 -5.512719e+03
3.281240e+06 -3.348148e+00 7.097451e+03
3.338182e+06 -1.501553e+03 -1.929889e+03
3.339429e+06 -7.810950e+02 -6.573583e+02
3.282542e+06 3.168436e+00 -5.520401e+03
3.282540e+06 1.647444e+01 7.107768e+03
3.338659e+06 -1.457558e+03 -2.419443e+03
3.339610e+06 -7.665014e+02 -1.158939e+03
3.283856e+06 5.615683e+01 -5.518138e+03
3.283841e+06 3.632481e+01 7.105222e+03
3.339231e+06 -1.410063e+03 -2.896359e+03
3.339888e+06 -7.480801e+02 -1.654147e+03
3.285169e+06 1.093352e+02 -5.505798e+03
3.285141e+06 5.617561e+01 7.089709e+03
3.339890e+06 -1.360179e+03 -3.359092e+03
3.340260e+06 -7.270498e+02 -2.140031e+03
3.339404e+06 -1.987592e+03 1.248847e+03
3.286479e+06 1.626200e+02 -5.483287e+03
3.286438e+06 7.600759e+01 7.061154e+03
3.340633e+06 -1.308689e+03 -3.806535e+03
3.340724e+06 -7.041859e+02 -2.614305e+03
3.339788e+06 -1.939562e+03 1.621289e+03
3.287783e+06 2.159548e+02 -5.450538e+03
3.287729e+06 9.580626e+01 7.019504e+03
3.341455e+06 -1.256139e+03 -4.237917e+03
3.341276e+06 -6.800015e+02 -3.075255e+03
3.289078e+06 2.693024e+02 -5.407501e+03
3.289011e+06 1.155625e+02 6.964719e+03
3.342354e+06 -1.202910e+03 -4.652706e+03
3.341912e+06 -6.548532e+02 -3.521635e+03
3.343326e+06 -1.149267e+03 -5.050551e+03
3.342629e+06 -6.289975e+02 -3.952558e+03
3.291635e+06 3.759535e+02 -5.290439e+03
3.291543e+06 1.549279e+02 6.815633e+03
3.344367e+06 -1.095389e+03 -5.431222e+03
3.343423e+06 -6.026251e+02 -4.367410e+03
3.343027e+06 -1.626922e+03 3.352753e+03
3.294131e+06 4.824982e+02 -5.131916e+03
3.294012e+06 1.940874e+02 6.613719e+03
3.345474e+06 -1.041398e+03 -5.794577e+03
3.344292e+06 -5.758790e+02 -4.765774e+03
3.295350e+06 5.357330e+02 -5.037066e+03
3.295218e+06 2.135928e+02 6.492907e+03
3.346645e+06 -9.873717e+02 -6.140535e+03
3.345233e+06 -5.488687e+02 -5.147377e+03
3.344872e+06 -1.488127e+03 3.963934e+03
3.296546e+06 5.889503e+02 -4.931803e+03
3.296402e+06 2.330524e+02 6.358835e+03
3.347875e+06 -9.333596e+02 -6.469050e+03
3.346242e+06 -5.216770e+02 -5.512049e+03
3.346421e+06 -1.023640e+03 4.022254e+03
3.297717e+06 6.421586e+02 -4.816113e+03
3.297560e+06 2.524703e+02 6.211486e+03
3.349163e+06 -8.793924e+02 -6.780100e+03
3.347316e+06 -4.943670e+02 -5.859689e+03
3.298861e+06 6.953681e+02 -4.689980e+03
3.298692e+06 2.718511e+02 6.050840e+03
3.350506e+06 -8.254871e+02 -7.073677e+03
3.348452e+06 -4.669868e+02 -6.190241e+03
3.299976e+06 7.485896e+02 -4.553386e+03
3.299793e+06 2.911993e+02 5.876878e+03
3.351899e+06 -7.716521e+02 -7.349779e+03
3.349647e+06 -4.395729e+02 -6.503677e+03
3.301058e+06 8.018336e+02 -4.406312e+03
3.300863e+06 3.105204e+02 5.689577e+03
3.353341e+06 -7.178917e+02 -7.608404e+03
3.350898e+06 -4.121532e+02 -6.799987e+03
3.302106e+06 8.551098e+02 -4.248742e+03
3.301898e+06 3.298180e+02 5.488916e+03
3.352202e+06 -3.847486e+02 -7.079169e+03
3.303117e+06 9.084258e+02 -4.080656e+03
3.302896e+06 3.490968e+02 5.274874e+03
3.353556e+06 -3.573760e+02 -7.341224e+03
3.304088e+06 9.617839e+02 -3.902041e+03
3.303854e+06 3.683592e+02 5.047428e+03
3.357927e+06 -5.570564e+02 -8.279379e+03
3.354956e+06 -3.300486e+02 -7.586152e+03
3.359531e+06 -5.035882e+02 -8.468037e+03
3.356401e+06 -3.027769e+02 -7.813949e+03
3.354736e+06 -9.247273e+02 5.877395e+03
3.305643e+06 4.068335e+02 4.552263e+03
3.361169e+06 -4.501891e+02 -8.639166e+03
3.357886e+06 -2.755690e+02 -8.024609e+03
3.307530e+06 1.175304e+03 -3.082315e+03
3.307245e+06 4.451981e+02 4.003393e+03
3.362837e+06 -3.968572e+02 -8.792743e+03
3.359410e+06 -2.484326e+02 -8.218121e+03
3.308268e+06 1.228431e+03 -2.851259e+03
3.307970e+06 4.642990e+02 3.708890e+03
3.364532e+06 -3.435910e+02 -8.928742e+03
3.360967e+06 -2.213739e+02 -8.394467e+03
3.360816e+06 -6.441894e+02 6.510923e+03
3.309578e+06 1.333396e+03 -2.358677e+03
3.308640e+06 4.833041e+02 3.401115e+03
3.366251e+06 -2.903899e+02 -9.047131e+03
3.362556e+06 -1.943984e+02 -8.553626e+03
3.309254e+06 5.021636e+02 3.080226e+03
3.367990e+06 -2.372536e+02 -9.147878e+03
3.364174e+06 -1.675116e+02 -8.695574e+03
3.364058e+06 -5.042412e+02 6.746677e+03
3.310145e+06 1.384651e+03 -2.097727e+03
3.309809e+06 5.208062e+02 2.746468e+03
3.369747e+06 -1.841839e+02 -9.230950e+03
3.365817e+06 -1.407180e+02 -8.820281e+03
3.365237e+06 -3.245020e+02 6.641455e+03
3.310650e+06 1.434492e+03 -1.827619e+03
3.310302e+06 5.391327e+02 2.400214e+03
3.371519e+06 -1.311843e+02 -9.296315e+03
3.367482e+06 -1.140228e+02 -8.927716e+03
3.311090e+06 1.482254e+03 -1.549052e+03
3.310730e+06 5.570045e+02 2.042009e+03
3.373302e+06 -7.826168e+01 -9.343943e+03
3.369167e+06 -8.743108e+01 -9.017845e+03
3.311461e+06 1.527038e+03 -1.262980e+03
3.311092e+06 5.742275e+02 1.672630e+03
3.375092e+06 -2.542942e+01 -9.373814e+03
3.370867e+06 -6.094920e+01 -9.090635e+03
3.311762e+06 1.567650e+03 -9.706675e+02
3.311383e+06 5.905235e+02 1.293161e+03
3.376888e+06 2.729154e+01 -9.385917e+03
3.372580e+06 -3.458414e+01 -9.146053e+03
3.311989e+06 1.602530e+03 -6.737337e+02
3.311602e+06 6.054801e+02 9.050742e+02
3.378686e+06 7.986673e+01 -9.380262e+03
3.374302e+06 -8.344511e+00 -9.184074e+03
3.380482e+06 1.322443e+02 -9.356886e+03
3.376031e+06 1.775722e+01 -9.204679e+03
3.374290e+06 -8.539585e+01 7.128225e+03
3.312207e+06 1.646686e+03 -7.425092e+01
3.311812e+06 6.284700e+02 1.114204e+02
3.382273e+06 1.843461e+02 -9.315867e+03
3.377763e+06 4.370602e+01 -9.207864e+03
3.376036e+06 -1.584749e+01 7.144155e+03
3.311915e+06 1.610842e+03 8.069047e+02
3.311705e+06 6.322027e+02 -6.864425e+02
3.384056e+06 2.360566e+02 -9.257342e+03
3.379495e+06 6.948032e+01 -9.193648e+03
3.311531e+06 6.211004e+02 -1.078921e+03
3.385826e+06 2.872076e+02 -9.181526e+03
3.381224e+06 9.505290e+01 -9.162085e+03
3.311653e+06 1.565746e+03 1.090805e+03
3.311278e+06 6.011706e+02 -1.462997e+03
3.387581e+06 3.375560e+02 -9.088746e+03
3.382946e+06 1.203851e+02 -9.113273e+03
3.311311e+06 1.505980e+03 1.368118e+03
3.310949e+06 5.751505e+02 -1.835425e+03
3.389317e+06 3.867502e+02 -8.979475e+03
3.384658e+06 1.454250e+02 -9.047376e+03
3.384746e+06 3.268035e+02 7.021684e+03
3.310893e+06 1.434298e+03 1.636711e+03
3.310547e+06 5.451795e+02 -2.192951e+03
3.391029e+06 4.342823e+02 -8.854376e+03
3.386356e+06 1.701002e+02 -8.964651e+03
3.310404e+06 1.353377e+03 1.894222e+03
3.310077e+06 5.126066e+02 -2.532736e+03
3.392712e+06 4.794249e+02 -8.714352e+03
3.388038e+06 1.943068e+02 -8.865469e+03
3.388158e+06 4.574931e+02 6.881990e+03
3.309850e+06 1.265491e+03 2.138469e+03
3.309544e+06 4.782685e+02 -2.852496e+03
3.394363e+06 5.211574e+02 -8.560573e+03
3.389700e+06 2.178888e+02 -8.750359e+03
3.388663e+06 3.531823e+02 6.681733e+03
3.309236e+06 1.172462e+03 2.367612e+03
3.308952e+06 4.426956e+02 -3.150481e+03
3.395975e+06 5.581533e+02 -8.394409e+03
3.391338e+06 2.406029e+02 -8.620037e+03
3.308567e+06 1.075706e+03 2.580178e+03
3.308306e+06 4.062361e+02 -3.425393e+03
3.397546e+06 5.892035e+02 -8.216997e+03
3.392950e+06 2.620552e+02 -8.475442e+03
3.307849e+06 9.762963e+02 2.775040e+03
3.307612e+06 3.691273e+02 -3.676293e+03
3.399073e+06 6.141271e+02 -8.029042e+03
3.394531e+06 2.815990e+02 -8.317713e+03
3.307087e+06 8.750377e+02 2.951359e+03
3.306875e+06 3.315354e+02 -3.902521e+03
3.400556e+06 6.339566e+02 -7.831532e+03
3.396080e+06 2.982410e+02 -8.148082e+03
3.397593e+06 3.112464e+02 -7.967719e+03
3.305288e+06 2.553464e+02 -4.279309e+03
3.399070e+06 3.210763e+02 -7.777779e+03
3.303698e+06 4.610751e+02 3.461650e+03
3.303585e+06 1.782739e+02 -4.553758e+03
3.404744e+06 6.753587e+02 -7.194839e+03
3.400509e+06 3.287988e+02 -7.579497e+03
3.302789e+06 3.566778e+02 3.539257e+03
3.302702e+06 1.395089e+02 -4.652367e+03
3.406055e+06 6.859058e+02 -6.971258e+03
3.401908e+06 3.351691e+02 -7.374076e+03
3.400718e+06 8.264443e+02 5.914736e+03
3.301865e+06 2.521819e+02 3.596677e+03
3.301804e+06 1.006226e+02 -4.725204e+03
3.407323e+06 6.956452e+02 -6.743112e+03
3.403268e+06 3.406565e+02 -7.162544e+03
3.299991e+06 4.308068e+01 3.650891e+03
3.300895e+06 6.162893e+01 -4.772279e+03
3.408549e+06 7.048541e+02 -6.510803e+03
3.404587e+06 3.455529e+02 -6.945710e+03
3.299981e+06 2.253731e+01 -4.793616e+03
3.409733e+06 7.137251e+02 -6.274615e+03
3.405864e+06 3.500461e+02 -6.724187e+03
3.299050e+06 -6.148451e+01 3.647699e+03
3.299065e+06 -1.664596e+01 -4.789248e+03
3.410873e+06 7.223913e+02 -6.034745e+03
3.407100e+06 3.542615e+02 -6.498427e+03
3.407331e+06 9.147008e+02 5.078814e+03
3.298112e+06 -1.660548e+02 3.624333e+03
3.298153e+06 -5.591681e+01 -4.759209e+03
3.411970e+06 7.309434e+02 -5.791327e+03
3.408294e+06 3.582873e+02 -6.268754e+03
3.297183e+06 -2.706369e+02 3.580815e+03
3.297249e+06 -9.527099e+01 -4.703533e+03
3.413022e+06 7.394431e+02 -5.544449e+03
3.409445e+06 3.621868e+02 -6.035395e+03
3.409682e+06 9.404531e+02 4.716811e+03
3.296266e+06 -3.752411e+02 3.517165e+03
3.296357e+06 -1.347050e+02 -4.622252e+03
3.414029e+06 7.479302e+02 -5.294168e+03
3.410552e+06 3.660059e+02 -5.798507e+03
3.409575e+06 6.719165e+02 4.509597e+03
3.295366e+06 -4.798807e+02 3.433401e+03
3.295483e+06 -1.742148e+02 -4.515392e+03
3.414991e+06 7.564305e+02 -5.040520e+03
3.411616e+06 3.697793e+02 -5.558195e+03
3.415906e+06 7.649602e+02 -4.783527e+03
3.412634e+06 3.735318e+02 -5.314526e+03
3.293805e+06 -2.534401e+02 -4.225012e+03
3.416775e+06 7.735284e+02 -4.523199e+03
3.413607e+06 3.772822e+02 -5.067542e+03
3.291284e+06 -1.004028e+03 2.713173e+03
3.292249e+06 -3.328826e+02 -3.832490e+03
3.417596e+06 7.821398e+02 -4.259545e+03
3.414535e+06 3.810440e+02 -4.817271e+03
3.290582e+06 -1.109078e+03 2.508861e+03
3.291529e+06 -3.726543e+02 -3.597933e+03
3.418368e+06 7.907965e+02 -3.992568e+03
3.415415e+06 3.848275e+02 -4.563725e+03
3.414785e+06 9.999681e+02 3.762230e+03
3.290854e+06 -4.124344e+02 -3.337840e+03
3.419092e+06 7.995001e+02 -3.722272e+03
3.416248e+06 3.886394e+02 -4.306915e+03
3.415669e+06 1.011718e+03 3.563470e+03
3.289930e+06 -1.214168e+03 2.284472e+03
3.290227e+06 -4.521972e+02 -3.052212e+03
3.419766e+06 8.082504e+02 -3.448657e+03
3.417034e+06 3.924854e+02 -4.046843e+03
3.289331e+06 -1.319243e+03 2.040031e+03
3.289653e+06 -4.919089e+02 -2.741053e+03
3.420390e+06 8.170475e+02 -3.171728e+03
3.417770e+06 3.963695e+02 -3.783514e+03
3.288790e+06 -1.424212e+03 1.775596e+03
3.289138e+06 -5.315254e+02 -2.404386e+03
3.420963e+06 8.258921e+02 -2.891488e+03
3.418458e+06 4.002948e+02 -3.516929e+03
3.288311e+06 -1.528930e+03 1.491268e+03
3.288685e+06 -5.709887e+02 -2.042263e+03
3.421484e+06 8.347846e+02 -2.607940e+03
3.419095e+06 4.042638e+02 -3.247090e+03
3.287900e+06 -1.633179e+03 1.187220e+03
3.288300e+06 -6.102235e+02 -1.654784e+03
3.421954e+06 8.437264e+02 -2.321088e+03
3.419682e+06 4.082787e+02 -2.974001e+03
3.419953e+06 1.082940e+03 2.317516e+03
3.287561e+06 -1.736641e+03 8.637246e+02
3.287986e+06 -6.491327e+02 -1.242119e+03
3.422370e+06 8.527194e+02 -2.030939e+03
3.420218e+06 4.123414e+02 -2.697664e+03
3.287298e+06 -1.838857e+03 5.211963e+02
3.287748e+06 -6.875887e+02 -8.045482e+02
3.422734e+06 8.617654e+02 -1.737496e+03
3.420701e+06 4.164538e+02 -2.418085e+03
3.420978e+06 1.107010e+03 1.881896e+03
3.423043e+06 8.708667e+02 -1.440767e+03
3.421133e+06 4.206177e+02 -2.135267e+03
3.420411e+06 7.870594e+02 1.729774e+03
3.287521e+06 -7.624313e+02 1.433749e+02
3.423298e+06 8.800261e+02 -1.140758e+03
3.421511e+06 4.248344e+02 -1.849215e+03
3.287116e+06 -2.218522e+03 -1.022791e+03
3.287657e+06 -8.326943e+02 1.182497e+03
3.423497e+06 8.892442e+02 -8.374772e+02
3.421836e+06 4.291054e+02 -1.559936e+03
3.287314e+06 -2.299063e+03 -1.445099e+03
3.287874e+06 -8.650214e+02 1.732593e+03
3.423641e+06 8.985218e+02 -5.309356e+02
3.422106e+06 4.334317e+02 -1.267436e+03
3.287621e+06 -2.369376e+03 -1.877449e+03
3.288197e+06 -8.944987e+02 2.299975e+03
3.422322e+06 4.378140e+02 -9.717221e+02
3.288043e+06 -2.426156e+03 -2.316723e+03
3.288630e+06 -9.199020e+02 2.881425e+03
3.422482e+06 4.422513e+02 -6.728028e+02
3.288584e+06 -2.465500e+03 -2.759518e+03
3.289178e+06 -9.392968e+02 3.472918e+03
3.423731e+06 9.266616e+02 4.080726e+02
3.422586e+06 4.467426e+02 -3.706900e+02
3.290037e+06 -2.476572e+03 -3.644340e+03
3.289845e+06 -9.496430e+02 4.069802e+03
3.423646e+06 9.360966e+02 7.274283e+02
3.422633e+06 4.512840e+02 -6.540045e+01
3.290631e+06 -9.469000e+02 4.667388e+03
3.423502e+06 9.455082e+02 1.049864e+03
3.422623e+06 4.558693e+02 2.430419e+02
3.422933e+06 1.204986e+03 3.832798e+01
3.290951e+06 -2.444491e+03 -4.083697e+03
3.291538e+06 -9.297728e+02 5.261292e+03
3.423299e+06 9.548383e+02 1.375280e+03
3.422555e+06 4.604890e+02 5.546007e+02
3.422926e+06 1.217340e+03 -2.033443e+02
3.291988e+06 -2.389013e+03 -4.519599e+03
3.292564e+06 -9.014143e+02 5.846989e+03
3.423035e+06 9.640002e+02 1.703531e+03
3.422428e+06 4.651289e+02 8.692226e+02
3.293146e+06 -2.313851e+03 -4.949458e+03
3.293704e+06 -8.656279e+02 6.419698e+03
3.422711e+06 9.728652e+02 2.034407e+03
3.422242e+06 4.697682e+02 1.186828e+03
3.422555e+06 1.253783e+03 -9.424560e+02
3.294418e+06 -2.223106e+03 -5.369895e+03
3.294955e+06 -8.249361e+02 6.974958e+03
3.422324e+06 9.812464e+02 2.367615e+03
3.421997e+06 4.743777e+02 1.507300e+03
3.421875e+06 9.888721e+02 2.702741e+03
3.421691e+06 4.789159e+02 1.830471e+03
3.422010e+06 1.276441e+03 -1.445729e+03
3.297767e+06 -7.346563e+02 8.019046e+03
3.421362e+06 9.953502e+02 3.039220e+03
3.421325e+06 4.833258e+02 2.156102e+03
3.420921e+06 9.056888e+02 -1.529477e+03
3.300525e+06 -1.768042e+03 -6.896972e+03
3.300953e+06 -6.377966e+02 8.958404e+03
3.420784e+06 1.000117e+03 3.376286e+03
3.420897e+06 4.875249e+02 2.483858e+03
3.304100e+06 -1.513734e+03 -7.538669e+03
3.302671e+06 -5.880447e+02 9.384908e+03
3.420139e+06 1.002369e+03 3.712944e+03
3.420406e+06 4.913923e+02 2.813280e+03
3.305996e+06 -1.383993e+03 -7.824780e+03
3.304465e+06 -5.377872e+02 9.781362e+03
3.419424e+06 1.001015e+03 4.047969e+03
3.419853e+06 4.947433e+02 3.143752e+03
3.306329e+06 -4.872208e+02 1.014715e+04
3.418639e+06 9.948036e+02 4.380107e+03
3.419236e+06 4.972844e+02 3.474468e+03
3.307956e+06 -1.253336e+03 -8.086901e+03
3.308257e+06 -4.364967e+02 1.048186e+04
3.417783e+06 9.830349e+02 4.708565e+03
3.418556e+06 4.985362e+02 3.804427e+03
3.309976e+06 -1.122155e+03 -8.324632e+03
3.310244e+06 -3.857304e+02 1.078517e+04
3.416858e+06 9.662060e+02 5.032617e+03
3.417812e+06 4.977293e+02 4.132484e+03
3.418881e+06 1.308201e+03 -2.976001e+03
3.312048e+06 -9.907214e+02 -8.537698e+03
3.312284e+06 -3.350094e+02 1.105690e+04
3.415867e+06 9.455270e+02 5.351074e+03
3.417004e+06 4.939179e+02 4.457507e+03
3.418134e+06 1.301246e+03 -3.227327e+03
3.314168e+06 -8.592165e+02 -8.725906e+03
3.314372e+06 -2.844007e+02 1.129688e+04
3.414812e+06 9.221347e+02 5.662692e+03
3.416132e+06 4.869916e+02 4.778427e+03
3.316329e+06 -7.277570e+02 -8.889127e+03
3.316501e+06 -2.339535e+02 1.150502e+04
3.413697e+06 8.968751e+02 5.966446e+03
3.415199e+06 4.778143e+02 5.094128e+03
3.318526e+06 -5.964141e+02 -9.027264e+03
3.318666e+06 -1.837053e+02 1.168123e+04
3.412525e+06 8.703444e+02 6.261550e+03
3.414206e+06 4.672071e+02 5.403467e+03
3.320754e+06 -4.652254e+02 -9.140247e+03
3.320861e+06 -1.336827e+02 1.182544e+04
3.411299e+06 8.429556e+02 6.547427e+03
3.413154e+06 4.556828e+02 5.705420e+03
3.413452e+06 1.188785e+03 -4.435820e+03
3.410021e+06 8.149934e+02 6.823660e+03
3.412046e+06 4.435537e+02 5.999164e+03
3.325320e+06 -3.438241e+01 1.201757e+04
3.408693e+06 7.866539e+02 7.089958e+03
3.410883e+06 4.310117e+02 6.284070e+03
3.411165e+06 1.120555e+03 -4.885538e+03
3.329851e+06 5.785150e+01 -9.339533e+03
3.329831e+06 6.386365e+01 1.208088e+04
3.407318e+06 7.580708e+02 7.346122e+03
3.409668e+06 4.181805e+02 6.559672e+03
3.409781e+06 7.827671e+02 -4.876656e+03
3.332144e+06 1.882556e+02 -9.325920e+03
3.332092e+06 1.125843e+02 1.206403e+04
3.405898e+06 7.293337e+02 7.592021e+03
3.408402e+06 4.051419e+02 6.825639e+03
3.334432e+06 3.185509e+02 -9.286813e+03
3.334348e+06 1.610379e+02 1.201473e+04
3.404434e+06 7.005024e+02 7.827570e+03
3.407088e+06 3.919527e+02 7.081738e+03
3.336710e+06 4.487591e+02 -9.222145e+03
3.336594e+06 2.092295e+02 1.193289e+04
3.402929e+06 6.716147e+02 8.052723e+03
3.405728e+06 3.786515e+02 7.327813e+03
3.338971e+06 5.789009e+02 -9.131845e+03
3.338824e+06 2.571638e+02 1.181842e+04
3.404323e+06 3.652657e+02 7.563764e+03
3.343421e+06 8.390469e+02 -8.874061e+03
3.341032e+06 3.048470e+02 1.167122e+04
3.402876e+06 3.518145e+02 7.789530e+03
3.343211e+06 3.522851e+02 1.149119e+04
3.398188e+06 5.847941e+02 8.665638e+03
3.401389e+06 3.383096e+02 8.005079e+03
3.345598e+06 9.690592e+02 -8.706446e+03
3.345357e+06 3.994818e+02 1.127823e+04
3.396538e+06 5.558236e+02 8.849103e+03
3.399864e+06 3.247590e+02 8.210396e+03
3.401607e+06 8.550302e+02 -6.232438e+03
3.347734e+06 1.099010e+03 -8.512948e+03
3.347462e+06 4.464389e+02 1.103227e+04
3.394856e+06 5.268380e+02 9.022171e+03
3.398302e+06 3.111668e+02 8.405483e+03
3.349824e+06 1.228849e+03 -8.293549e+03
3.349520e+06 4.931517e+02 1.075324e+04
3.393145e+06 4.978345e+02 9.184859e+03
3.396706e+06 2.975347e+02 8.590348e+03
3.391407e+06 4.688097e+02 9.337188e+03
3.395077e+06 2.838632e+02 8.765006e+03
3.353474e+06 5.857830e+02 1.009585e+04
3.389642e+06 4.397591e+02 9.479179e+03
3.393418e+06 2.701506e+02 8.929475e+03
3.357596e+06 1.744122e+03 -7.158567e+03
3.357168e+06 6.771028e+02 9.306481e+03
3.387854e+06 4.106791e+02 9.610854e+03
3.391730e+06 2.563952e+02 9.083773e+03
3.391891e+06 6.217684e+02 -7.078972e+03
3.359360e+06 1.870309e+03 -6.811819e+03
3.358902e+06 7.220882e+02 8.862874e+03
3.386044e+06 3.815660e+02 9.732234e+03
3.390015e+06 2.425944e+02 9.227924e+03
3.361039e+06 1.994226e+03 -6.441043e+03
3.360552e+06 7.664525e+02 8.387302e+03
3.384214e+06 3.524163e+02 9.843341e+03
3.388275e+06 2.287460e+02 9.361947e+03
3.388418e+06 5.439794e+02 -7.297374e+03
3.364116e+06 2.230642e+03 -5.632175e+03
3.362111e+06 8.099963e+02 7.880588e+03
3.382365e+06 3.232275e+02 9.944198e+03
3.386513e+06 2.148472e+02 9.485865e+03
3.387183e+06 3.794241e+02 -7.168887e+03
3.365499e+06 2.339773e+03 -5.197620e+03
3.363573e+06 8.524308e+02 7.343941e+03
3.380501e+06 2.939969e+02 1.003483e+04
3.384729e+06 2.008952e+02 9.599700e+03
3.364930e+06 8.933321e+02 6.779079e+03
3.378622e+06 2.647222e+02 1.011525e+04
3.382927e+06 1.868877e+02 9.703474e+03
3.366769e+06 2.439676e+03 -4.746281e+03
3.366178e+06 9.320575e+02 6.188376e+03
3.376730e+06 2.354015e+02 1.018548e+04
3.381107e+06 1.728226e+02 9.797208e+03
3.367918e+06 2.527104e+03 -4.281399e+03
3.367308e+06 9.675952e+02 5.575013e+03
3.374828e+06 2.060333e+02 1.024556e+04
3.379271e+06 1.586977e+02 9.880925e+03
3.368938e+06 2.598060e+03 -3.806716e+03
3.368314e+06 9.983062e+02 4.943100e+03
3.372917e+06 1.766166e+02 1.029549e+04
3.377423e+06 1.445108e+02 9.954648e+03
3.379367e+06 3.493050e+02 -7.705091e+03
3.369825e+06 2.648019e+03 -3.326058e+03
3.369191e+06 1.021508e+03 4.297632e+03
3.370999e+06 1.471499e+02 1.033530e+04
3.375562e+06 1.302604e+02 1.001840e+04
3.377508e+06 3.103132e+02 -7.763068e+03
3.370574e+06 2.672839e+03 -2.842423e+03
3.369936e+06 1.033032e+03 3.644032e+03
3.369076e+06 1.176320e+02 1.036502e+04
3.373692e+06 1.159448e+02 1.007219e+04
3.367150e+06 8.806179e+01 1.038466e+04
3.371814e+06 1.015631e+02 1.011606e+04
3.371021e+06 1.011989e+03 2.333035e+03
3.365222e+06 5.843846e+01 1.039425e+04
3.369929e+06 8.711368e+01 1.015003e+04
3.372186e+06 2.519076e+03 -9.082872e+02
3.371579e+06 9.531142e+02 1.051886e+03
3.363294e+06 2.875966e+01 1.039381e+04
3.368041e+06 7.259553e+01 1.017411e+04
3.372258e+06 2.434469e+03 -4.385170e+02
3.371670e+06 9.170411e+02 4.350838e+02
3.361369e+06 -9.769742e-01 1.038335e+04
3.366150e+06 5.800786e+01 1.018832e+04
3.366178e+06 7.580837e+01 -7.947392e+03
3.372209e+06 2.339281e+03 1.857443e+01
3.371643e+06 8.785135e+02 -1.606971e+02
3.359447e+06 -3.077480e+01 1.036289e+04
3.364258e+06 4.334957e+01 1.019269e+04
3.372047e+06 2.236367e+03 4.600406e+02
3.371505e+06 8.383344e+02 -7.326769e+02
3.357531e+06 -6.063856e+01 1.033245e+04
3.362368e+06 2.861951e+01 1.018724e+04
3.362377e+06 -2.619257e+00 -7.946915e+03
3.371778e+06 2.127929e+03 8.835489e+02
3.371262e+06 7.970267e+02 -1.278799e+03
3.355623e+06 -9.057512e+01 1.029204e+04
3.360481e+06 1.381635e+01 1.017199e+04
3.361469e+06 -5.627747e+00 -7.746868e+03
3.370942e+06 1.900672e+03 1.670049e+03
3.370918e+06 7.549423e+02 -1.797582e+03
3.353724e+06 -1.205941e+02 1.024166e+04
3.358598e+06 -1.061282e+00 1.014694e+04
3.370481e+06 7.123240e+02 -2.287980e+03
3.356722e+06 -1.601528e+01 1.011212e+04
3.370389e+06 1.783971e+03 2.030790e+03
3.369956e+06 6.693413e+02 -2.749278e+03
3.354854e+06 -3.104784e+01 1.006754e+04
3.369753e+06 1.666153e+03 2.368891e+03
3.369349e+06 6.261105e+02 -3.180999e+03
3.348099e+06 -2.113282e+02 1.003068e+04
3.352996e+06 -4.616343e+01 1.001319e+04
3.369041e+06 1.547658e+03 2.683913e+03
3.368665e+06 5.827114e+02 -3.582843e+03
3.346253e+06 -2.418998e+02 9.940346e+03
3.351150e+06 -6.136795e+01 9.949078e+03
3.352957e+06 -1.996618e+02 -7.811150e+03
3.368257e+06 1.428785e+03 2.975577e+03
3.367911e+06 5.391948e+02 -3.954631e+03
3.344426e+06 -2.727138e+02 9.839955e+03
3.349318e+06 -7.667097e+01 9.875191e+03
3.342618e+06 -3.038145e+02 9.729482e+03
3.347501e+06 -9.208839e+01 9.791510e+03
3.366212e+06 4.519193e+02 -4.607721e+03
3.340831e+06 -3.352033e+02 9.608920e+03
3.345701e+06 -1.076461e+02 9.698009e+03
3.364529e+06 9.523923e+02 3.906298e+03
3.364298e+06 3.643826e+02 -5.140093e+03
3.339067e+06 -3.668343e+02 9.478246e+03
3.343920e+06 -1.233835e+02 9.594657e+03
3.363475e+06 8.333450e+02 4.079860e+03
3.363273e+06 3.205124e+02 -5.361076e+03
3.337328e+06 -3.986516e+02 9.337423e+03
3.342159e+06 -1.393244e+02 9.481428e+03
3.362385e+06 7.143344e+02 4.229810e+03
3.362212e+06 2.765644e+02 -5.551983e+03
3.335616e+06 -4.306093e+02 9.186417e+03
3.340421e+06 -1.554446e+02 9.358293e+03
3.361263e+06 5.953455e+02 4.356183e+03
3.361118e+06 2.325296e+02 -5.712861e+03
3.333932e+06 -4.626736e+02 9.025208e+03
3.338707e+06 -1.717005e+02 9.225222e+03
3.338588e+06 -5.232242e+02 -7.192851e+03
3.358944e+06 3.573538e+02 4.538342e+03
3.359998e+06 1.883987e+02 -5.843758e+03
3.332278e+06 -4.948196e+02 8.853780e+03
3.337019e+06 -1.880609e+02 9.082186e+03
3.357759e+06 2.383082e+02 4.594195e+03
3.358858e+06 1.441631e+02 -5.944721e+03
3.330657e+06 -5.270293e+02 8.672128e+03
3.335359e+06 -2.045054e+02 8.929160e+03
3.335219e+06 -6.063722e+02 -6.960668e+03
3.357702e+06 9.981592e+01 -6.015791e+03
3.329070e+06 -5.592889e+02 8.480249e+03
3.333728e+06 -2.210197e+02 8.766131e+03
3.334859e+06 -4.360214e+02 -6.729076e+03
3.356565e+06 1.192017e+02 4.626603e+03
3.356536e+06 5.535158e+01 -6.057009e+03
3.332129e+06 -2.375933e+02 8.593088e+03
3.355365e+06 1.676538e-02 4.635591e+03
3.355366e+06 1.076683e+01 -6.068409e+03
3.326005e+06 -6.239176e+02 8.065822e+03
3.330562e+06 -2.542178e+02 8.410030e+03
3.354167e+06 -1.192606e+02 4.621183e+03
3.354197e+06 -3.393850e+01 -6.050023e+03
3.329031e+06 -2.708860e+02 8.216956e+03
3.323098e+06 -6.886443e+02 7.610537e+03
3.327536e+06 -2.875915e+02 8.013871e+03
3.328849e+06 -7.738663e+02 -6.402378e+03
3.351883e+06 -1.236933e+02 -5.924006e+03
3.321708e+06 -7.210304e+02 7.367587e+03
3.326080e+06 -3.043284e+02 7.800779e+03
3.349492e+06 -5.972690e+02 4.330076e+03
3.349638e+06 -2.138251e+02 -5.679196e+03
3.320362e+06 -7.534260e+02 7.114439e+03
3.324664e+06 -3.210909e+02 7.577688e+03
3.348379e+06 -7.168460e+02 4.199135e+03
3.348555e+06 -2.589751e+02 -5.512345e+03
3.319063e+06 -7.858260e+02 6.851098e+03
3.323290e+06 -3.378737e+02 7.344601e+03
3.324451e+06 -8.999556e+02 -5.901248e+03
3.347300e+06 -8.362882e+02 4.045090e+03
3.347505e+06 -3.041302e+02 -5.315955e+03
3.317811e+06 -8.182280e+02 6.577566e+03
3.321960e+06 -3.546714e+02 7.101526e+03
3.346260e+06 -9.554233e+02 3.868103e+03
3.346494e+06 -3.492336e+02 -5.090139e+03
3.316610e+06 -8.506278e+02 6.293844e+03
3.320675e+06 -3.714783e+02 6.848467e+03
3.345263e+06 -1.073996e+03 3.668420e+03
3.345527e+06 -3.942105e+02 -4.835068e+03
3.315460e+06 -8.830229e+02 5.999931e+03
3.319437e+06 -3.882889e+02 6.585427e+03
3.344317e+06 -1.191639e+03 3.446402e+03
3.344609e+06 -4.389598e+02 -4.551004e+03
3.314364e+06 -9.154106e+02 5.695823e+03
3.318249e+06 -4.050982e+02 6.312408e+03
3.342597e+06 -1.421854e+03 2.937658e+03
3.343747e+06 -4.833493e+02 -4.238334e+03
3.313323e+06 -9.477887e+02 5.381514e+03
3.317111e+06 -4.219006e+02 6.029411e+03
3.316835e+06 -1.152487e+03 -4.687137e+03
3.342945e+06 -5.272024e+02 -3.897623e+03
3.312339e+06 -9.801557e+02 5.056994e+03
3.316026e+06 -4.386904e+02 5.736431e+03
3.341834e+06 -1.532732e+03 2.652678e+03
3.342209e+06 -5.702838e+02 -3.529675e+03
3.311413e+06 -1.012511e+03 4.722250e+03
3.314995e+06 -4.554620e+02 5.433465e+03
3.314697e+06 -1.236711e+03 -4.219664e+03
3.341144e+06 -1.639162e+03 2.348984e+03
3.341545e+06 -6.122707e+02 -3.135622e+03
3.310547e+06 -1.044852e+03 4.377267e+03
3.314020e+06 -4.722096e+02 5.120504e+03
3.315098e+06 -8.871529e+02 -4.002343e+03
3.340534e+06 -1.739431e+03 2.028336e+03
3.340959e+06 -6.527072e+02 -2.717016e+03
3.313102e+06 -4.889274e+02 4.797537e+03
3.312244e+06 -5.056091e+02 4.464549e+03
3.340041e+06 -7.258610e+02 -1.815132e+03
3.308330e+06 -1.141802e+03 3.280656e+03
3.311448e+06 -5.222476e+02 4.121521e+03
3.339006e+06 -2.027177e+03 6.250502e+02
3.339495e+06 -7.783620e+02 -8.483471e+02
3.307723e+06 -1.174092e+03 2.894477e+03
3.310714e+06 -5.388365e+02 3.768431e+03
3.311109e+06 -1.405295e+03 -3.190246e+03
3.338876e+06 -2.055714e+03 2.562833e+02
3.339372e+06 -7.899626e+02 -3.501452e+02
3.307185e+06 -1.206365e+03 2.497926e+03
3.310046e+06 -5.553666e+02 3.405253e+03
3.338851e+06 -2.063693e+03 -1.171108e+02
3.339350e+06 -7.899440e+02 1.530044e+02
3.306718e+06 -1.238614e+03 2.090976e+03
3.309443e+06 -5.718287e+02 3.031957e+03
3.338932e+06 -2.052891e+03 -4.940489e+02
3.339430e+06 -7.811307e+02 6.573245e+02
3.306323e+06 -1.270823e+03 1.673603e+03
3.308910e+06 -5.882110e+02 2.648511e+03
3.339117e+06 -2.026457e+03 -8.722783e+02
3.339611e+06 -7.665390e+02 1.158873e+03
3.306002e+06 -1.302966e+03 1.245798e+03
3.308446e+06 -6.044992e+02 2.254885e+03
3.339787e+06 -1.939706e+03 -1.621476e+03
3.339889e+06 -7.481196e+02 1.654053e+03
3.305758e+06 -1.335002e+03 8.075705e+02
3.308054e+06 -6.206745e+02 1.851048e+03
3.340264e+06 -1.884734e+03 -1.987374e+03
3.340261e+06 -7.270909e+02 2.139912e+03
3.305591e+06 -1.366861e+03 3.589669e+02
3.307735e+06 -6.367130e+02 1.436982e+03
3.340725e+06 -7.042284e+02 2.614162e+03
3.305504e+06 -1.398437e+03 -9.991471e+01
3.307492e+06 -6.525832e+02 1.012679e+03
3.340830e+06 -1.824712e+03 -2.344781e+03
3.341277e+06 -6.800463e+02 3.075091e+03
3.305499e+06 -1.429573e+03 -5.688979e+02
3.307327e+06 -6.682435e+02 5.781625e+02
3.306893e+06 -1.784925e+03 -4.083568e+02
3.341481e+06 -1.761076e+03 -2.692221e+03
3.341913e+06 -6.549003e+02 3.521454e+03
3.305577e+06 -1.460038e+03 -1.047694e+03
3.307240e+06 -6.836391e+02 1.334938e+02
3.342214e+06 -1.694910e+03 -3.028584e+03
3.342630e+06 -6.290475e+02 3.952363e+03
3.305742e+06 -1.489494e+03 -1.535859e+03
3.307235e+06 -6.986980e+02 -3.212019e+02
3.306781e+06 -1.867009e+03 2.969881e+02
3.305996e+06 -1.517462e+03 -2.032728e+03
3.307313e+06 -7.133254e+02 -7.857090e+02
3.308155e+06 -1.333077e+03 4.534345e+02
3.344294e+06 -5.759356e+02 4.765557e+03
3.306343e+06 -1.543252e+03 -2.537343e+03
3.307475e+06 -7.273961e+02 -1.259683e+03
3.345896e+06 -1.418009e+03 -4.250335e+03
3.346243e+06 -5.217407e+02 5.511820e+03
3.306785e+06 -1.565886e+03 -3.048350e+03
3.307725e+06 -7.407447e+02 -1.742600e+03
3.307002e+06 -1.944674e+03 1.031195e+03
3.346988e+06 -1.347573e+03 -4.523128e+03
3.347317e+06 -4.944346e+02 5.859456e+03
3.307327e+06 -1.583969e+03 -3.563879e+03
3.308064e+06 -7.531473e+02 -2.233696e+03
3.307243e+06 -1.980411e+03 1.407740e+03
3.348141e+06 -1.277036e+03 -4.782545e+03
3.348453e+06 -4.670583e+02 6.190005e+03
3.307974e+06 -1.595520e+03 -4.081409e+03
3.308495e+06 -7.642955e+02 -2.731883e+03
3.349354e+06 -1.206482e+03 -5.028528e+03
3.349649e+06 -4.396483e+02 6.503439e+03
3.308732e+06 -1.597763e+03 -4.597668e+03
3.309019e+06 -7.737458e+02 -3.235656e+03
3.350622e+06 -1.135962e+03 -5.261047e+03
3.350900e+06 -4.122322e+02 6.799748e+03
3.309608e+06 -1.586999e+03 -5.108697e+03
3.309639e+06 -7.808328e+02 -3.742991e+03
3.351944e+06 -1.065503e+03 -5.480092e+03
3.352204e+06 -3.848314e+02 7.078930e+03
3.310607e+06 -1.559184e+03 -5.610617e+03
3.310357e+06 -7.845163e+02 -4.251257e+03
3.353315e+06 -9.951190e+02 -5.685657e+03
3.353558e+06 -3.574626e+02 7.340985e+03
3.311729e+06 -1.512374e+03 -6.101091e+03
3.311175e+06 -7.831318e+02 -4.757205e+03
3.356196e+06 -8.545838e+02 -6.056352e+03
3.354959e+06 -3.301387e+02 7.585913e+03
3.312970e+06 -1.448553e+03 -6.577770e+03
3.312093e+06 -7.740786e+02 -5.257186e+03
3.356404e+06 -3.028704e+02 7.813711e+03
3.314321e+06 -1.371798e+03 -7.036744e+03
3.313111e+06 -7.544408e+02 -5.747637e+03
3.357698e+06 -7.844243e+02 -6.221480e+03
3.357889e+06 -2.756661e+02 8.024372e+03
3.315772e+06 -1.285839e+03 -7.473998e+03
3.314226e+06 -7.242374e+02 -6.225178e+03
3.313767e+06 -1.921685e+03 4.805248e+03
3.359239e+06 -7.143281e+02 -6.373122e+03
3.359412e+06 -2.485332e+02 8.217884e+03
3.317312e+06 -1.193479e+03 -7.886190e+03
3.315436e+06 -6.864325e+02 -6.686230e+03
3.318933e+06 -1.096730e+03 -8.270716e+03
3.316736e+06 -6.436779e+02 -7.127103e+03
3.316319e+06 -1.738776e+03 5.481468e+03
3.362559e+06 -1.945060e+02 8.553391e+03
3.318120e+06 -5.976834e+02 -7.544489e+03
3.318248e+06 -1.187891e+03 5.526546e+03
3.365715e+06 -4.344366e+02 -6.844593e+03
3.365820e+06 -1.408323e+02 8.820047e+03
3.319583e+06 -5.495291e+02 -7.935682e+03
3.367398e+06 -3.645603e+02 -6.928598e+03
3.367485e+06 -1.141405e+02 8.927482e+03
3.324202e+06 -7.923719e+02 -9.241127e+03
3.321117e+06 -4.999143e+02 -8.298573e+03
3.369099e+06 -2.947208e+02 -6.999015e+03
3.369170e+06 -8.755248e+01 9.017612e+03
3.326069e+06 -6.886524e+02 -9.499924e+03
3.322718e+06 -4.493105e+02 -8.631568e+03
3.320786e+06 -1.387449e+03 6.375833e+03
3.370816e+06 -2.249236e+02 -7.055825e+03
3.370870e+06 -6.107390e+01 9.090403e+03
3.327980e+06 -5.845112e+02 -9.725280e+03
3.324379e+06 -3.980491e+02 -8.933485e+03
3.372546e+06 -1.551814e+02 -7.099011e+03
3.372583e+06 -3.471220e+01 9.145823e+03
3.329930e+06 -4.801882e+02 -9.916807e+03
3.326094e+06 -3.463713e+02 -9.203463e+03
3.376032e+06 -1.597059e+01 -7.144492e+03
3.374306e+06 -8.476009e+00 9.183845e+03
3.331911e+06 -3.758449e+02 -1.007423e+04
3.327855e+06 -2.944572e+02 -9.440879e+03
3.377781e+06 5.340036e+01 -7.146820e+03
3.376035e+06 1.762236e+01 9.204452e+03
3.333918e+06 -2.715893e+02 -1.019734e+04
3.329658e+06 -2.424419e+02 -9.645291e+03
3.377767e+06 4.356763e+01 9.207640e+03
3.335945e+06 -1.674885e+02 -1.028600e+04
3.331496e+06 -1.904271e+02 -9.816382e+03
3.379530e+06 1.225064e+02 -7.135604e+03
3.379499e+06 6.933875e+01 9.193428e+03
3.337986e+06 -6.358305e+01 -1.034010e+04
3.333364e+06 -1.384885e+02 -9.953927e+03
3.381275e+06 1.912203e+02 -7.110944e+03
3.381227e+06 9.490791e+01 9.161869e+03
3.340033e+06 4.010710e+01 -1.035954e+04
3.335254e+06 -8.668202e+01 -1.005776e+04
3.383014e+06 2.593616e+02 -7.072996e+03
3.382949e+06 1.202370e+02 9.113062e+03
3.342083e+06 1.435749e+02 -1.034424e+04
3.337160e+06 -3.504734e+01 -1.012777e+04
3.344127e+06 2.468234e+02 -1.029414e+04
3.339078e+06 1.638841e+01 -1.016385e+04
3.339080e+06 -3.733178e+01 7.827917e+03
3.386360e+06 1.699467e+02 8.964452e+03
3.346160e+06 3.498619e+02 -1.020917e+04
3.341000e+06 6.760771e+01 -1.016593e+04
3.389831e+06 5.196873e+02 -6.794614e+03
3.389704e+06 2.177298e+02 8.750175e+03
3.348176e+06 4.527046e+02 -1.008926e+04
3.342920e+06 1.186015e+02 -1.013394e+04
3.342990e+06 2.362825e+02 7.804186e+03
3.391483e+06 5.790207e+02 -6.696010e+03
3.391342e+06 2.404412e+02 8.619863e+03
3.350169e+06 5.553698e+02 -9.934334e+03
3.344833e+06 1.693666e+02 -1.006780e+04
3.393107e+06 6.344282e+02 -6.587321e+03
3.392954e+06 2.618903e+02 8.475277e+03
3.352132e+06 6.578784e+02 -9.744330e+03
3.346731e+06 2.199053e+02 -9.967456e+03
3.394700e+06 6.848530e+02 -6.469409e+03
3.394535e+06 2.814316e+02 8.317559e+03
3.354059e+06 7.602547e+02 -9.519172e+03
3.348609e+06 2.702240e+02 -9.832837e+03
3.346867e+06 5.093348e+02 7.673239e+03
3.396259e+06 7.293566e+02 -6.342922e+03
3.396084e+06 2.980712e+02 8.147938e+03
3.355943e+06 8.625244e+02 -9.258784e+03
3.350460e+06 3.203327e+02 -9.663876e+03
3.397782e+06 7.674945e+02 -6.208142e+03
3.397598e+06 3.110749e+02 7.967587e+03
3.357779e+06 9.647158e+02 -8.963093e+03
3.352278e+06 3.702446e+02 -9.460501e+03
3.399267e+06 7.995310e+02 -6.065285e+03
3.399075e+06 3.209032e+02 7.777657e+03
3.359560e+06 1.066858e+03 -8.632023e+03
3.354057e+06 4.199750e+02 -9.222638e+03
3.402118e+06 8.488918e+02 -5.757841e+03
3.400514e+06 3.286242e+02 7.579385e+03
3.361279e+06 1.168979e+03 -8.265505e+03
3.355790e+06 4.695414e+02 -8.950214e+03
3.401913e+06 3.349934e+02 7.373974e+03
3.362931e+06 1.271106e+03 -7.863475e+03
3.357471e+06 5.189628e+02 -8.643154e+03
3.403482e+06 8.682680e+02 -5.594985e+03
3.403272e+06 3.404795e+02 7.162449e+03
3.364508e+06 1.373257e+03 -7.425886e+03
3.359094e+06 5.682578e+02 -8.301385e+03
3.404805e+06 8.852599e+02 -5.427131e+03
3.404591e+06 3.453745e+02 6.945622e+03
3.366005e+06 1.475441e+03 -6.952710e+03
3.360652e+06 6.174450e+02 -7.924838e+03
3.406087e+06 9.005175e+02 -5.254938e+03
3.405869e+06 3.498662e+02 6.724105e+03
3.367415e+06 1.577646e+03 -6.443958e+03
3.362138e+06 6.665406e+02 -7.513455e+03
3.368731e+06 1.679829e+03 -5.899694e+03
3.363547e+06 7.155560e+02 -7.067195e+03
3.408299e+06 3.581053e+02 6.268682e+03
3.364871e+06 7.644957e+02 -6.586043e+03
3.410787e+06 9.524828e+02 -4.531407e+03
3.410557e+06 3.658220e+02 5.798442e+03
3.371056e+06 1.883698e+03 -4.705330e+03
3.366105e+06 8.133535e+02 -6.070028e+03
3.366640e+06 2.143389e+03 4.613254e+03
3.411853e+06 9.644483e+02 -4.343114e+03
3.411620e+06 3.695943e+02 5.558132e+03
3.367241e+06 8.621073e+02 -5.519243e+03
3.412874e+06 9.762779e+02 -4.152130e+03
3.412639e+06 3.733462e+02 5.314465e+03
3.372926e+06 2.085296e+03 -3.372509e+03
3.368273e+06 9.107133e+02 -4.933875e+03
3.365474e+06 2.191815e+03 2.796031e+03
3.413850e+06 9.880407e+02 -3.958519e+03
3.413612e+06 3.770958e+02 5.067483e+03
3.373672e+06 2.184084e+03 -2.656076e+03
3.369194e+06 9.590974e+02 -4.314250e+03
3.415664e+06 1.011531e+03 -3.563561e+03
3.414540e+06 3.808569e+02 4.817211e+03
3.374281e+06 2.280431e+03 -1.908056e+03
3.369999e+06 1.007145e+03 -3.660883e+03
3.416500e+06 1.023303e+03 -3.362251e+03
3.415420e+06 3.846394e+02 4.563666e+03
3.374745e+06 2.373029e+03 -1.130478e+03
3.370679e+06 1.054683e+03 -2.974560e+03
3.370664e+06 2.679557e+03 2.727825e+03
3.416253e+06 3.884505e+02 4.306856e+03
3.375053e+06 2.459980e+03 -3.261524e+02
3.371228e+06 1.101461e+03 -2.256429e+03
3.417288e+06 1.035110e+03 -3.158398e+03
3.417039e+06 3.922958e+02 4.046784e+03
3.375195e+06 2.538541e+03 5.010964e+02
3.371640e+06 1.147110e+03 -1.508126e+03
3.418027e+06 1.046956e+03 -2.952007e+03
3.417775e+06 3.961790e+02 3.783455e+03
3.375158e+06 2.604795e+03 1.346218e+03
3.371906e+06 1.191077e+03 -7.319272e+02
3.418717e+06 1.058844e+03 -2.743078e+03
3.418463e+06 4.001035e+02 3.516869e+03
3.374930e+06 2.653306e+03 2.202856e+03
3.372021e+06 1.232512e+03 6.908011e+01
3.419357e+06 1.070773e+03 -2.531611e+03
3.419100e+06 4.040717e+02 3.247030e+03
3.374496e+06 2.677234e+03 3.063878e+03
3.371977e+06 1.270067e+03 8.908224e+02
3.373850e+06 2.671098e+03 3.923932e+03
3.371769e+06 1.301541e+03 1.728140e+03
3.420223e+06 4.121476e+02 2.697603e+03
3.372990e+06 2.635197e+03 4.779364e+03
3.371392e+06 1.323355e+03 2.574931e+03
3.421407e+06 1.118910e+03 -1.660375e+03
3.421138e+06 4.204218e+02 2.135205e+03
3.371929e+06 2.575308e+03 5.624570e+03
3.370842e+06 1.330278e+03 3.424856e+03
3.421788e+06 1.131053e+03 -1.436230e+03
3.421517e+06 4.246378e+02 1.849153e+03
3.370680e+06 2.498174e+03 6.452463e+03
3.370119e+06 1.319530e+03 4.271953e+03
3.422116e+06 1.143240e+03 -1.209553e+03
3.421841e+06 4.289080e+02 1.559874e+03
3.369258e+06 2.409062e+03 7.256852e+03
3.369226e+06 1.294347e+03 5.110235e+03
3.370053e+06 3.373054e+03 -3.929091e+03
3.422389e+06 1.155473e+03 -9.803493e+02
3.422112e+06 4.332334e+02 1.267374e+03
3.367676e+06 2.311751e+03 8.032869e+03
3.368166e+06 1.259832e+03 5.933369e+03
3.422608e+06 1.167750e+03 -7.486233e+02
3.422327e+06 4.376147e+02 9.716595e+02
3.365945e+06 2.208874e+03 8.776863e+03
3.366945e+06 1.219379e+03 6.735365e+03
3.367735e+06 3.193331e+03 -5.158012e+03
3.422771e+06 1.180068e+03 -5.143833e+02
3.422487e+06 4.420511e+02 6.727399e+02
3.364078e+06 2.102251e+03 9.486174e+03
3.365571e+06 1.175063e+03 7.511217e+03
3.364803e+06 2.224911e+03 -5.349336e+03
3.422877e+06 1.192419e+03 -2.776418e+02
3.422591e+06 4.465414e+02 3.706274e+02
3.362082e+06 1.993137e+03 1.015891e+04
3.364052e+06 1.128151e+03 8.257014e+03
3.422920e+06 1.217140e+03 2.032549e+02
3.422638e+06 4.510818e+02 6.533832e+01
3.359968e+06 1.882387e+03 1.079376e+04
3.362395e+06 1.079440e+03 8.969818e+03
3.422855e+06 1.229441e+03 4.473314e+02
3.422628e+06 4.556660e+02 -2.431031e+02
3.357745e+06 1.770580e+03 1.138984e+04
3.360609e+06 1.029445e+03 9.647492e+03
3.422560e+06 4.602850e+02 -5.546607e+02
3.355419e+06 1.658099e+03 1.194658e+04
3.358701e+06 9.785115e+02 1.028852e+04
3.422732e+06 1.241622e+03 6.937397e+02
3.422434e+06 4.649238e+02 -8.692806e+02
3.352999e+06 1.545191e+03 1.246365e+04
3.356679e+06 9.268735e+02 1.089187e+04
3.350492e+06 1.432006e+03 1.294085e+04
3.354551e+06 8.746906e+02 1.145685e+04
3.422003e+06 4.741709e+02 -1.507353e+03
3.347906e+06 1.318629e+03 1.337813e+04
3.352325e+06 8.220696e+02 1.198305e+04
3.421640e+06 1.286486e+03 1.699801e+03
3.421330e+06 4.831179e+02 -2.156145e+03
3.345248e+06 1.205098e+03 1.377550e+04
3.350007e+06 7.690783e+02 1.247021e+04
3.421214e+06 1.295536e+03 1.955118e+03
3.420902e+06 4.873164e+02 -2.483896e+03
3.342525e+06 1.091425e+03 1.413301e+04
3.347606e+06 7.157577e+02 1.291823e+04
3.420725e+06 1.302921e+03 2.211097e+03
3.420412e+06 4.911835e+02 -2.813312e+03
3.345129e+06 6.621279e+02 1.332710e+04
3.420173e+06 1.308012e+03 2.467090e+03
3.419859e+06 4.945344e+02 -3.143776e+03
3.342583e+06 6.081950e+02 1.369686e+04
3.419556e+06 1.310023e+03 2.722332e+03
3.419242e+06 4.970747e+02 -3.474485e+03
3.334041e+06 7.494256e+02 1.496747e+04
3.339976e+06 5.539559e+02 1.402759e+04
3.338368e+06 1.436946e+03 -7.567874e+03
3.418129e+06 1.301073e+03 3.227334e+03
3.418562e+06 4.983260e+02 -3.804435e+03
3.331131e+06 6.350216e+02 1.516669e+04
3.337314e+06 4.994007e+02 1.431941e+04
3.340319e+06 1.326232e+03 -1.083688e+04
3.417318e+06 1.288510e+03 3.475927e+03
3.417817e+06 4.975190e+02 -4.132483e+03
3.328192e+06 5.203721e+02 1.532666e+04
3.334605e+06 4.445165e+02 1.457243e+04
3.336506e+06 1.122175e+03 -7.422550e+03
3.417009e+06 4.937078e+02 -4.457496e+03
3.325231e+06 4.054519e+02 1.544752e+04
3.331856e+06 3.892888e+02 1.478679e+04
3.416442e+06 1.270276e+03 3.721586e+03
3.416138e+06 4.867821e+02 -4.778407e+03
3.322255e+06 2.902379e+02 1.552940e+04
3.329074e+06 3.337031e+02 1.496263e+04
3.415504e+06 1.246930e+03 3.963951e+03
3.415205e+06 4.776054e+02 -5.094100e+03
3.319270e+06 1.747095e+02 1.557242e+04
3.326265e+06 2.777455e+02 1.510008e+04
3.414505e+06 1.219392e+03 4.202327e+03
3.414212e+06 4.669988e+02 -5.403430e+03
3.316283e+06 5.884912e+01 1.557672e+04
3.323438e+06 2.214050e+02 1.519928e+04
3.313302e+06 -5.735688e+01 1.554239e+04
3.320599e+06 1.646725e+02 1.526034e+04
3.412051e+06 4.433470e+02 -5.999114e+03
3.310333e+06 -1.739175e+02 1.546957e+04
3.317755e+06 1.075426e+02 1.528339e+04
3.409935e+06 1.084078e+03 5.100623e+03
3.409673e+06 4.179755e+02 -6.559611e+03
3.307382e+06 -2.908345e+02 1.535837e+04
3.314913e+06 5.001344e+01 1.526855e+04
3.408661e+06 1.046879e+03 5.308455e+03
3.408407e+06 4.049378e+02 -6.825573e+03
3.304457e+06 -4.081012e+02 1.520890e+04
3.312079e+06 -7.911595e+00 1.521594e+04
3.407338e+06 1.009058e+03 5.508835e+03
3.407093e+06 3.917496e+02 -7.081668e+03
3.301563e+06 -5.256966e+02 1.502129e+04
3.309260e+06 -6.622339e+01 1.512567e+04
3.405968e+06 9.708185e+02 5.701556e+03
3.405733e+06 3.784498e+02 -7.327740e+03
3.298708e+06 -6.435802e+02 1.479568e+04
3.306464e+06 -1.249061e+02 1.499785e+04
3.404554e+06 9.323058e+02 5.886474e+03
3.404329e+06 3.650653e+02 -7.563689e+03
3.295898e+06 -7.616834e+02 1.453224e+04
3.303696e+06 -1.839351e+02 1.483259e+04
3.403098e+06 8.936223e+02 6.063496e+03
3.402882e+06 3.516152e+02 -7.789454e+03
3.293139e+06 -8.798978e+02 1.423121e+04
3.300963e+06 -2.432743e+02 1.463002e+04
3.303551e+06 -6.634584e+02 -1.147527e+04
3.400067e+06 8.159940e+02 6.393643e+03
3.401395e+06 3.381116e+02 -8.005001e+03
3.290439e+06 -9.980588e+02 1.389288e+04
3.298272e+06 -3.028739e+02 1.439030e+04
3.300780e+06 -8.177764e+02 -1.131663e+04
3.399869e+06 3.245623e+02 -8.210317e+03
3.287803e+06 -1.115923e+03 1.351765e+04
3.295630e+06 -3.626670e+02 1.411360e+04
3.295371e+06 -1.126236e+03 -1.091223e+04
3.398496e+06 7.771232e+02 6.546723e+03
3.398307e+06 3.109715e+02 -8.405404e+03
3.285239e+06 -1.233139e+03 1.310610e+04
3.293043e+06 -4.225639e+02 1.380019e+04
3.396890e+06 7.382402e+02 6.691800e+03
3.396711e+06 2.973410e+02 -8.590268e+03
3.282754e+06 -1.349204e+03 1.265900e+04
3.290517e+06 -4.824467e+02 1.345038e+04
3.290182e+06 -1.432796e+03 -1.039359e+04
3.395252e+06 6.993535e+02 6.828881e+03
3.395082e+06 2.836706e+02 -8.764926e+03
3.280356e+06 -1.463404e+03 1.217745e+04
3.288060e+06 -5.421614e+02 1.306465e+04
3.290053e+06 -1.047675e+03 -1.001936e+04
3.393583e+06 6.604662e+02 6.957976e+03
3.393423e+06 2.699594e+02 -8.929394e+03
3.278051e+06 -1.574734e+03 1.166293e+04
3.285678e+06 -6.015073e+02 1.264364e+04
3.275850e+06 -1.681776e+03 1.111747e+04
3.283377e+06 -6.602206e+02 1.218822e+04
3.390020e+06 2.424058e+02 -9.227843e+03
3.273762e+06 -1.782529e+03 1.054381e+04
3.281164e+06 -7.179506e+02 1.169963e+04
3.386641e+06 5.048895e+02 7.394816e+03
3.386518e+06 2.146610e+02 -9.485785e+03
3.271797e+06 -1.874180e+03 9.945522e+03
3.279047e+06 -7.742195e+02 1.117953e+04
3.384848e+06 4.659733e+02 7.484226e+03
3.384734e+06 2.007105e+02 -9.599619e+03
3.269968e+06 -1.952834e+03 9.327186e+03
3.277031e+06 -8.283503e+02 1.063013e+04
3.383036e+06 4.270424e+02 7.565752e+03
3.382931e+06 1.867045e+02 -9.703393e+03
3.268285e+06 -2.013382e+03 8.694197e+03
3.275123e+06 -8.793438e+02 1.005435e+04
3.381207e+06 3.880939e+02 7.639411e+03
3.381111e+06 1.726406e+02 -9.797127e+03
3.273330e+06 -9.256645e+02 9.455890e+03
3.377504e+06 3.101350e+02 7.763197e+03
3.379276e+06 1.585167e+02 -9.880844e+03
3.271658e+06 -9.649047e+02 8.839230e+03
3.375634e+06 2.711207e+02 7.813359e+03
3.377427e+06 1.443313e+02 -9.954566e+03
3.264188e+06 -2.050714e+03 6.749507e+03
3.270109e+06 -9.933902e+02 8.209273e+03
3.375567e+06 1.300820e+02 -1.001832e+04
3.263130e+06 -2.022293e+03 6.098499e+03
3.268689e+06 -1.007377e+03 7.570716e+03
3.269482e+06 -2.633868e+03 -6.401068e+03
3.373754e+06 2.320810e+02 7.855722e+03
3.373697e+06 1.157680e+02 -1.007211e+04
3.262211e+06 -1.981524e+03 5.454447e+03
3.267396e+06 -1.007291e+03 6.928019e+03
3.371866e+06 1.930148e+02 7.890304e+03
3.371818e+06 1.013874e+02 -1.011598e+04
3.261422e+06 -1.932045e+03 4.821625e+03
3.266230e+06 -9.971209e+02 6.285920e+03
3.265592e+06 -2.651262e+03 -4.969875e+03
3.369972e+06 1.539201e+02 7.917121e+03
3.369934e+06 8.693938e+01 -1.014995e+04
3.260755e+06 -1.876462e+03 4.203326e+03
3.265189e+06 -9.802149e+02 5.649227e+03
3.368074e+06 1.147952e+02 7.936189e+03
3.368045e+06 7.242274e+01 -1.017402e+04
3.260202e+06 -1.816622e+03 3.601996e+03
3.264269e+06 -9.587259e+02 5.022191e+03
3.263648e+06 -2.562972e+03 -4.010799e+03
3.259757e+06 -1.753828e+03 3.019414e+03
3.263465e+06 -9.340149e+02 4.408250e+03
3.265076e+06 -1.789143e+03 -3.653143e+03
3.364263e+06 4.317915e+01 -1.019261e+04
3.259414e+06 -1.688999e+03 2.456842e+03
3.262774e+06 -9.069639e+02 3.810051e+03
3.360476e+06 -4.206114e+01 7.935261e+03
3.360485e+06 1.364855e+01 -1.017190e+04
3.259169e+06 -1.622788e+03 1.915157e+03
3.262191e+06 -8.781690e+02 3.229565e+03
3.358583e+06 -8.139060e+01 7.915789e+03
3.358602e+06 -1.227707e+00 -1.014686e+04
3.259017e+06 -1.555651e+03 1.394953e+03
3.261712e+06 -8.480520e+02 2.668223e+03
3.356698e+06 -1.207834e+02 7.888636e+03
3.356726e+06 -1.618009e+01 -1.011204e+04
3.258953e+06 -1.487909e+03 8.966187e+02
3.261332e+06 -8.169223e+02 2.127035e+03
3.354820e+06 -1.602534e+02 7.853802e+03
3.354858e+06 -3.121149e+01 -1.006745e+04
3.261046e+06 -7.850133e+02 1.606695e+03
3.351097e+06 -2.395083e+02 7.761075e+03
3.353000e+06 -4.632563e+01 -1.001310e+04
3.260852e+06 -7.525042e+02 1.107665e+03
3.351154e+06 -6.152876e+01 -9.948991e+03
3.259252e+06 -1.282925e+03 -4.652237e+02
3.260744e+06 -7.195336e+02 6.302370e+02
3.349255e+06 -2.793491e+02 7.703156e+03
3.349322e+06 -7.683049e+01 -9.875104e+03
3.259501e+06 -1.214361e+03 -8.745235e+02
3.260719e+06 -6.862086e+02 1.745855e+02
3.260278e+06 -1.921230e+03 -5.928330e+02
3.347428e+06 -3.193799e+02 7.637509e+03
3.347505e+06 -9.224657e+01 -9.791422e+03
3.259820e+06 -1.145769e+03 -1.261476e+03
3.260773e+06 -6.526128e+02 -2.591969e+02
3.260275e+06 -1.831323e+03 -2.349875e+02
3.345618e+06 -3.596426e+02 7.564114e+03
3.345705e+06 -1.078030e+02 -9.697920e+03
3.260203e+06 -1.077173e+03 -1.626097e+03
3.260902e+06 -6.188111e+02 -6.710716e+02
3.343827e+06 -4.001720e+02 7.482962e+03
3.343924e+06 -1.235387e+02 -9.594568e+03
3.260648e+06 -1.008589e+03 -1.968409e+03
3.261102e+06 -5.848539e+02 -1.061034e+03
3.342056e+06 -4.409829e+02 7.394058e+03
3.342163e+06 -1.394782e+02 -9.481337e+03
3.261150e+06 -9.400214e+02 -2.288437e+03
3.261369e+06 -5.507809e+02 -1.429098e+03
3.340308e+06 -4.820613e+02 7.297404e+03
3.340425e+06 -1.555970e+02 -9.358202e+03
3.261706e+06 -8.714747e+02 -2.586201e+03
3.261700e+06 -5.166237e+02 -1.775288e+03
3.261367e+06 -1.379037e+03 1.297093e+03
3.262311e+06 -8.029487e+02 -2.861718e+03
3.262090e+06 -4.824069e+02 -2.099631e+03
3.337023e+06 -1.882108e+02 -9.082093e+03
3.262963e+06 -7.344420e+02 -3.114997e+03
3.262536e+06 -4.481508e+02 -2.402151e+03
3.262248e+06 -1.198145e+03 1.789488e+03
3.333574e+06 -6.482762e+02 6.833001e+03
3.333732e+06 -2.211664e+02 -8.766037e+03
3.263657e+06 -6.659526e+02 -3.346043e+03
3.263033e+06 -4.138718e+02 -2.682869e+03
3.263323e+06 -8.156247e+02 1.878607e+03
3.331964e+06 -6.901252e+02 6.697355e+03
3.332132e+06 -2.377386e+02 -8.592993e+03
3.264390e+06 -5.974782e+02 -3.554851e+03
3.263579e+06 -3.795843e+02 -2.941800e+03
3.330387e+06 -7.320401e+02 6.553864e+03
3.330566e+06 -2.543615e+02 -8.409934e+03
3.265157e+06 -5.290161e+02 -3.741414e+03
3.264169e+06 -3.452998e+02 -3.178951e+03
3.327340e+06 -8.160079e+02 6.243333e+03
3.329035e+06 -2.710282e+02 -8.216860e+03
3.265955e+06 -4.605650e+02 -3.905717e+03
3.264800e+06 -3.110294e+02 -3.394323e+03
3.327540e+06 -2.877322e+02 -8.013775e+03
3.266780e+06 -3.921240e+02 -4.047743e+03
3.265467e+06 -2.767825e+02 -3.587911e+03
3.325873e+06 -8.580388e+02 6.076289e+03
3.326084e+06 -3.044678e+02 -7.800683e+03
3.266167e+06 -2.425686e+02 -3.759702e+03
3.323062e+06 -9.421571e+02 5.718654e+03
3.324667e+06 -3.212290e+02 -7.577590e+03
3.266895e+06 -2.083970e+02 -3.909682e+03
3.323293e+06 -3.380103e+02 -7.344504e+03
3.269381e+06 -1.869061e+02 -4.339986e+03
3.267649e+06 -1.742779e+02 -4.037830e+03
3.321722e+06 -9.842350e+02 5.528066e+03
3.321963e+06 -3.548063e+02 -7.101428e+03
3.270276e+06 -1.185805e+02 -4.392761e+03
3.268424e+06 -1.402230e+02 -4.144129e+03
3.267540e+06 -4.757778e+02 3.072789e+03
3.320426e+06 -1.026321e+03 5.329635e+03
3.320678e+06 -3.716115e+02 -6.848369e+03
3.271180e+06 -5.034664e+01 -4.423240e+03
3.269217e+06 -1.062466e+02 -4.228563e+03
3.319178e+06 -1.068413e+03 5.123362e+03
3.319441e+06 -3.884209e+02 -6.585329e+03
3.272087e+06 1.773488e+01 -4.431480e+03
3.270023e+06 -7.236610e+01 -4.291124e+03
3.317979e+06 -1.110511e+03 4.909246e+03
3.318252e+06 -4.052288e+02 -6.312309e+03
3.272994e+06 8.557094e+01 -4.417588e+03
3.270838e+06 -3.860486e+01 -4.331823e+03
3.273897e+06 1.530234e+02 -4.381743e+03
3.271659e+06 -4.993289e+00 -4.350694e+03
3.316029e+06 -4.388181e+02 -5.736331e+03
3.274792e+06 2.198890e+02 -4.324224e+03
3.272482e+06 2.842733e+01 -4.347812e+03
3.272506e+06 6.386293e+01 3.315325e+03
3.313708e+06 -1.278956e+03 3.974287e+03
3.314023e+06 -4.723342e+02 -5.120403e+03
3.275674e+06 2.858735e+02 -4.245450e+03
3.273303e+06 6.160316e+01 -4.323309e+03
3.312781e+06 -1.321091e+03 3.720886e+03
3.313105e+06 -4.890503e+02 -4.797436e+03
3.276538e+06 3.505557e+02 -4.146028e+03
3.274117e+06 9.446166e+01 -4.277403e+03
3.274184e+06 2.402143e+02 3.261311e+03
3.311912e+06 -1.363242e+03 3.459595e+03
3.312248e+06 -5.057305e+02 -4.464447e+03
3.277380e+06 4.133321e+02 -4.026819e+03
3.274921e+06 1.269050e+02 -4.210421e+03
3.274391e+06 2.007314e+02 3.177115e+03
3.310361e+06 -1.447608e+03 2.913268e+03
3.311451e+06 -5.223677e+02 -4.121419e+03
3.278193e+06 4.733440e+02 -3.889015e+03
3.275711e+06 1.588006e+02 -4.122849e+03
3.310717e+06 -5.389546e+02 -3.768329e+03
3.278973e+06 5.293669e+02 -3.734229e+03
3.276482e+06 1.899638e+02 -4.015381e+03
3.309682e+06 -1.489832e+03 2.628187e+03
3.310049e+06 -5.554832e+02 -3.405151e+03
3.279712e+06 5.796772e+02 -3.564578e+03
3.277230e+06 2.201296e+02 -3.888977e+03
3.309069e+06 -1.532084e+03 2.335129e+03
3.309446e+06 -5.719437e+02 -3.031855e+03
3.280403e+06 6.219242e+02 -3.382693e+03
3.277951e+06 2.489021e+02 -3.744937e+03
3.277376e+06 5.695342e+02 2.968706e+03
3.308525e+06 -1.574361e+03 2.034069e+03
3.308912e+06 -5.883244e+02 -2.648410e+03
3.281041e+06 6.532438e+02 -3.191445e+03
3.278641e+06 2.756655e+02 -3.584965e+03
3.278114e+06 6.416827e+02 2.862533e+03
3.308051e+06 -1.616650e+03 1.724987e+03
3.308449e+06 -6.046107e+02 -2.254784e+03
3.281619e+06 6.715267e+02 -2.992851e+03
3.279297e+06 2.994394e+02 -3.411200e+03
3.307648e+06 -1.658926e+03 1.407870e+03
3.308056e+06 -6.207842e+02 -1.850949e+03
3.282139e+06 6.771707e+02 -2.788353e+03
3.279914e+06 3.186662e+02 -3.226134e+03
3.307319e+06 -1.701142e+03 1.082722e+03
3.307738e+06 -6.368211e+02 -1.436885e+03
3.282601e+06 6.726948e+02 -2.580305e+03
3.280491e+06 3.311910e+02 -3.032310e+03
3.307066e+06 -1.743224e+03 7.495721e+02
3.307495e+06 -6.526895e+02 -1.012587e+03
3.283012e+06 6.608897e+02 -2.371599e+03
3.281025e+06 3.361014e+02 -2.832109e+03
3.283375e+06 6.439365e+02 -2.164756e+03
3.281517e+06 3.349118e+02 -2.627958e+03
3.307243e+06 -6.837419e+02 -1.334132e+02
3.283694e+06 6.234173e+02 -1.961778e+03
3.281966e+06 3.297001e+02 -2.422431e+03
3.306846e+06 -1.906786e+03 -6.606115e+02
3.307315e+06 -7.134256e+02 7.857695e+02
3.283973e+06 6.004515e+02 -1.764182e+03
3.282374e+06 3.218594e+02 -2.217963e+03
3.307240e+06 -1.980582e+03 -1.407683e+03
3.307478e+06 -7.274955e+02 1.259729e+03
3.284215e+06 5.758252e+02 -1.573094e+03
3.282742e+06 3.122651e+02 -2.016598e+03
3.282950e+06 8.245080e+02 1.608417e+03
3.307572e+06 -2.013061e+03 -1.789339e+03
3.307728e+06 -7.408437e+02 1.742630e+03
3.284422e+06 5.500900e+02 -1.389326e+03
3.283071e+06 3.014716e+02 -1.819953e+03
3.308067e+06 -7.532465e+02 2.233707e+03
3.284597e+06 5.236309e+02 -1.213462e+03
3.283364e+06 2.898399e+02 -1.629256e+03
3.283560e+06 7.710409e+02 1.312329e+03
3.307996e+06 -2.040987e+03 -2.174773e+03
3.308497e+06 -7.643949e+02 2.731872e+03
3.284740e+06 4.967160e+02 -1.045905e+03
3.283622e+06 2.776152e+02 -1.445419e+03
3.283142e+06 5.335926e+02 1.197968e+03
3.308516e+06 -2.062680e+03 -2.562285e+03
3.309021e+06 -7.738458e+02 3.235622e+03
3.283847e+06 2.649695e+02 -1.269102e+03
3.309135e+06 -2.075986e+03 -2.949759e+03
3.309642e+06 -7.809330e+02 3.742931e+03
3.284041e+06 2.520265e+02 -1.100772e+03
3.309854e+06 -2.078246e+03 -3.334718e+03
3.310360e+06 -7.846162e+02 4.251167e+03
3.285007e+06 4.147924e+02 -5.954154e+02
3.284205e+06 2.388769e+02 -9.407532e+02
3.310677e+06 -2.066378e+03 -3.714537e+03
3.311178e+06 -7.832323e+02 4.757083e+03
3.285046e+06 3.873746e+02 -4.630577e+02
3.284342e+06 2.255870e+02 -7.892627e+02
3.284368e+06 6.378510e+02 7.768448e+02
3.311604e+06 -2.037345e+03 -4.086972e+03
3.312096e+06 -7.741805e+02 5.257031e+03
3.285063e+06 3.599722e+02 -3.396979e+02
3.284452e+06 2.122049e+02 -6.464419e+02
3.312633e+06 -1.989192e+03 -4.450826e+03
3.313113e+06 -7.545455e+02 5.747447e+03
3.285060e+06 3.326000e+02 -2.253546e+02
3.284537e+06 1.987646e+02 -5.123776e+02
3.285037e+06 3.052659e+02 -1.200335e+02
3.284599e+06 1.852910e+02 -3.871203e+02
3.315439e+06 -6.865459e+02 6.685975e+03
3.284997e+06 2.779697e+02 -2.373231e+01
3.284640e+06 1.718001e+02 -2.706945e+02
3.317726e+06 -1.629495e+03 -5.798531e+03
3.318123e+06 -5.978069e+02 7.544179e+03
3.284941e+06 2.507089e+02 6.355529e+01
3.284660e+06 1.583030e+02 -1.631101e+02
3.319217e+06 -1.511655e+03 -6.097413e+03
3.319586e+06 -5.496574e+02 7.935348e+03
3.284871e+06 2.234786e+02 1.418374e+02
3.284662e+06 1.448059e+02 -6.436596e+01
3.322415e+06 -1.259205e+03 -6.633621e+03
3.321121e+06 -5.000474e+02 8.298219e+03
3.284788e+06 1.962723e+02 2.111221e+02
3.284648e+06 1.313126e+02 2.554331e+01
3.322722e+06 -4.494488e+02 8.631196e+03
3.284693e+06 1.690842e+02 2.714168e+02
3.284618e+06 1.178248e+02 1.066261e+02
3.324108e+06 -1.127593e+03 -6.867804e+03
3.324383e+06 -3.981929e+02 8.933098e+03
3.284589e+06 1.419080e+02 3.227278e+02
3.284574e+06 1.043425e+02 1.788915e+02
3.284649e+06 2.776535e+02 -1.023230e+02
3.325855e+06 -9.938038e+02 -7.077866e+03
3.326097e+06 -3.465209e+02 9.203063e+03
3.284476e+06 1.147379e+02 3.650595e+02
3.284519e+06 9.086525e+01 2.423472e+02
3.327651e+06 -8.585626e+02 -7.263031e+03
3.327859e+06 -2.946129e+02 9.440469e+03
3.284357e+06 8.756876e+01 3.984150e+02
3.284452e+06 7.739166e+01 2.970006e+02
3.284509e+06 2.057195e+02 -1.950704e+02
3.329487e+06 -7.223981e+02 -7.422732e+03
3.329663e+06 -2.426039e+02 9.644872e+03
3.284233e+06 6.039574e+01 4.227959e+02
3.284377e+06 6.392088e+01 3.428570e+02
3.331359e+06 -5.856882e+02 -7.556564e+03
3.331501e+06 -1.905958e+02 9.815958e+03
3.284105e+06 3.321566e+01 4.382032e+02
3.284294e+06 5.045149e+01 3.799201e+02
3.284334e+06 1.327013e+02 -2.192827e+02
3.333260e+06 -4.486963e+02 -7.664238e+03
3.333368e+06 -1.386637e+02 9.953499e+03
3.283975e+06 6.025783e+00 4.446373e+02
3.284206e+06 3.698285e+01 4.081921e+02
3.335184e+06 -3.116013e+02 -7.745551e+03
3.335258e+06 -8.686400e+01 1.005733e+04
3.283845e+06 -2.117437e+01 4.420992e+02
3.284113e+06 2.351417e+01 4.276737e+02
3.337124e+06 -1.745197e+02 -7.800358e+03
3.337165e+06 -3.523587e+01 1.012734e+04
3.283716e+06 -4.838349e+01 4.305920e+02
3.284017e+06 1.004634e+01 4.383654e+02
3.283590e+06 -7.559531e+01 4.101225e+02
3.283921e+06 -3.419658e+00 4.402670e+02
3.341005e+06 6.740633e+01 1.016550e+04
3.283467e+06 -1.028002e+02 3.807041e+02
3.283824e+06 -1.688128e+01 4.333800e+02
3.346861e+06 5.091218e+02 -7.673877e+03
3.344838e+06 1.691524e+02 1.006737e+04
3.283351e+06 -1.299791e+02 3.423602e+02
3.283730e+06 -3.033412e+01 4.177076e+02
3.348772e+06 6.454576e+02 -7.568068e+03
3.346736e+06 2.196847e+02 9.967023e+03
3.283242e+06 -1.571038e+02 2.951301e+02
3.283639e+06 -4.377149e+01 3.932588e+02
3.348614e+06 2.699971e+02 9.832405e+03
3.283142e+06 -1.841302e+02 2.390749e+02
3.283553e+06 -5.718397e+01 3.600496e+02
3.350657e+06 7.816968e+02 -7.435302e+03
3.350466e+06 3.200996e+02 9.663444e+03
3.283053e+06 -2.109941e+02 1.742880e+02
3.283474e+06 -7.055801e+01 3.181091e+02
3.352508e+06 9.178642e+02 -7.275526e+03
3.352284e+06 3.700053e+02 9.460070e+03
3.282977e+06 -2.376010e+02 1.009068e+02
3.283404e+06 -8.387525e+01 2.674836e+02
3.354320e+06 1.053986e+03 -7.088682e+03
3.354063e+06 4.197295e+02 9.222208e+03
3.282914e+06 -2.638163e+02 1.912890e+01
3.283343e+06 -9.711095e+01 2.082460e+02
3.356086e+06 1.190090e+03 -6.874716e+03
3.355797e+06 4.692896e+02 8.949785e+03
3.283294e+06 -1.102314e+02 1.405051e+02
3.283228e+06 -2.948413e+02 -7.286918e+01
3.357800e+06 1.326200e+03 -6.633568e+03
3.357478e+06 5.187047e+02 8.642725e+03
3.283257e+06 -1.231915e+02 6.441965e+01
3.359456e+06 1.462339e+03 -6.365186e+03
3.359101e+06 5.679936e+02 8.300956e+03
3.282832e+06 -3.377471e+02 -2.732198e+02
3.283236e+06 -1.359293e+02 -1.978477e+01
3.283154e+06 -3.622918e+02 5.109426e+01
3.361047e+06 1.598517e+03 -6.069523e+03
3.360659e+06 6.171747e+02 7.924411e+03
3.282847e+06 -3.594753e+02 -3.845518e+02
3.283231e+06 -1.483586e+02 -1.117945e+02
3.362566e+06 1.734733e+03 -5.746547e+03
3.362145e+06 6.662637e+02 7.513030e+03
3.282888e+06 -3.786412e+02 -5.014947e+02
3.283244e+06 -1.603535e+02 -2.111838e+02
3.364008e+06 1.870958e+03 -5.396248e+03
3.363554e+06 7.152727e+02 7.066773e+03
3.282957e+06 -3.942454e+02 -6.229979e+02
3.283277e+06 -1.717238e+02 -3.173882e+02
3.366684e+06 1.660104e+03 3.892655e+03
3.365365e+06 2.007128e+03 -5.018658e+03
3.364879e+06 7.642060e+02 6.585626e+03
3.283056e+06 -4.052878e+02 -7.481184e+02
3.283331e+06 -1.821722e+02 -4.296861e+02
3.283186e+06 -4.114356e+02 -8.762998e+02
3.283408e+06 -1.912241e+02 -5.472051e+02
3.367249e+06 8.618051e+02 5.518841e+03
3.283348e+06 -4.133449e+02 -1.006875e+03
3.283508e+06 -1.981552e+02 -6.689950e+02
3.369819e+06 2.547414e+03 -3.238703e+03
3.369203e+06 9.587833e+02 4.313874e+03
3.283539e+06 -4.120798e+02 -1.138802e+03
3.283634e+06 -2.022921e+02 -7.941483e+02
3.371367e+06 2.808403e+03 -2.193524e+03
3.370007e+06 1.006825e+03 3.660526e+03
3.283758e+06 -4.085563e+02 -1.271075e+03
3.283784e+06 -2.038076e+02 -9.217925e+02
3.370687e+06 1.054360e+03 2.974226e+03
3.284004e+06 -4.034552e+02 -1.402873e+03
3.283960e+06 -2.034966e+02 -1.050996e+03
3.371946e+06 2.933327e+03 -1.635624e+03
3.371237e+06 1.101134e+03 2.256121e+03
3.284275e+06 -3.972620e+02 -1.533562e+03
3.284161e+06 -2.019860e+02 -1.180823e+03
3.372385e+06 3.052272e+03 -1.056636e+03
3.371648e+06 1.146779e+03 1.507849e+03
3.284571e+06 -3.903181e+02 -1.662671e+03
3.284387e+06 -1.996759e+02 -1.310450e+03
3.372678e+06 3.162810e+03 -4.591628e+02
3.371915e+06 1.190742e+03 7.316849e+02
3.284890e+06 -3.828651e+02 -1.789855e+03
3.284638e+06 -1.968176e+02 -1.439216e+03
3.372815e+06 3.261776e+03 1.534846e+02
3.372030e+06 1.232175e+03 -6.928386e+01
3.285231e+06 -3.750711e+02 -1.914869e+03
3.284912e+06 -1.935730e+02 -1.566608e+03
3.372789e+06 3.345145e+03 7.772959e+02
3.371986e+06 1.269726e+03 -8.909834e+02
3.285595e+06 -3.670545e+02 -2.037540e+03
3.285209e+06 -1.900508e+02 -1.692246e+03
3.284791e+06 -5.179667e+02 1.219730e+03
3.372594e+06 3.408052e+03 1.407773e+03
3.371778e+06 1.301196e+03 -1.728254e+03
3.285980e+06 -3.588971e+02 -2.157749e+03
3.285529e+06 -1.863269e+02 -1.815850e+03
3.285091e+06 -5.094116e+02 1.317366e+03
3.372223e+06 3.445196e+03 2.040548e+03
3.371401e+06 1.323007e+03 -2.574993e+03
3.286386e+06 -3.506552e+02 -2.275417e+03
3.285871e+06 -1.824558e+02 -1.937223e+03
3.371674e+06 3.452209e+03 2.672592e+03
3.370851e+06 1.329930e+03 -3.424864e+03
3.286812e+06 -3.423669e+02 -2.390494e+03
3.286235e+06 -1.784778e+02 -2.056227e+03
3.286124e+06 -4.798555e+02 1.601771e+03
3.370947e+06 3.427475e+03 3.302623e+03
3.370129e+06 1.319182e+03 -4.271908e+03
3.287258e+06 -3.340566e+02 -2.502949e+03
3.286620e+06 -1.744225e+02 -2.172769e+03
3.286655e+06 -3.352556e+02 1.606776e+03
3.287724e+06 -3.257400e+02 -2.612764e+03
3.287026e+06 -1.703123e+02 -2.286788e+03
3.368175e+06 1.259490e+03 -5.933226e+03
3.288209e+06 -3.174265e+02 -2.719932e+03
3.287452e+06 -1.661637e+02 -2.398247e+03
3.366326e+06 3.078062e+03 5.751916e+03
3.365580e+06 1.174728e+03 -7.510992e+03
3.288712e+06 -3.091209e+02 -2.824448e+03
3.287898e+06 -1.619887e+02 -2.507123e+03
3.364778e+06 2.951669e+03 6.326182e+03
3.364061e+06 1.127819e+03 -8.256754e+03
3.289233e+06 -3.008255e+02 -2.926315e+03
3.288363e+06 -1.577964e+02 -2.613406e+03
3.363089e+06 2.817066e+03 6.877915e+03
3.362404e+06 1.079111e+03 -8.969527e+03
3.288847e+06 -1.535928e+02 -2.717091e+03
3.361270e+06 2.676606e+03 7.404625e+03
3.360617e+06 1.029120e+03 -9.647174e+03
3.289349e+06 -1.493822e+02 -2.818178e+03
3.359327e+06 2.532049e+03 7.904449e+03
3.358709e+06 9.781909e+02 -1.028818e+04
3.290902e+06 -2.759998e+02 -3.216043e+03
3.289870e+06 -1.451679e+02 -2.916671e+03
3.357270e+06 2.384688e+03 8.376035e+03
3.356687e+06 9.265579e+02 -1.089151e+04
3.291492e+06 -2.677413e+02 -3.307339e+03
3.290408e+06 -1.409520e+02 -3.012571e+03
3.289780e+06 -3.935008e+02 2.276997e+03
3.355107e+06 2.235456e+03 8.818437e+03
3.354559e+06 8.743807e+02 -1.145648e+04
3.292097e+06 -2.594885e+02 -3.395999e+03
3.290963e+06 -1.367359e+02 -3.105882e+03
3.352844e+06 2.085012e+03 9.231021e+03
3.352333e+06 8.217655e+02 -1.198266e+04
3.292718e+06 -2.512403e+02 -3.482024e+03
3.291534e+06 -1.325204e+02 -3.196609e+03
3.290879e+06 -3.718306e+02 2.425495e+03
3.350490e+06 1.933808e+03 9.613383e+03
3.350015e+06 7.687806e+02 -1.246981e+04
3.293354e+06 -2.429951e+02 -3.565416e+03
3.292122e+06 -1.283063e+02 -3.284753e+03
3.348053e+06 1.782147e+03 9.965289e+03
3.347614e+06 7.154664e+02 -1.291783e+04
3.294005e+06 -2.347522e+02 -3.646174e+03
3.292725e+06 -1.240936e+02 -3.370316e+03
3.345539e+06 1.630220e+03 1.028662e+04
3.345137e+06 6.618431e+02 -1.332669e+04
3.294669e+06 -2.265100e+02 -3.724298e+03
3.293344e+06 -1.198834e+02 -3.453301e+03
3.293271e+06 -3.286202e+02 2.698059e+03
3.335521e+06 7.966268e+02 -1.092187e+04
3.342956e+06 1.478142e+03 1.057735e+04
3.342591e+06 6.079167e+02 -1.369645e+04
3.295348e+06 -2.182681e+02 -3.799787e+03
3.293978e+06 -1.156757e+02 -3.533706e+03
3.293907e+06 -3.178320e+02 2.761122e+03
3.296039e+06 -2.100266e+02 -3.872639e+03
3.294625e+06 -1.114707e+02 -3.611532e+03
3.294558e+06 -3.070455e+02 2.822156e+03
3.337321e+06 4.991348e+02 -1.431899e+04
3.296744e+06 -2.017854e+02 -3.942855e+03
3.295287e+06 -1.072689e+02 -3.686778e+03
3.295105e+06 -2.123870e+02 2.779126e+03
3.332081e+06 8.690788e+02 1.143518e+04
3.331862e+06 3.890356e+02 -1.478637e+04
3.297460e+06 -1.935459e+02 -4.010432e+03
3.295962e+06 -1.030711e+02 -3.759443e+03
3.329262e+06 7.166115e+02 1.157378e+04
3.329080e+06 3.334560e+02 -1.496221e+04
3.298189e+06 -1.853107e+02 -4.075374e+03
3.296651e+06 -9.887832e+01 -3.829525e+03
3.326417e+06 5.640225e+02 1.168224e+04
3.326272e+06 2.775049e+02 -1.509966e+04
3.297351e+06 -9.469214e+01 -3.897024e+03
3.323553e+06 4.112847e+02 1.176065e+04
3.323444e+06 2.211708e+02 -1.519885e+04
3.298064e+06 -9.051379e+01 -3.961939e+03
3.320676e+06 2.583715e+02 1.180912e+04
3.320605e+06 1.644447e+02 -1.525991e+04
3.300442e+06 -1.606854e+02 -4.254434e+03
3.298789e+06 -8.634625e+01 -4.024273e+03
3.317795e+06 1.052591e+02 1.182772e+04
3.317761e+06 1.073210e+02 -1.528296e+04
3.301213e+06 -1.525408e+02 -4.308910e+03
3.299525e+06 -8.219278e+01 -4.084029e+03
3.298737e+06 -2.423819e+02 3.145749e+03
3.314915e+06 -4.807192e+01 1.181655e+04
3.314918e+06 4.979858e+01 -1.526812e+04
3.301994e+06 -1.444607e+02 -4.360825e+03
3.300271e+06 -7.805858e+01 -4.141218e+03
3.312043e+06 -2.016339e+02 1.177570e+04
3.312084e+06 -8.119991e+00 -1.521551e+04
3.302784e+06 -1.364791e+02 -4.410227e+03
3.301027e+06 -7.394925e+01 -4.195854e+03
3.300225e+06 -2.209683e+02 3.237465e+03
3.309187e+06 -3.554291e+02 1.170524e+04
3.309265e+06 -6.642510e+01 -1.512524e+04
3.303583e+06 -1.286439e+02 -4.457185e+03
3.301794e+06 -6.987377e+01 -4.247962e+03
3.306352e+06 -5.094444e+02 1.160528e+04
3.306469e+06 -1.251012e+02 -1.499741e+04
3.304389e+06 -1.210234e+02 -4.501794e+03
3.302570e+06 -6.584339e+01 -4.297579e+03
3.300776e+06 -8.179615e+02 1.131727e+04
3.303700e+06 -1.841231e+02 -1.483216e+04
3.305203e+06 -1.137160e+02 -4.544190e+03
3.303354e+06 -6.187379e+01 -4.344760e+03
3.298047e+06 -9.722812e+02 1.112951e+04
3.300968e+06 -2.434554e+02 -1.462959e+04
3.306023e+06 -1.068614e+02 -4.584556e+03
3.304147e+06 -5.798607e+01 -4.389584e+03
3.298277e+06 -3.030483e+02 -1.438987e+04
3.306849e+06 -1.006565e+02 -4.623131e+03
3.304948e+06 -5.421094e+01 -4.432158e+03
3.307680e+06 -9.536859e+01 -4.660211e+03
3.305756e+06 -5.059421e+01 -4.472630e+03
3.305726e+06 -1.514712e+02 3.499554e+03
3.293047e+06 -4.227245e+02 -1.379978e+04
3.308516e+06 -9.131804e+01 -4.696113e+03
3.306571e+06 -4.720707e+01 -4.511193e+03
3.287683e+06 -1.584486e+03 1.009321e+04
3.288064e+06 -5.423093e+02 -1.306427e+04
3.309355e+06 -8.872171e+01 -4.731051e+03
3.307392e+06 -4.416297e+01 -4.548086e+03
3.307366e+06 -1.365617e+02 3.560971e+03
3.285263e+06 -1.733842e+03 9.765465e+03
3.285681e+06 -6.016496e+02 -1.264327e+04
3.310197e+06 -8.750670e+01 -4.765189e+03
3.308219e+06 -4.164247e+01 -4.583591e+03
3.307877e+06 -9.209594e+01 3.482505e+03
3.282926e+06 -1.880031e+03 9.412057e+03
3.283380e+06 -6.603576e+02 -1.218788e+04
3.309053e+06 -3.988645e+01 -4.617988e+03
3.280679e+06 -2.021672e+03 9.034460e+03
3.281168e+06 -7.180829e+02 -1.169931e+04
3.309891e+06 -3.897260e+01 -4.651542e+03
3.278528e+06 -2.156947e+03 8.634595e+03
3.279050e+06 -7.743474e+02 -1.117924e+04
3.312751e+06 -8.924463e+01 -4.865684e+03
3.310736e+06 -3.871293e+01 -4.684525e+03
3.276482e+06 -2.283497e+03 8.214895e+03
3.277034e+06 -8.284738e+02 -1.062987e+04
3.313613e+06 -9.082878e+01 -4.899445e+03
3.311585e+06 -3.888165e+01 -4.717225e+03
3.310713e+06 -1.225852e+02 3.674000e+03
3.274547e+06 -2.398334e+03 7.778326e+03
3.275126e+06 -8.794627e+02 -1.005413e+04
3.314480e+06 -9.267193e+01 -4.933654e+03
3.312441e+06 -3.933019e+01 -4.749909e+03
3.272731e+06 -2.497802e+03 7.328288e+03
3.273333e+06 -9.257787e+02 -9.455708e+03
3.315353e+06 -9.468987e+01 -4.968431e+03
3.313302e+06 -3.996546e+01 -4.782799e+03
3.312419e+06 -1.231203e+02 3.727290e+03
3.271040e+06 -2.577740e+03 6.868289e+03
3.271660e+06 -9.650143e+02 -8.839092e+03
3.316233e+06 -9.682380e+01 -5.003863e+03
3.314169e+06 -4.072870e+01 -4.816070e+03
3.268050e+06 -2.664699e+03 5.928482e+03
3.270112e+06 -9.934968e+02 -8.209181e+03
3.317119e+06 -9.903242e+01 -5.040011e+03
3.315042e+06 -4.158109e+01 -4.849852e+03
3.268691e+06 -1.007482e+03 -7.570672e+03
3.318011e+06 -1.012875e+02 -5.076919e+03
3.315922e+06 -4.249655e+01 -4.884245e+03
3.266753e+06 -2.669564e+03 5.450784e+03
3.267398e+06 -1.007397e+03 -6.928022e+03
3.318911e+06 -1.035693e+02 -5.114616e+03
3.316807e+06 -4.345602e+01 -4.919317e+03
3.319818e+06 -1.058648e+02 -5.153121e+03
3.317700e+06 -4.444615e+01 -4.955118e+03
3.265192e+06 -9.803251e+02 -5.649312e+03
3.320731e+06 -1.081653e+02 -5.192447e+03
3.318599e+06 -4.545692e+01 -4.991683e+03
3.262855e+06 -2.500526e+03 3.539131e+03
3.263468e+06 -9.341287e+02 -4.408403e+03
3.321653e+06 -1.104654e+02 -5.232602e+03
3.319505e+06 -4.648103e+01 -5.029034e+03
3.262181e+06 -2.429469e+03 3.076926e+03
3.262777e+06 -9.070794e+02 -3.810234e+03
3.322581e+06 -1.127620e+02 -5.273591e+03
3.320419e+06 -4.751300e+01 -5.067187e+03
3.320391e+06 -1.462604e+02 3.977857e+03
3.261616e+06 -2.352286e+03 2.626237e+03
3.262194e+06 -8.782870e+02 -3.229775e+03
3.321339e+06 -4.854883e+01 -5.106151e+03
3.261156e+06 -2.270687e+03 2.188791e+03
3.261715e+06 -8.481731e+02 -2.668455e+03
3.322267e+06 -4.958598e+01 -5.145932e+03
3.322239e+06 -1.524823e+02 4.039534e+03
3.260797e+06 -2.185961e+03 1.765881e+03
3.261335e+06 -8.170467e+02 -2.127286e+03
3.325414e+06 -1.196198e+02 -5.401586e+03
3.323203e+06 -5.062234e+01 -5.186534e+03
3.322389e+06 -1.949625e+02 1.665489e+03
3.260532e+06 -2.099068e+03 1.358443e+03
3.261050e+06 -7.851418e+02 -1.606961e+03
3.326374e+06 -1.218959e+02 -5.445931e+03
3.324146e+06 -5.165662e+01 -5.227958e+03
3.260360e+06 -2.010712e+03 9.671368e+02
3.260855e+06 -7.526369e+02 -1.107943e+03
3.327342e+06 -1.241681e+02 -5.491120e+03
3.325097e+06 -5.268799e+01 -5.270206e+03
3.260271e+06 -1.831488e+03 2.345561e+02
3.260748e+06 -7.196709e+02 -6.305251e+02
3.328319e+06 -1.264384e+02 -5.537153e+03
3.326056e+06 -5.371606e+01 -5.313278e+03
3.325066e+06 -1.618278e+02 4.136872e+03
3.260347e+06 -1.741225e+03 -1.062445e+02
3.260723e+06 -6.863506e+02 -1.748807e+02
3.329305e+06 -1.287082e+02 -5.584033e+03
3.327024e+06 -5.474076e+01 -5.357177e+03
3.260777e+06 -6.527595e+02 2.588964e+02
3.330299e+06 -1.309792e+02 -5.631763e+03
3.327999e+06 -5.576158e+01 -5.401904e+03
3.260498e+06 -1.650777e+03 -4.298890e+02
3.260906e+06 -6.189628e+02 6.707674e+02
3.331302e+06 -1.332532e+02 -5.680348e+03
3.328984e+06 -5.677904e+01 -5.447461e+03
3.260721e+06 -1.560252e+03 -7.363272e+02
3.261106e+06 -5.850105e+02 1.060727e+03
3.332314e+06 -1.355326e+02 -5.729791e+03
3.329976e+06 -5.779299e+01 -5.493850e+03
3.261010e+06 -1.469714e+03 -1.025543e+03
3.261373e+06 -5.509425e+02 1.428790e+03
3.333335e+06 -1.378189e+02 -5.780099e+03
3.330978e+06 -5.880346e+01 -5.541076e+03
3.334365e+06 -1.401140e+02 -5.831277e+03
3.331988e+06 -5.981047e+01 -5.589143e+03
3.262094e+06 -4.825777e+02 2.099322e+03
3.335405e+06 -1.424188e+02 -5.883329e+03
3.333008e+06 -6.081378e+01 -5.638056e+03
3.262763e+06 -1.107948e+03 -2.010370e+03
3.263038e+06 -4.140516e+02 2.682560e+03
3.336454e+06 -1.447326e+02 -5.936261e+03
3.334037e+06 -6.181258e+01 -5.687821e+03
3.263331e+06 -1.017618e+03 -2.213649e+03
3.263584e+06 -3.797686e+02 2.941491e+03
3.335075e+06 -6.280600e+01 -5.738443e+03
3.263944e+06 -9.273187e+02 -2.399782e+03
3.264174e+06 -3.454889e+02 3.178643e+03
3.336123e+06 -6.379186e+01 -5.789928e+03
3.264596e+06 -8.370403e+02 -2.568772e+03
3.264805e+06 -3.112228e+02 3.394016e+03
3.339662e+06 -1.516843e+02 -6.100321e+03
3.337181e+06 -6.476713e+01 -5.842280e+03
3.337789e+06 -2.385049e+02 3.219711e+03
3.265285e+06 -7.467730e+02 -2.720618e+03
3.265472e+06 -2.769805e+02 3.587604e+03
3.340751e+06 -1.539637e+02 -6.156725e+03
3.338248e+06 -6.572694e+01 -5.895499e+03
3.337141e+06 -1.994877e+02 4.585455e+03
3.266007e+06 -6.565089e+02 -2.855316e+03
3.266172e+06 -2.427711e+02 3.759396e+03
3.341851e+06 -1.561814e+02 -6.213934e+03
3.339326e+06 -6.666435e+01 -5.949580e+03
3.339284e+06 -2.058179e+02 4.669639e+03
3.266758e+06 -5.662447e+02 -2.972857e+03
3.266901e+06 -2.086040e+02 3.909377e+03
3.342961e+06 -1.582897e+02 -6.271884e+03
3.340414e+06 -6.756938e+01 -6.004509e+03
3.339983e+06 -1.429688e+02 4.567008e+03
3.268332e+06 -3.857307e+02 -3.156437e+03
3.267655e+06 -1.744896e+02 4.037527e+03
3.344082e+06 -1.602168e+02 -6.330474e+03
3.341512e+06 -6.842796e+01 -6.060259e+03
3.268430e+06 -1.404392e+02 4.143827e+03
3.345215e+06 -1.618574e+02 -6.389549e+03
3.342620e+06 -6.922100e+01 -6.116781e+03
3.269146e+06 -2.955156e+02 -3.222473e+03
3.269222e+06 -1.064673e+02 4.228263e+03
3.346359e+06 -1.630596e+02 -6.448886e+03
3.343740e+06 -6.992171e+01 -6.173996e+03
3.269974e+06 -2.053791e+02 -3.271359e+03
3.270028e+06 -7.259122e+01 4.290827e+03
3.347515e+06 -1.636036e+02 -6.508165e+03
3.344871e+06 -7.049437e+01 -6.231785e+03
3.270812e+06 -1.153910e+02 -3.303138e+03
3.270844e+06 -3.883457e+01 4.331530e+03
3.348685e+06 -1.631751e+02 -6.566937e+03
3.346012e+06 -7.088988e+01 -6.289968e+03
3.271655e+06 -2.565981e+01 -3.317888e+03
3.271665e+06 -5.227722e+00 4.350406e+03
3.349868e+06 -1.613221e+02 -6.624586e+03
3.347166e+06 -7.104045e+01 -6.348290e+03
3.351066e+06 -1.573998e+02 -6.680288e+03
3.348331e+06 -7.085013e+01 -6.406387e+03
3.273309e+06 6.136075e+01 4.323035e+03
3.352281e+06 -1.505075e+02 -6.732985e+03
3.349508e+06 -7.017748e+01 -6.463764e+03
3.275002e+06 3.262779e+02 -3.210579e+03
3.274927e+06 1.266550e+02 4.210167e+03
3.350697e+06 -6.880411e+01 -6.519759e+03
3.275812e+06 4.105102e+02 -3.144149e+03
3.275717e+06 1.585473e+02 4.122609e+03
3.351898e+06 -6.638188e+01 -6.573517e+03
3.276603e+06 4.918914e+02 -3.063262e+03
3.276488e+06 1.897074e+02 4.015155e+03
3.356035e+06 -1.012760e+02 -6.861684e+03
3.353113e+06 -6.234732e+01 -6.624003e+03
3.278107e+06 6.415019e+02 -2.862822e+03
3.277236e+06 2.198703e+02 3.888767e+03
3.357321e+06 -7.469976e+01 -6.891979e+03
3.354339e+06 -5.583129e+01 -6.670094e+03
3.353078e+06 -1.874207e+02 5.177762e+03
3.278812e+06 7.066196e+02 -2.746319e+03
3.277958e+06 2.486397e+02 3.744745e+03
3.358619e+06 -4.466637e+01 -6.914179e+03
3.355576e+06 -4.610461e+01 -6.710716e+03
3.278648e+06 2.754000e+02 3.584793e+03
3.359926e+06 -1.221276e+01 -6.927112e+03
3.356824e+06 -3.347734e+01 -6.744822e+03
3.355553e+06 -1.437634e+02 5.233418e+03
3.279480e+06 7.626438e+02 -2.621341e+03
3.279304e+06 2.991706e+02 3.411050e+03
3.361239e+06 2.190230e+01 -6.929827e+03
3.358080e+06 -1.890050e+01 -6.771298e+03
3.358073e+06 -7.842387e+01 5.270247e+03
3.280107e+06 8.073900e+02 -2.489608e+03
3.279921e+06 3.183949e+02 3.226007e+03
3.362554e+06 5.714201e+01 -6.921598e+03
3.359344e+06 -3.080277e+00 -6.789033e+03
3.280691e+06 8.391443e+02 -2.352237e+03
3.280498e+06 3.309178e+02 3.032208e+03
3.363869e+06 9.313135e+01 -6.901882e+03
3.360611e+06 1.354112e+01 -6.797072e+03
3.359414e+06 -3.634674e+01 3.546929e+03
3.281231e+06 8.573807e+02 -2.209669e+03
3.281032e+06 3.358271e+02 2.832031e+03
3.365180e+06 1.296082e+02 -6.870283e+03
3.361881e+06 3.068752e+01 -6.794645e+03
3.281725e+06 8.630055e+02 -2.062482e+03
3.281524e+06 3.346376e+02 2.627902e+03
3.366486e+06 1.663911e+02 -6.826514e+03
3.363151e+06 4.818218e+01 -6.781164e+03
3.282174e+06 8.579411e+02 -1.912008e+03
3.281973e+06 3.294261e+02 2.422397e+03
3.367783e+06 2.033542e+02 -6.770371e+03
3.364418e+06 6.590690e+01 -6.756188e+03
3.282579e+06 8.443795e+02 -1.760046e+03
3.282381e+06 3.215856e+02 2.217948e+03
3.369070e+06 2.404120e+02 -6.701711e+03
3.365681e+06 8.378020e+01 -6.719393e+03
3.370344e+06 2.775072e+02 -6.620434e+03
3.366936e+06 1.017446e+02 -6.670548e+03
3.283078e+06 3.011976e+02 1.819970e+03
3.368182e+06 1.197580e+02 -6.609486e+03
3.283803e+06 7.397127e+02 -1.170161e+03
3.283629e+06 2.773414e+02 1.445462e+03
3.369416e+06 1.377913e+02 -6.536093e+03
3.284020e+06 7.067889e+02 -1.033165e+03
3.283854e+06 2.646964e+02 1.269155e+03
3.374062e+06 3.887155e+02 -6.300313e+03
3.370635e+06 1.558227e+02 -6.450288e+03
3.284206e+06 6.726140e+02 -9.018825e+02
3.284048e+06 2.517544e+02 1.100833e+03
3.375260e+06 4.257145e+02 -6.168063e+03
3.371839e+06 1.738384e+02 -6.352018e+03
3.370740e+06 3.826839e+02 5.005225e+03
3.284489e+06 6.020548e+02 -6.580432e+02
3.284212e+06 2.386058e+02 9.408215e+02
3.376433e+06 4.626723e+02 -6.023009e+03
3.373023e+06 1.918290e+02 -6.241245e+03
3.284348e+06 2.253172e+02 7.893364e+02
3.377579e+06 4.995919e+02 -5.865138e+03
3.374186e+06 2.097892e+02 -6.117943e+03
3.373151e+06 4.810591e+02 4.841269e+03
3.284590e+06 5.661799e+02 -5.459922e+02
3.284458e+06 2.119361e+02 6.465195e+02
3.378696e+06 5.364777e+02 -5.694441e+03
3.375325e+06 2.277167e+02 -5.982095e+03
3.284666e+06 5.301227e+02 -4.407226e+02
3.284544e+06 1.984973e+02 5.124582e+02
3.379781e+06 5.733353e+02 -5.510908e+03
3.376439e+06 2.456116e+02 -5.833687e+03
3.284720e+06 4.939797e+02 -3.423186e+02
3.284606e+06 1.850250e+02 3.872028e+02
3.380832e+06 6.101724e+02 -5.314531e+03
3.377525e+06 2.634758e+02 -5.672710e+03
3.284751e+06 4.578120e+02 -2.508286e+02
3.284646e+06 1.715355e+02 2.707786e+02
3.381847e+06 6.469966e+02 -5.105301e+03
3.378580e+06 2.813121e+02 -5.499153e+03
3.378768e+06 7.268173e+02 4.259428e+03
3.284763e+06 4.216561e+02 -1.662783e+02
3.284667e+06 1.580396e+02 1.631949e+02
3.382823e+06 6.838165e+02 -4.883210e+03
3.379602e+06 2.991248e+02 -5.313010e+03
3.284757e+06 3.855318e+02 -8.867718e+01
3.284669e+06 1.445441e+02 6.445127e+01
3.383757e+06 7.206412e+02 -4.648248e+03
3.380589e+06 3.169189e+02 -5.114272e+03
3.380801e+06 8.249829e+02 3.957645e+03
3.284733e+06 3.494470e+02 -1.802618e+01
3.284654e+06 1.310521e+02 -2.545771e+01
3.384649e+06 7.574799e+02 -4.400406e+03
3.381538e+06 3.346998e+02 -4.902930e+03
3.380687e+06 6.028823e+02 3.790351e+03
3.284694e+06 3.134024e+02 4.567940e+01
3.284624e+06 1.175657e+02 -1.065405e+02
3.385494e+06 7.943425e+02 -4.139675e+03
3.382447e+06 3.524734e+02 -4.678976e+03
3.383314e+06 3.702459e+02 -4.442400e+03
3.284578e+06 2.414175e+02 1.522821e+02
3.284525e+06 9.060826e+01 -2.422617e+02
3.384137e+06 3.880235e+02 -4.193192e+03
3.284327e+06 1.335935e+02 2.602641e+02
3.284384e+06 6.366642e+01 -3.427718e+02
3.387733e+06 9.051655e+02 -3.280059e+03
3.384913e+06 4.058120e+02 -3.931344e+03
3.284301e+06 5.019837e+01 -3.798349e+02
3.388372e+06 9.422073e+02 -2.967700e+03
3.385639e+06 4.236171e+02 -3.656845e+03
3.385185e+06 1.070534e+03 3.030053e+03
3.284230e+06 9.766467e+01 2.824304e+02
3.284212e+06 3.673071e+01 -4.081072e+02
3.388954e+06 9.793010e+02 -2.642439e+03
3.386313e+06 4.414433e+02 -3.369689e+03
3.284128e+06 6.173235e+01 2.976869e+02
3.284119e+06 2.326333e+01 -4.275890e+02
3.389476e+06 1.016437e+03 -2.304299e+03
3.386934e+06 4.592934e+02 -3.069872e+03
3.386609e+06 1.168984e+03 2.589601e+03
3.284024e+06 2.579428e+01 3.060356e+02
3.284024e+06 9.796918e+00 -4.382810e+02
3.389936e+06 1.053590e+03 -1.953324e+03
3.387498e+06 4.771677e+02 -2.757397e+03
3.283918e+06 -1.014951e+01 3.074788e+02
3.283927e+06 -3.668055e+00 -4.401831e+02
3.390331e+06 1.090716e+03 -1.589593e+03
3.388003e+06 4.950627e+02 -2.432278e+03
3.283813e+06 -4.609374e+01 3.020217e+02
3.283831e+06 -1.712830e+01 -4.332964e+02
3.390659e+06 1.127742e+03 -1.213229e+03
3.388447e+06 5.129698e+02 -2.094543e+03
3.283710e+06 -8.202744e+01 2.896734e+02
3.283736e+06 -3.057981e+01 -4.176249e+02
3.390918e+06 1.164551e+03 -8.244238e+02
3.388828e+06 5.308736e+02 -1.744250e+03
3.283610e+06 -1.179303e+02 2.704510e+02
3.283645e+06 -4.401611e+01 -3.931772e+02
3.391105e+06 1.200969e+03 -4.234646e+02
3.389142e+06 5.487489e+02 -1.381492e+03
3.283516e+06 -1.537697e+02 2.443826e+02
3.283560e+06 -5.742707e+01 -3.599696e+02
3.391216e+06 1.236732e+03 -1.076988e+01
3.389389e+06 5.665576e+02 -1.006418e+03
3.283428e+06 -1.894956e+02 2.115136e+02
3.283481e+06 -7.080013e+01 -3.180308e+02
3.391250e+06 1.271460e+03 4.130622e+02
3.389565e+06 5.842437e+02 -6.192533e+02
3.283349e+06 -2.250350e+02 1.719133e+02
3.283410e+06 -8.411617e+01 -2.674078e+02
3.391203e+06 1.304598e+03 8.471916e+02
3.389667e+06 6.017278e+02 -2.203331e+02
3.390070e+06 1.606254e+03 1.236545e+02
3.283279e+06 -2.602837e+02 1.256841e+02
3.283349e+06 -9.735091e+01 -2.081733e+02
3.389694e+06 6.188960e+02 1.898604e+02
3.389643e+06 6.355852e+02 6.106476e+02
3.390067e+06 1.693059e+03 -5.223821e+02
3.283177e+06 -3.292744e+02 1.398371e+01
3.283263e+06 -1.234295e+02 -6.435485e+01
3.390534e+06 1.384578e+03 2.197667e+03
3.389511e+06 6.515533e+02 1.041091e+03
3.388500e+06 2.101853e+03 -2.362440e+02
3.283135e+06 -3.945732e+02 -1.216244e+02
3.283237e+06 -1.485951e+02 1.118488e+02
3.390121e+06 1.399184e+03 2.657028e+03
3.389296e+06 6.664292e+02 1.479927e+03
3.283141e+06 -4.248813e+02 -1.974073e+02
3.283250e+06 -1.605892e+02 2.112318e+02
3.389604e+06 1.403737e+03 3.116725e+03
3.388995e+06 6.796227e+02 1.925504e+03
3.283167e+06 -4.528930e+02 -2.777787e+02
3.283283e+06 -1.719588e+02 3.174290e+02
3.388981e+06 1.396597e+03 3.575018e+03
3.388607e+06 6.901729e+02 2.375756e+03
3.389442e+06 1.793215e+03 -1.534014e+03
3.283215e+06 -4.778955e+02 -3.620804e+02
3.283337e+06 -1.824062e+02 4.297194e+02
3.388255e+06 1.378586e+03 4.030444e+03
3.388130e+06 6.965343e+02 2.828303e+03
3.283287e+06 -4.990828e+02 -4.496388e+02
3.283414e+06 -1.914578e+02 5.472300e+02
3.387429e+06 1.352182e+03 4.480591e+03
3.387563e+06 6.967012e+02 3.280767e+03
3.283384e+06 -5.157032e+02 -5.399159e+02
3.283514e+06 -1.983884e+02 6.690111e+02
3.386510e+06 1.319832e+03 4.922817e+03
3.386906e+06 6.902284e+02 3.730909e+03
3.283507e+06 -5.273342e+02 -6.326543e+02
3.283640e+06 -2.025249e+02 7.941554e+02
3.385503e+06 1.283376e+03 5.354908e+03
3.386161e+06 6.788112e+02 4.176409e+03
3.283655e+06 -5.340744e+02 -7.277130e+02
3.283790e+06 -2.040408e+02 9.217909e+02
3.384412e+06 1.244119e+03 5.775155e+03
3.385329e+06 6.642398e+02 4.614859e+03
3.283830e+06 -5.364968e+02 -8.247324e+02
3.283966e+06 -2.037303e+02 1.050987e+03
3.383243e+06 1.202970e+03 6.182285e+03
3.384413e+06 6.476499e+02 5.044074e+03
3.284031e+06 -5.354010e+02 -9.231012e+02
3.284167e+06 -2.022203e+02 1.180806e+03
3.382000e+06 1.160558e+03 6.575379e+03
3.383417e+06 6.297353e+02 5.462272e+03
3.284258e+06 -5.315678e+02 -1.022139e+03
3.284393e+06 -1.999105e+02 1.310427e+03
3.380686e+06 1.117316e+03 6.953784e+03
3.382342e+06 6.109251e+02 5.868076e+03
3.284509e+06 -5.256631e+02 -1.121213e+03
3.284644e+06 -1.970526e+02 1.439186e+03
3.381192e+06 5.914940e+02 6.260464e+03
3.285084e+06 -5.096649e+02 -1.317430e+03
3.284918e+06 -1.938084e+02 1.566573e+03
3.379971e+06 5.716247e+02 6.638696e+03
3.285407e+06 -5.003094e+02 -1.413810e+03
3.285215e+06 -1.902870e+02 1.692206e+03
3.376355e+06 9.851247e+02 7.997050e+03
3.378681e+06 5.514421e+02 7.002250e+03
3.374791e+06 9.407042e+02 8.313468e+03
3.377326e+06 5.310336e+02 7.350769e+03
3.379045e+06 1.435355e+03 -5.425276e+03
3.285877e+06 -1.826932e+02 1.937176e+03
3.373173e+06 8.962230e+02 8.614060e+03
3.375909e+06 5.104599e+02 7.684016e+03
3.374836e+06 1.496141e+03 -4.216689e+03
3.286505e+06 -4.695587e+02 -1.693200e+03
3.286626e+06 -1.746616e+02 2.172717e+03
3.371504e+06 8.517107e+02 8.898794e+03
3.374432e+06 4.897634e+02 8.001844e+03
3.376245e+06 1.318114e+03 -5.959122e+03
3.286914e+06 -4.588558e+02 -1.782640e+03
3.287032e+06 -1.705523e+02 2.286735e+03
3.369785e+06 8.071821e+02 9.167667e+03
3.372899e+06 4.689720e+02 8.304167e+03
3.287343e+06 -4.480586e+02 -1.870111e+03
3.287458e+06 -1.664044e+02 2.398192e+03
3.368021e+06 7.626408e+02 9.420691e+03
3.371312e+06 4.481032e+02 8.590944e+03
3.287791e+06 -4.372111e+02 -1.955577e+03
3.287904e+06 -1.622306e+02 2.507068e+03
3.366214e+06 7.180846e+02 9.657890e+03
3.369675e+06 4.271672e+02 8.862160e+03
3.288259e+06 -4.263413e+02 -2.039016e+03
3.288369e+06 -1.580392e+02 2.613350e+03
3.364366e+06 6.735069e+02 9.879291e+03
3.367990e+06 4.061687e+02 9.117825e+03
3.288746e+06 -4.154678e+02 -2.120416e+03
3.288853e+06 -1.538365e+02 2.717034e+03
3.362481e+06 6.288998e+02 1.008493e+04
3.366261e+06 3.851080e+02 9.357957e+03
3.289251e+06 -4.046009e+02 -2.199772e+03
3.289356e+06 -1.496268e+02 2.818122e+03
3.360562e+06 5.842536e+02 1.027483e+04
3.364490e+06 3.639832e+02 9.582584e+03
3.290314e+06 -3.829043e+02 -2.352353e+03
3.289876e+06 -1.454134e+02 2.916614e+03
3.358611e+06 5.395590e+02 1.044904e+04
3.362681e+06 3.427906e+02 9.791738e+03
3.290414e+06 -1.411985e+02 3.012514e+03
3.356632e+06 4.948066e+02 1.060759e+04
3.360835e+06 3.215251e+02 9.985453e+03
3.291446e+06 -3.612618e+02 -2.496773e+03
3.290969e+06 -1.369834e+02 3.105826e+03
3.358956e+06 3.001816e+02 1.016376e+04
3.291541e+06 -1.327687e+02 3.196552e+03
3.357048e+06 2.787542e+02 1.032670e+04
3.292037e+06 -3.504572e+02 -2.565929e+03
3.292128e+06 -1.285553e+02 3.284696e+03
3.350550e+06 3.601151e+02 1.098960e+04
3.355111e+06 2.572378e+02 1.047431e+04
3.292643e+06 -3.396603e+02 -2.633053e+03
3.292732e+06 -1.243438e+02 3.370260e+03
3.348484e+06 3.150480e+02 1.108584e+04
3.353151e+06 2.356270e+02 1.060661e+04
3.355274e+06 6.017283e+02 -8.149357e+03
3.346404e+06 2.698853e+02 1.116657e+04
3.351168e+06 2.139175e+02 1.072365e+04
3.293900e+06 -3.180826e+02 -2.761209e+03
3.344312e+06 2.246237e+02 1.123184e+04
3.349167e+06 1.921056e+02 1.082544e+04
3.351301e+06 4.819862e+02 -8.345275e+03
3.295215e+06 -2.965127e+02 -2.881246e+03
3.295294e+06 -1.075225e+02 3.686722e+03
3.342210e+06 1.792615e+02 1.128167e+04
3.347150e+06 1.701885e+02 1.091203e+04
3.295893e+06 -2.857287e+02 -2.938219e+03
3.295969e+06 -1.033256e+02 3.759387e+03
3.340103e+06 1.338010e+02 1.131611e+04
3.345120e+06 1.481646e+02 1.098344e+04
3.296584e+06 -2.749452e+02 -2.993163e+03
3.296657e+06 -9.913394e+01 3.829470e+03
3.337991e+06 8.824970e+01 1.133520e+04
3.343079e+06 1.260343e+02 1.103971e+04
3.343153e+06 2.418295e+02 -8.593834e+03
3.297288e+06 -2.641658e+02 -3.046078e+03
3.297358e+06 -9.494853e+01 3.896969e+03
3.335879e+06 4.262356e+01 1.133900e+04
3.341030e+06 1.037997e+02 1.108088e+04
3.298003e+06 -2.533939e+02 -3.096967e+03
3.298071e+06 -9.077132e+01 3.961885e+03
3.333769e+06 -3.050587e+00 1.132757e+04
3.338977e+06 8.146592e+01 1.110697e+04
3.339022e+06 1.214268e+02 -8.646910e+03
3.299469e+06 -2.319083e+02 -3.192690e+03
3.298795e+06 -8.660443e+01 4.024219e+03
3.331663e+06 -4.872930e+01 1.130100e+04
3.336921e+06 5.904180e+01 1.111804e+04
3.337952e+06 7.695961e+01 -8.443575e+03
3.299531e+06 -8.245192e+01 4.083976e+03
3.329565e+06 -9.434580e+01 1.125944e+04
3.334866e+06 3.654067e+01 1.111415e+04
3.300977e+06 -2.106121e+02 -3.280436e+03
3.300278e+06 -7.831834e+01 4.141165e+03
3.327477e+06 -1.398024e+02 1.120305e+04
3.332815e+06 1.398167e+01 1.109538e+04
3.301034e+06 -7.421007e+01 4.195802e+03
3.325402e+06 -1.849560e+02 1.113208e+04
3.330769e+06 -8.607507e+00 1.106182e+04
3.301746e+06 -2.001075e+02 -3.321384e+03
3.301801e+06 -7.013553e+01 4.247911e+03
3.328732e+06 -3.118922e+01 1.101364e+04
3.302524e+06 -1.897614e+02 -3.360446e+03
3.302576e+06 -6.610602e+01 4.297530e+03
3.326707e+06 -5.371268e+01 1.095102e+04
3.303311e+06 -1.796432e+02 -3.397690e+03
3.303361e+06 -6.213712e+01 4.344712e+03
3.319288e+06 -3.160647e+02 1.083567e+04
3.324696e+06 -7.610864e+01 1.087425e+04
3.304106e+06 -1.698445e+02 -3.433213e+03
3.304154e+06 -5.825016e+01 4.389538e+03
3.317297e+06 -3.568704e+02 1.071115e+04
3.322702e+06 -9.828118e+01 1.078370e+04
3.324638e+06 -2.950727e+02 -8.468400e+03
3.304909e+06 -1.604869e+02 -3.467139e+03
3.304954e+06 -5.447561e+01 4.432114e+03
3.315337e+06 -3.950195e+02 1.057538e+04
3.320728e+06 -1.200957e+02 1.067988e+04
3.313411e+06 -4.293505e+02 1.042971e+04
3.318776e+06 -1.413552e+02 1.056346e+04
3.320643e+06 -4.064885e+02 -8.320381e+03
3.306577e+06 -4.747322e+01 4.511153e+03
3.311524e+06 -4.583739e+02 1.027571e+04
3.316849e+06 -1.617608e+02 1.043532e+04
3.308188e+06 -1.311437e+02 -3.590352e+03
3.308226e+06 -4.191016e+01 4.583556e+03
3.309678e+06 -4.807412e+02 1.011465e+04
3.314951e+06 -1.808419e+02 1.029658e+04
3.309022e+06 -1.269198e+02 -3.618925e+03
3.309059e+06 -4.015466e+01 4.617956e+03
3.307875e+06 -4.962330e+02 9.947311e+03
3.313082e+06 -1.978506e+02 1.014855e+04
3.309861e+06 -1.241915e+02 -3.646800e+03
3.309898e+06 -3.924154e+01 4.651513e+03
3.306115e+06 -5.059696e+02 9.774789e+03
3.311246e+06 -2.116693e+02 9.992622e+03
3.311556e+06 -1.226548e+02 -3.700823e+03
3.310742e+06 -3.898232e+01 4.684499e+03
3.304396e+06 -5.114731e+02 9.598616e+03
3.309443e+06 -2.214811e+02 9.830103e+03
3.311592e+06 -3.915128e+01 4.717201e+03
3.302715e+06 -5.139870e+02 9.420191e+03
3.307674e+06 -2.277689e+02 9.662277e+03
3.313272e+06 -1.248064e+02 -3.753769e+03
3.312448e+06 -3.960017e+01 4.749887e+03
3.301071e+06 -5.144204e+02 9.240634e+03
3.305940e+06 -2.316780e+02 9.490509e+03
3.305788e+06 -6.782816e+02 -7.437266e+03
3.313309e+06 -4.023601e+01 4.782779e+03
3.299462e+06 -5.134166e+02 9.060797e+03
3.304241e+06 -2.340294e+02 9.316130e+03
3.314139e+06 -1.267516e+02 -3.780316e+03
3.314176e+06 -4.099948e+01 4.816052e+03
3.302577e+06 -2.353380e+02 9.140277e+03
3.302420e+06 -6.894321e+02 -7.170997e+03
3.315012e+06 -1.290765e+02 -3.807115e+03
3.315049e+06 -4.185264e+01 4.849836e+03
3.300946e+06 -2.359250e+02 8.963850e+03
3.302119e+06 -4.799353e+02 -6.914592e+03
3.315891e+06 -1.316736e+02 -3.834279e+03
3.315929e+06 -4.276823e+01 4.884230e+03
3.294839e+06 -5.056513e+02 8.525029e+03
3.299350e+06 -2.359971e+02 8.787534e+03
3.316776e+06 -1.344613e+02 -3.861894e+03
3.316814e+06 -4.372814e+01 4.919303e+03
3.293363e+06 -5.022407e+02 8.348783e+03
3.297786e+06 -2.356929e+02 8.611834e+03
3.299192e+06 -6.893197e+02 -6.898821e+03
3.317668e+06 -1.373791e+02 -3.890022e+03
3.317707e+06 -4.471859e+01 4.955105e+03
3.291919e+06 -4.986381e+02 8.174018e+03
3.296255e+06 -2.351095e+02 8.437114e+03
3.318566e+06 -1.403828e+02 -3.918711e+03
3.318606e+06 -4.572965e+01 4.991670e+03
3.290506e+06 -4.949154e+02 8.000830e+03
3.294756e+06 -2.343166e+02 8.263628e+03
3.296099e+06 -6.831646e+02 -6.626017e+03
3.319472e+06 -1.434410e+02 -3.947990e+03
3.319513e+06 -4.675386e+01 5.029022e+03
3.289123e+06 -4.911206e+02 7.829276e+03
3.293289e+06 -2.333656e+02 8.091548e+03
3.293135e+06 -6.740010e+02 -6.355714e+03
3.287771e+06 -4.872848e+02 7.659388e+03
3.291854e+06 -2.322949e+02 7.920990e+03
3.291701e+06 -6.688432e+02 -6.222049e+03
3.321346e+06 -4.882248e+01 5.106140e+03
3.286450e+06 -4.834270e+02 7.491181e+03
3.290450e+06 -2.311327e+02 7.752023e+03
3.290298e+06 -6.634770e+02 -6.089539e+03
3.324109e+06 -1.589885e+02 -4.103804e+03
3.323210e+06 -5.089648e+01 5.186523e+03
3.285157e+06 -4.795584e+02 7.324657e+03
3.289076e+06 -2.299000e+02 7.584688e+03
3.288925e+06 -6.579851e+02 -5.958254e+03
3.324153e+06 -5.193104e+01 5.227947e+03
3.283895e+06 -4.756847e+02 7.159812e+03
3.287733e+06 -2.286120e+02 7.419006e+03
3.287583e+06 -6.524239e+02 -5.828234e+03
3.326017e+06 -1.652119e+02 -4.170641e+03
3.325104e+06 -5.296274e+01 5.270195e+03
3.282661e+06 -4.718081e+02 6.996639e+03
3.286419e+06 -2.272799e+02 7.254983e+03
3.286271e+06 -6.468292e+02 -5.699503e+03
3.326064e+06 -5.399129e+01 5.313268e+03
3.281456e+06 -4.679289e+02 6.835126e+03
3.285136e+06 -2.259112e+02 7.092617e+03
3.284989e+06 -6.412234e+02 -5.572068e+03
3.326984e+06 -1.683206e+02 -4.205036e+03
3.327031e+06 -5.501599e+01 5.357167e+03
3.280280e+06 -4.640460e+02 6.675262e+03
3.283882e+06 -2.245116e+02 6.931900e+03
3.283736e+06 -6.356193e+02 -5.445930e+03
3.327959e+06 -1.714289e+02 -4.240085e+03
3.328007e+06 -5.603726e+01 5.401894e+03
3.282657e+06 -2.230847e+02 6.772821e+03
3.328942e+06 -1.745397e+02 -4.275790e+03
3.328991e+06 -5.705501e+01 5.447451e+03
3.281460e+06 -2.216328e+02 6.615369e+03
3.281318e+06 -6.244372e+02 -5.197520e+03
3.329934e+06 -1.776550e+02 -4.312153e+03
3.329984e+06 -5.806929e+01 5.493841e+03
3.276920e+06 -4.523573e+02 6.205453e+03
3.280292e+06 -2.201580e+02 6.459532e+03
3.280151e+06 -6.188612e+02 -5.075232e+03
3.330935e+06 -1.807781e+02 -4.349179e+03
3.330985e+06 -5.908006e+01 5.541067e+03
3.275855e+06 -4.484415e+02 6.052077e+03
3.279153e+06 -2.186610e+02 6.305299e+03
3.279012e+06 -6.132929e+02 -4.954209e+03
3.331945e+06 -1.839111e+02 -4.386871e+03
3.331996e+06 -6.008728e+01 5.589134e+03
3.274817e+06 -4.445133e+02 5.900301e+03
3.278041e+06 -2.171426e+02 6.152659e+03
3.276819e+06 -6.021698e+02 -4.715920e+03
3.332964e+06 -1.870570e+02 -4.425234e+03
3.333015e+06 -6.109086e+01 5.638047e+03
3.273806e+06 -4.405712e+02 5.750116e+03
3.276956e+06 -2.156032e+02 6.001602e+03
3.333992e+06 -1.902170e+02 -4.464274e+03
3.334044e+06 -6.209005e+01 5.687811e+03
3.272821e+06 -4.366145e+02 5.601515e+03
3.275899e+06 -2.140432e+02 5.852119e+03
3.274734e+06 -5.910464e+02 -4.482589e+03
3.335029e+06 -1.933911e+02 -4.503993e+03
3.335082e+06 -6.308364e+01 5.738434e+03
3.271862e+06 -4.326425e+02 5.454493e+03
3.274869e+06 -2.124629e+02 5.704203e+03
3.336077e+06 -1.965767e+02 -4.544396e+03
3.336130e+06 -6.406979e+01 5.789918e+03
3.270930e+06 -4.286548e+02 5.309043e+03
3.273865e+06 -2.108626e+02 5.557845e+03
3.273732e+06 -5.854789e+02 -4.367765e+03
3.270023e+06 -4.246516e+02 5.165160e+03
3.272888e+06 -2.092427e+02 5.413040e+03
3.272755e+06 -5.799057e+02 -4.254160e+03
3.338200e+06 -2.029500e+02 -4.627243e+03
3.338255e+06 -6.600512e+01 5.895488e+03
3.269141e+06 -4.206341e+02 5.022836e+03
3.271936e+06 -2.076039e+02 5.269781e+03
3.271805e+06 -5.743256e+02 -4.141769e+03
3.340364e+06 -2.091862e+02 -4.712727e+03
3.340421e+06 -6.784814e+01 6.004496e+03
3.268284e+06 -4.166036e+02 4.882066e+03
3.271011e+06 -2.059469e+02 5.128063e+03
3.270881e+06 -5.687389e+02 -4.030587e+03
3.341461e+06 -2.121490e+02 -4.756375e+03
3.341519e+06 -6.870711e+01 6.060243e+03
3.267452e+06 -4.125629e+02 4.742841e+03
3.270111e+06 -2.042726e+02 4.987879e+03
3.269982e+06 -5.631469e+02 -3.920608e+03
3.342569e+06 -2.149095e+02 -4.800536e+03
3.342628e+06 -6.950041e+01 6.116762e+03
3.266644e+06 -4.085171e+02 4.605149e+03
3.269236e+06 -2.025826e+02 4.849223e+03
3.269109e+06 -5.575526e+02 -3.811824e+03
3.343688e+06 -2.173504e+02 -4.845099e+03
3.343747e+06 -7.020161e+01 6.173974e+03
3.268385e+06 -2.008782e+02 4.712089e+03
3.344819e+06 -2.193084e+02 -4.889899e+03
3.344878e+06 -7.077460e+01 6.231759e+03
3.267560e+06 -1.991624e+02 4.576466e+03
3.267435e+06 -5.463789e+02 -3.597809e+03
3.345960e+06 -2.205576e+02 -4.934704e+03
3.346020e+06 -7.117097e+01 6.289938e+03
3.264364e+06 -3.964346e+02 4.201114e+03
3.266758e+06 -1.974382e+02 4.442343e+03
3.266635e+06 -5.408186e+02 -3.492552e+03
3.347113e+06 -2.207920e+02 -4.979195e+03
3.347173e+06 -7.132240e+01 6.348254e+03
3.263651e+06 -3.924765e+02 4.069360e+03
3.265981e+06 -1.957098e+02 4.309704e+03
3.265859e+06 -5.352965e+02 -3.388438e+03
3.348279e+06 -2.196043e+02 -5.022945e+03
3.348338e+06 -7.113311e+01 6.406345e+03
3.262961e+06 -3.885963e+02 3.938999e+03
3.265227e+06 -1.939827e+02 4.178528e+03
3.264378e+06 -5.244657e+02 -3.183525e+03
3.349457e+06 -2.164605e+02 -5.065407e+03
3.349515e+06 -7.046109e+01 6.463715e+03
3.262293e+06 -3.848365e+02 3.809967e+03
3.264497e+06 -1.922645e+02 4.048786e+03
3.350648e+06 -2.106789e+02 -5.105905e+03
3.350704e+06 -6.908836e+01 6.519701e+03
3.261647e+06 -3.812576e+02 3.682176e+03
3.263790e+06 -1.905652e+02 3.920439e+03
3.262988e+06 -5.141858e+02 -2.982732e+03
3.351853e+06 -2.014225e+02 -5.143662e+03
3.351906e+06 -6.666685e+01 6.573451e+03
3.261023e+06 -3.779447e+02 3.555513e+03
3.263105e+06 -1.888983e+02 3.793433e+03
3.354302e+06 -1.687857e+02 -5.207950e+03
3.353120e+06 -6.263346e+01 6.623928e+03
3.260420e+06 -3.750167e+02 3.429833e+03
3.262443e+06 -1.872834e+02 3.667697e+03
3.262327e+06 -5.094039e+02 -2.883717e+03
3.354346e+06 -5.611855e+01 6.670009e+03
3.259839e+06 -3.726319e+02 3.304960e+03
3.261803e+06 -1.857497e+02 3.543139e+03
3.261689e+06 -5.049774e+02 -2.785502e+03
3.356800e+06 -1.138418e+02 -5.254553e+03
3.355584e+06 -4.639347e+01 6.710620e+03
3.259277e+06 -3.709683e+02 3.180719e+03
3.261186e+06 -1.843421e+02 3.419641e+03
3.261072e+06 -5.010215e+02 -2.687976e+03
3.356832e+06 -3.376768e+01 6.744717e+03
3.258736e+06 -3.701242e+02 3.057001e+03
3.260590e+06 -1.831317e+02 3.297057e+03
3.260476e+06 -4.976680e+02 -2.591021e+03
3.258214e+06 -3.700294e+02 2.933707e+03
3.260015e+06 -1.822284e+02 3.175227e+03
3.259902e+06 -4.950501e+02 -2.494537e+03
3.359337e+06 -3.976729e+01 -5.280440e+03
3.359351e+06 -3.375062e+00 6.788911e+03
3.257714e+06 -3.705118e+02 2.810670e+03
3.259462e+06 -1.817633e+02 3.053991e+03
3.259349e+06 -4.932577e+02 -2.398464e+03
3.361895e+06 4.642583e+01 -5.279708e+03
3.361889e+06 3.038851e+01 6.794509e+03
3.258929e+06 -1.817512e+02 2.933200e+03
3.258817e+06 -4.922994e+02 -2.302779e+03
3.363176e+06 9.227588e+01 -5.267603e+03
3.363159e+06 4.788110e+01 6.781022e+03
3.258418e+06 -1.820723e+02 2.812699e+03
3.258306e+06 -4.920979e+02 -2.207431e+03
3.364455e+06 1.392949e+02 -5.246967e+03
3.364426e+06 6.560373e+01 6.756041e+03
3.256335e+06 -3.739691e+02 2.441470e+03
3.257928e+06 -1.826097e+02 2.692326e+03
3.257816e+06 -4.925247e+02 -2.112325e+03
3.365729e+06 1.871300e+02 -5.217421e+03
3.365689e+06 8.347481e+01 6.719242e+03
3.255918e+06 -3.754823e+02 2.317977e+03
3.257460e+06 -1.832869e+02 2.571932e+03
3.366996e+06 2.355203e+02 -5.178679e+03
3.366944e+06 1.014366e+02 6.670393e+03
3.255523e+06 -3.770840e+02 2.194140e+03
3.257012e+06 -1.840558e+02 2.451396e+03
3.256473e+06 -4.963174e+02 -1.827336e+03
3.368254e+06 2.842737e+02 -5.130533e+03
3.368190e+06 1.194478e+02 6.609328e+03
3.255148e+06 -3.787427e+02 2.069912e+03
3.256586e+06 -1.848857e+02 2.330623e+03
3.369499e+06 3.332534e+02 -5.072833e+03
3.369424e+06 1.374785e+02 6.535933e+03
3.254796e+06 -3.804361e+02 1.945256e+03
3.256182e+06 -1.857564e+02 2.209540e+03
3.255685e+06 -5.000222e+02 -1.636695e+03
3.371946e+06 4.315385e+02 -4.928387e+03
3.370644e+06 1.555074e+02 6.450127e+03
3.254465e+06 -3.821488e+02 1.820149e+03
3.255799e+06 -1.866537e+02 2.088092e+03
3.371847e+06 1.735204e+02 6.351855e+03
3.254156e+06 -3.838702e+02 1.694571e+03
3.255437e+06 -1.875675e+02 1.966241e+03
3.255323e+06 -5.020486e+02 -1.540989e+03
3.374317e+06 5.299298e+02 -4.744843e+03
3.373031e+06 1.915083e+02 6.241081e+03
3.253869e+06 -3.855929e+02 1.568510e+03
3.255097e+06 -1.884904e+02 1.843956e+03
3.254983e+06 -5.041435e+02 -1.444975e+03
3.374194e+06 2.094659e+02 6.117778e+03
3.253604e+06 -3.873124e+02 1.441958e+03
3.254780e+06 -1.894172e+02 1.721219e+03
3.254664e+06 -5.062828e+02 -1.348626e+03
3.375469e+06 5.791053e+02 -4.638332e+03
3.375334e+06 2.273911e+02 5.981929e+03
3.253361e+06 -3.890258e+02 1.314908e+03
3.254484e+06 -1.903434e+02 1.598014e+03
3.254368e+06 -5.084496e+02 -1.251924e+03
3.376595e+06 6.282561e+02 -4.521975e+03
3.376448e+06 2.452835e+02 5.833522e+03
3.253140e+06 -3.907314e+02 1.187355e+03
3.254209e+06 -1.912661e+02 1.474332e+03
3.254093e+06 -5.106316e+02 -1.154854e+03
3.377692e+06 6.773811e+02 -4.395760e+03
3.377533e+06 2.631451e+02 5.672544e+03
3.252942e+06 -3.924283e+02 1.059296e+03
3.253957e+06 -1.921830e+02 1.350165e+03
3.253728e+06 -1.930928e+02 1.225507e+03
3.253610e+06 -5.150120e+02 -9.595767e+02
3.379611e+06 2.987893e+02 5.312844e+03
3.253520e+06 -1.939942e+02 1.100355e+03
3.253402e+06 -5.172020e+02 -8.613572e+02
3.381753e+06 8.737164e+02 -3.792182e+03
3.381547e+06 3.343592e+02 4.902763e+03
3.252481e+06 -3.974693e+02 6.720430e+02
3.253334e+06 -1.948863e+02 9.747052e+02
3.253216e+06 -5.193897e+02 -7.627447e+02
3.382674e+06 9.227978e+02 -3.616573e+03
3.382456e+06 3.521303e+02 4.678809e+03
3.252372e+06 -3.991357e+02 5.419222e+02
3.253171e+06 -1.957688e+02 8.485543e+02
3.253052e+06 -5.215745e+02 -6.637356e+02
3.383553e+06 9.718965e+02 -3.431063e+03
3.383324e+06 3.699003e+02 4.442232e+03
3.252286e+06 -4.007971e+02 4.112761e+02
3.253031e+06 -1.966414e+02 7.218988e+02
3.252793e+06 -5.259393e+02 -4.645139e+02
3.384388e+06 1.021021e+03 -3.235643e+03
3.384146e+06 3.876755e+02 4.193025e+03
3.252223e+06 -4.024553e+02 2.800998e+02
3.252913e+06 -1.975038e+02 5.947356e+02
3.385913e+06 1.119383e+03 -2.815044e+03
3.384922e+06 4.054617e+02 3.931175e+03
3.252182e+06 -4.041121e+02 1.483874e+02
3.252818e+06 -1.983562e+02 4.670601e+02
3.252624e+06 -5.303094e+02 -2.636614e+02
3.385648e+06 4.232643e+02 3.656677e+03
3.252165e+06 -4.057694e+02 1.613266e+01
3.252745e+06 -1.991985e+02 3.388679e+02
3.387232e+06 1.217912e+03 -2.354734e+03
3.386323e+06 4.410879e+02 3.369521e+03
3.252170e+06 -4.074292e+02 -1.166715e+02
3.252695e+06 -2.000307e+02 2.101533e+02
3.252573e+06 -5.325022e+02 -1.626118e+02
3.386943e+06 4.589354e+02 3.069704e+03
3.252199e+06 -4.090932e+02 -2.500324e+02
3.252668e+06 -2.008528e+02 8.091020e+01
3.387808e+06 1.267220e+03 -2.109700e+03
3.387507e+06 4.768070e+02 2.757230e+03
3.252250e+06 -4.107627e+02 -3.839575e+02
3.252664e+06 -2.016642e+02 -4.886821e+01
3.252541e+06 -5.369169e+02 4.076253e+01
3.388325e+06 1.316521e+03 -1.854778e+03
3.388013e+06 4.946992e+02 2.432112e+03
3.252325e+06 -4.124377e+02 -5.184528e+02
3.252683e+06 -2.024644e+02 -1.791895e+02
3.252560e+06 -5.391427e+02 1.431001e+02
3.388782e+06 1.365761e+03 -1.590017e+03
3.388457e+06 5.126040e+02 2.094379e+03
3.252423e+06 -4.141166e+02 -6.535230e+02
3.252725e+06 -2.032523e+02 -3.100613e+02
3.252601e+06 -5.413819e+02 2.458791e+02
3.389174e+06 1.414853e+03 -1.315503e+03
3.388837e+06 5.305053e+02 1.744090e+03
3.252545e+06 -4.157943e+02 -7.891683e+02
3.252791e+06 -2.040258e+02 -4.414911e+02
3.252666e+06 -5.436326e+02 3.491045e+02
3.389501e+06 1.463660e+03 -1.031372e+03
3.389152e+06 5.483781e+02 1.381336e+03
3.252880e+06 -2.047819e+02 -5.734849e+02
3.252754e+06 -5.458892e+02 4.527780e+02
3.389759e+06 1.511983e+03 -7.378312e+02
3.389399e+06 5.661844e+02 1.006267e+03
3.252992e+06 -2.055162e+02 -7.060465e+02
3.252866e+06 -5.481405e+02 5.568973e+02
3.389946e+06 1.559534e+03 -4.351830e+02
3.389575e+06 5.838686e+02 6.191090e+02
3.253051e+06 -4.206871e+02 -1.199440e+03
3.253128e+06 -2.062217e+02 -8.391742e+02
3.253001e+06 -5.503667e+02 6.614518e+02
3.253267e+06 -4.221771e+02 -1.337198e+03
3.253287e+06 -2.068891e+02 -9.728596e+02
3.253160e+06 -5.525362e+02 7.664200e+02
3.389704e+06 6.185177e+02 -1.899862e+02
3.253507e+06 -4.235096e+02 -1.475339e+03
3.253470e+06 -2.075051e+02 -1.107081e+03
3.253549e+06 -5.564860e+02 9.774167e+02
3.389726e+06 1.765354e+03 1.192857e+03
3.389521e+06 6.511720e+02 -1.041192e+03
3.253772e+06 -4.245935e+02 -1.613733e+03
3.253677e+06 -2.080512e+02 -1.241801e+03
3.389306e+06 6.660464e+02 -1.480013e+03
3.254061e+06 -4.252978e+02 -1.752189e+03
3.253908e+06 -2.085024e+02 -1.376953e+03
3.254035e+06 -5.592678e+02 1.189225e+03
3.389047e+06 1.812131e+03 1.876541e+03
3.389006e+06 6.792384e+02 -1.925574e+03
3.254375e+06 -4.254345e+02 -1.890432e+03
3.254163e+06 -2.088254e+02 -1.512436e+03
3.388618e+06 6.897874e+02 -2.375807e+03
3.254714e+06 -4.247368e+02 -2.028076e+03
3.254443e+06 -2.089753e+02 -1.648098e+03
3.254314e+06 -5.598162e+02 1.295032e+03
3.388571e+06 1.821051e+03 2.219153e+03
3.388141e+06 6.961477e+02 -2.828336e+03
3.255081e+06 -4.228245e+02 -2.164589e+03
3.254747e+06 -2.088910e+02 -1.783720e+03
3.254619e+06 -5.594627e+02 1.400424e+03
3.388004e+06 1.818213e+03 2.560798e+03
3.387574e+06 6.963142e+02 -3.280779e+03
3.255474e+06 -4.191590e+02 -2.299253e+03
3.255075e+06 -2.084887e+02 -1.918987e+03
3.254948e+06 -5.578434e+02 1.505022e+03
3.387344e+06 1.803364e+03 2.901081e+03
3.386917e+06 6.898419e+02 -3.730901e+03
3.255896e+06 -4.129813e+02 -2.431124e+03
3.255429e+06 -2.076495e+02 -2.053471e+03
3.255302e+06 -5.544791e+02 1.608328e+03
3.386594e+06 1.777571e+03 3.239309e+03
3.386171e+06 6.784258e+02 -4.176382e+03
3.256349e+06 -4.032516e+02 -2.559019e+03
3.255808e+06 -2.061986e+02 -2.186589e+03
3.255683e+06 -5.487522e+02 1.709717e+03
3.385755e+06 1.742717e+03 3.574089e+03
3.385340e+06 6.638555e+02 -4.614815e+03
3.256212e+06 -2.038680e+02 -2.317581e+03
3.256090e+06 -5.398866e+02 1.808435e+03
3.384830e+06 1.700798e+03 3.903707e+03
3.384424e+06 6.472668e+02 -5.044015e+03
3.256641e+06 -2.002352e+02 -2.445486e+03
3.256523e+06 -5.269510e+02 1.903641e+03
3.383822e+06 1.653553e+03 4.226518e+03
3.383427e+06 6.293533e+02 -5.462199e+03
3.257896e+06 -3.415228e+02 -2.907080e+03
3.257095e+06 -1.946311e+02 -2.569170e+03
3.256982e+06 -5.089302e+02 1.994518e+03
3.382735e+06 1.602386e+03 4.541109e+03
3.382352e+06 6.105442e+02 -5.867991e+03
3.258471e+06 -3.099667e+02 -3.008331e+03
3.257575e+06 -1.860814e+02 -2.687449e+03
3.257467e+06 -4.849673e+02 2.080484e+03
3.381573e+06 1.548388e+03 4.846344e+03
3.381202e+06 5.911142e+02 -6.260368e+03
3.259071e+06 -2.747615e+02 -3.100254e+03
3.258078e+06 -1.739780e+02 -2.799210e+03
3.257978e+06 -4.547018e+02 2.161297e+03
3.380339e+06 1.492389e+03 5.141346e+03
3.379981e+06 5.712464e+02 -6.638591e+03
3.259692e+06 -2.369783e+02 -3.181637e+03
3.258603e+06 -1.588436e+02 -2.903344e+03
3.258512e+06 -4.184375e+02 2.236735e+03
3.377666e+06 1.376686e+03 5.698235e+03
3.378691e+06 5.510655e+02 -7.002137e+03
3.260331e+06 -1.974028e+02 -3.251500e+03
3.259149e+06 -1.416746e+02 -2.998667e+03
3.259067e+06 -3.770004e+02 2.306248e+03
3.377336e+06 5.306590e+02 -7.350649e+03
3.260983e+06 -1.565936e+02 -3.309092e+03
3.259714e+06 -1.231738e+02 -3.084025e+03
3.260235e+06 -2.825962e+02 2.424208e+03
3.261645e+06 -1.149448e+02 -3.353848e+03
3.260294e+06 -1.037883e+02 -3.158430e+03
3.374743e+06 1.258442e+03 6.208522e+03
3.374442e+06 4.893931e+02 -8.001716e+03
3.262316e+06 -7.273237e+01 -3.385354e+03
3.260889e+06 -8.380171e+01 -3.221089e+03
3.261460e+06 -1.783429e+02 2.508841e+03
3.371595e+06 1.139230e+03 6.670726e+03
3.371322e+06 4.477375e+02 -8.590810e+03
3.262991e+06 -3.014920e+01 -3.403306e+03
3.261494e+06 -6.339935e+01 -3.271390e+03
3.369943e+06 1.079499e+03 6.883608e+03
3.369685e+06 4.268038e+02 -8.862026e+03
3.263669e+06 1.267224e+01 -3.407486e+03
3.262108e+06 -4.270606e+01 -3.308874e+03
3.262088e+06 -1.240188e+02 2.537116e+03
3.368244e+06 1.019745e+03 7.084314e+03
3.368000e+06 4.058076e+02 -9.117690e+03
3.264347e+06 5.564252e+01 -3.397735e+03
3.262728e+06 -2.180985e+01 -3.333202e+03
3.262721e+06 -6.876361e+01 2.555452e+03
3.366501e+06 9.599877e+02 7.272849e+03
3.366271e+06 3.847494e+02 -9.357821e+03
3.263352e+06 -7.738649e-01 -3.344126e+03
3.263358e+06 -1.285199e+01 2.563538e+03
3.364715e+06 9.002339e+02 7.449225e+03
3.364500e+06 3.636269e+02 -9.582448e+03
3.263976e+06 2.035626e+01 -3.341466e+03
3.263997e+06 4.351654e+01 2.561144e+03
3.362891e+06 8.404838e+02 7.613465e+03
3.362690e+06 3.424364e+02 -9.791602e+03
3.266353e+06 1.849910e+02 -3.283871e+03
3.264599e+06 4.154793e+01 -3.325091e+03
3.264634e+06 1.002031e+02 2.548098e+03
3.361031e+06 7.807323e+02 7.765594e+03
3.360844e+06 3.211733e+02 -9.985317e+03
3.267004e+06 2.281976e+02 -3.217477e+03
3.265218e+06 6.277821e+01 -3.294906e+03
3.265267e+06 1.571148e+02 2.524270e+03
3.359138e+06 7.209715e+02 7.905638e+03
3.358966e+06 2.998320e+02 -1.016363e+04
3.267643e+06 2.714552e+02 -3.136769e+03
3.265831e+06 8.403127e+01 -3.250838e+03
3.265893e+06 2.141956e+02 2.489561e+03
3.357215e+06 6.611920e+02 8.033624e+03
3.357057e+06 2.784069e+02 -1.032657e+04
3.268267e+06 3.147800e+02 -3.041695e+03
3.266435e+06 1.052974e+02 -3.192824e+03
3.266511e+06 2.714164e+02 2.443891e+03
3.353289e+06 5.415392e+02 8.253530e+03
3.355120e+06 2.568926e+02 -1.047417e+04
3.268874e+06 3.581952e+02 -2.932198e+03
3.267027e+06 1.265710e+02 -3.120813e+03
3.267117e+06 3.287705e+02 2.387190e+03
3.353160e+06 2.352841e+02 -1.060648e+04
3.269461e+06 4.017256e+02 -2.808220e+03
3.267605e+06 1.478488e+02 -3.034751e+03
3.267710e+06 3.862656e+02 2.319397e+03
3.349277e+06 4.217014e+02 8.425512e+03
3.351177e+06 2.135769e+02 -1.072351e+04
3.270026e+06 4.453962e+02 -2.669700e+03
3.268167e+06 1.691293e+02 -2.934584e+03
3.268843e+06 5.017551e+02 2.150287e+03
3.349176e+06 1.917674e+02 -1.082530e+04
3.270566e+06 4.892280e+02 -2.516582e+03
3.268710e+06 1.904108e+02 -2.820254e+03
3.347245e+06 3.616958e+02 8.493593e+03
3.347159e+06 1.698526e+02 -1.091189e+04
3.271080e+06 5.332297e+02 -2.348819e+03
3.269232e+06 2.116890e+02 -2.691699e+03
3.269892e+06 6.180350e+02 1.936097e+03
3.345200e+06 3.016273e+02 8.549765e+03
3.345128e+06 1.478310e+02 -1.098331e+04
3.271565e+06 5.773897e+02 -2.166388e+03
3.269730e+06 2.329552e+02 -2.548857e+03
3.272018e+06 6.216622e+02 -1.969314e+03
3.270202e+06 2.541928e+02 -2.391670e+03
3.270378e+06 6.764709e+02 1.811983e+03
3.341039e+06 1.034708e+02 -1.108074e+04
3.272438e+06 6.659488e+02 -1.757691e+03
3.270645e+06 2.753736e+02 -2.220094e+03
3.270836e+06 7.350412e+02 1.676510e+03
3.336943e+06 6.087695e+01 8.656006e+03
3.336930e+06 5.871761e+01 -1.111791e+04
3.271057e+06 2.964523e+02 -2.034118e+03
3.271263e+06 7.936241e+02 1.529730e+03
3.334873e+06 6.981296e-01 8.653187e+03
3.334875e+06 3.621890e+01 -1.111402e+04
3.271435e+06 3.173604e+02 -1.833784e+03
3.271656e+06 8.520011e+02 1.371785e+03
3.332807e+06 -5.936084e+01 8.638770e+03
3.332823e+06 1.366239e+01 -1.109525e+04
3.273467e+06 7.964843e+02 -1.038641e+03
3.271777e+06 3.379966e+02 -1.619226e+03
3.272012e+06 9.098145e+02 1.202951e+03
3.330746e+06 -1.191905e+02 8.612887e+03
3.330777e+06 -8.924369e+00 -1.106170e+04
3.273724e+06 8.376390e+02 -7.731617e+02
3.272081e+06 3.582173e+02 -1.390716e+03
3.272329e+06 9.665101e+02 1.023707e+03
3.328695e+06 -1.786341e+02 8.575717e+03
3.328740e+06 -3.150412e+01 -1.101352e+04
3.273930e+06 8.762080e+02 -4.969190e+02
3.272342e+06 3.778235e+02 -1.148736e+03
3.272605e+06 1.021263e+03 8.348165e+02
3.326655e+06 -2.374728e+02 8.527507e+03
3.326715e+06 -5.402558e+01 -1.095091e+04
3.274083e+06 9.107820e+02 -2.121257e+02
3.272559e+06 3.965445e+02 -8.940672e+02
3.272834e+06 1.072883e+03 6.374479e+02
3.322622e+06 -3.520368e+02 8.399415e+03
3.324704e+06 -7.641952e+01 -1.087414e+04
3.274174e+06 9.393888e+02 7.807351e+01
3.272728e+06 4.140194e+02 -6.279160e+02
3.273015e+06 1.119697e+03 4.333156e+02
3.322710e+06 -9.859021e+01 -1.078359e+04
3.274195e+06 9.592924e+02 3.692981e+02
3.272847e+06 4.297736e+02 -3.520723e+02
3.273143e+06 1.159400e+03 2.248659e+02
3.318670e+06 -4.590945e+02 8.232725e+03
3.320735e+06 -1.204029e+02 -1.067978e+04
3.274137e+06 9.667150e+02 6.555470e+02
3.272911e+06 4.431907e+02 -6.911704e+01
3.273221e+06 1.203996e+03 -1.901637e+02
3.318784e+06 -1.416607e+02 -1.056337e+04
3.273986e+06 9.564211e+02 9.287122e+02
3.272916e+06 4.534704e+02 2.173193e+02
3.316732e+06 -5.079624e+02 8.136810e+03
3.316857e+06 -1.620644e+02 -1.043524e+04
3.273724e+06 9.210856e+02 1.177971e+03
3.272859e+06 4.595648e+02 5.022336e+02
3.273022e+06 1.167915e+03 -5.640877e+02
3.314823e+06 -5.523770e+02 8.033789e+03
3.314958e+06 -1.811437e+02 -1.029651e+04
3.273329e+06 8.503171e+02 1.389042e+03
3.272734e+06 4.600652e+02 7.788632e+02
3.312945e+06 -5.911668e+02 7.924639e+03
3.313090e+06 -1.981507e+02 -1.014849e+04
3.272775e+06 7.293178e+02 1.543356e+03
3.272536e+06 4.529878e+02 1.038227e+03
3.272802e+06 1.100826e+03 -7.144708e+02
3.311101e+06 -6.233034e+02 7.810087e+03
3.311253e+06 -2.119682e+02 -9.992577e+03
3.272029e+06 5.385720e+02 1.617618e+03
3.272262e+06 4.353632e+02 1.268610e+03
3.272490e+06 9.868699e+02 -8.251000e+02
3.309292e+06 -6.482984e+02 7.690454e+03
3.309450e+06 -2.217789e+02 -9.830070e+03
3.271907e+06 4.025439e+02 1.454985e+03
3.272082e+06 8.122343e+02 -8.821575e+02
3.270983e+06 -2.158325e+03 -1.955578e+00
3.307518e+06 -6.664328e+02 7.565988e+03
3.307682e+06 -2.280664e+02 -9.662257e+03
3.269851e+06 -1.654614e+02 1.427708e+03
3.271472e+06 3.477249e+02 1.578028e+03
3.271572e+06 5.599191e+02 -8.709859e+02
3.270965e+06 2.657484e+02 1.610934e+03
3.270964e+06 2.011631e+02 -7.743852e+02
3.304249e+06 -2.343268e+02 -9.316131e+03
3.270405e+06 1.265055e+02 1.558995e+03
3.268375e+06 -8.488659e+02 1.092053e+03
3.300781e+06 -6.907248e+02 7.035250e+03
3.300954e+06 -2.362219e+02 -8.963867e+03
3.269798e+06 -1.400715e+02 1.392289e+03
3.267007e+06 -1.437651e+03 7.292188e+02
3.269988e+06 -1.499527e+03 1.465810e+01
3.297621e+06 -6.870881e+02 6.762226e+03
3.299357e+06 -2.362937e+02 -8.787559e+03
3.270353e+06 -2.280568e+03 -1.775657e+02
3.269198e+06 -5.580172e+02 1.021985e+03
3.297794e+06 -2.359896e+02 -8.611866e+03
3.294593e+06 -6.791445e+02 6.490377e+03
3.296263e+06 -2.354063e+02 -8.437151e+03
3.294764e+06 -2.346136e+02 -8.263670e+03
3.269445e+06 -1.850774e+03 -2.008588e+01
3.270262e+06 -2.462545e+02 5.850753e+02
3.270761e+06 -1.515519e+03 -3.538977e+01
3.270295e+06 -2.371637e+02 -5.989350e+02
3.270563e+06 -1.935867e+03 -6.117188e+01
3.270950e+06 -1.917859e+03 -3.059984e+01
3.270951e+06 -1.918423e+03 2.706259e+01
3.270585e+06 -1.931247e+03 6.010972e+01
3.265015e+06 -2.066110e+03 -2.429344e+02
3.269564e+06 -7.886903e+02 -3.582792e+02
3.268169e+06 -9.513683e+02 -1.022861e+03
3.268994e+06 -2.327554e+03 2.410461e+02
3.269410e+06 -5.676881e+02 -9.521990e+02
3.270915e+06 -1.932775e+03 5.400560e+01
3.269850e+06 -1.237330e+02 -1.370470e+03
3.270654e+06 -1.904443e+03 1.258609e+02
3.270433e+06 1.216057e+02 -1.551949e+03
3.270639e+06 -1.561896e+03 1.932180e+02
3.270986e+06 2.625917e+02 -1.606793e+03
3.270941e+06 2.007913e+02 7.692781e+02
3.271487e+06 3.456903e+02 -1.575232e+03
3.271556e+06 5.596221e+02 8.695157e+02
3.271920e+06 4.012791e+02 -1.452828e+03
3.272068e+06 8.132829e+02 8.822510e+02
3.272274e+06 4.343770e+02 -1.267173e+03
3.272478e+06 9.878080e+02 8.256083e+02
3.272548e+06 4.522216e+02 -1.037276e+03
3.272790e+06 1.101447e+03 7.150499e+02
3.273148e+06 1.199525e+03 3.863992e+02
3.272745e+06 4.594556e+02 -7.782226e+02
3.272869e+06 4.590477e+02 -5.018013e+02
3.273202e+06 1.188841e+03 -1.535353e+01
3.272927e+06 4.530020e+02 -2.170365e+02
3.272921e+06 4.427457e+02 6.928647e+01
3.272857e+06 4.293395e+02 3.521530e+02
3.273132e+06 1.159286e+03 -2.248256e+02
3.272739e+06 4.135906e+02 6.279263e+02
3.273004e+06 1.119522e+03 -4.333636e+02
3.272569e+06 3.961197e+02 8.940215e+02
3.272824e+06 1.072657e+03 -6.375662e+02
3.272352e+06 3.774024e+02 1.148646e+03
3.272594e+06 1.020995e+03 -8.349894e+02
3.272091e+06 3.577999e+02 1.390592e+03
3.272319e+06 9.662093e+02 -1.023920e+03
3.271788e+06 3.375831e+02 1.619076e+03
3.272002e+06 9.094874e+02 -1.203195e+03
3.271446e+06 3.169512e+02 1.833616e+03
3.271645e+06 8.516537e+02 -1.372050e+03
3.271067e+06 2.960475e+02 2.033936e+03
3.271252e+06 7.932618e+02 -1.530010e+03
3.270655e+06 2.749728e+02 2.219903e+03
3.270826e+06 7.346687e+02 -1.676800e+03
3.270212e+06 2.537960e+02 2.391473e+03
3.270368e+06 6.760915e+02 -1.812279e+03
3.269369e+06 5.594062e+02 -2.049154e+03
3.269740e+06 2.325623e+02 2.548657e+03
3.269242e+06 2.112999e+02 2.691497e+03
3.268276e+06 4.435356e+02 -2.240750e+03
3.268720e+06 1.900252e+02 2.820051e+03
3.268176e+06 1.687472e+02 2.934381e+03
3.267614e+06 1.474699e+02 3.034549e+03
3.267700e+06 3.858830e+02 -2.319696e+03
3.267036e+06 1.261951e+02 3.120612e+03
3.267107e+06 3.283898e+02 -2.387489e+03
3.266444e+06 1.049248e+02 3.192624e+03
3.266501e+06 2.710376e+02 -2.444187e+03
3.265840e+06 8.366187e+01 3.250639e+03
3.265884e+06 2.138185e+02 -2.489856e+03
3.265228e+06 6.241173e+01 3.294710e+03
3.265257e+06 1.567394e+02 -2.524562e+03
3.264609e+06 4.118456e+01 3.324898e+03
3.264624e+06 9.982876e+01 -2.548387e+03
3.263986e+06 1.999559e+01 3.341275e+03
3.263987e+06 4.314274e+01 -2.561429e+03
3.263361e+06 -1.131728e+00 3.343939e+03
3.263349e+06 -1.322584e+01 -2.563818e+03
3.262737e+06 -2.216496e+01 3.333020e+03
3.262712e+06 -6.913769e+01 -2.555726e+03
3.262117e+06 -4.305846e+01 3.308697e+03
3.262078e+06 -1.243939e+02 -2.537384e+03
3.260833e+06 -2.317422e+02 -2.471280e+03
3.261503e+06 -6.374939e+01 3.271219e+03
3.260898e+06 -8.414951e+01 3.220924e+03
3.259634e+06 -3.317849e+02 -2.369247e+03
3.260303e+06 -1.041339e+02 3.158273e+03
3.259722e+06 -1.235169e+02 3.083877e+03
3.259158e+06 -1.420151e+02 2.998528e+03
3.259059e+06 -3.773814e+02 -2.306457e+03
3.258612e+06 -1.591820e+02 2.903215e+03
3.258503e+06 -4.188193e+02 -2.236929e+03
3.258086e+06 -1.743141e+02 2.799091e+03
3.257969e+06 -4.550840e+02 -2.161475e+03
3.257583e+06 -1.864157e+02 2.687342e+03
3.257459e+06 -4.853484e+02 -2.080645e+03
3.257104e+06 -1.949639e+02 2.569074e+03
3.256973e+06 -5.093091e+02 -1.994662e+03
3.256649e+06 -2.005672e+02 2.445400e+03
3.256514e+06 -5.273262e+02 -1.903769e+03
3.256220e+06 -2.041990e+02 2.317505e+03
3.256081e+06 -5.402576e+02 -1.808547e+03
3.255816e+06 -2.065288e+02 2.186522e+03
3.255674e+06 -5.491187e+02 -1.709815e+03
3.255437e+06 -2.079788e+02 2.053412e+03
3.255294e+06 -5.548409e+02 -1.608413e+03
3.255084e+06 -2.088172e+02 1.918936e+03
3.254939e+06 -5.582005e+02 -1.505095e+03
3.254755e+06 -2.092187e+02 1.783675e+03
3.254610e+06 -5.598153e+02 -1.400488e+03
3.254451e+06 -2.093022e+02 1.648060e+03
3.254306e+06 -5.601641e+02 -1.295087e+03
3.253772e+06 -5.584303e+02 -1.083328e+03
3.254172e+06 -2.091518e+02 1.512402e+03
3.253916e+06 -2.088282e+02 1.376923e+03
3.253334e+06 -5.549330e+02 -8.717975e+02
3.253685e+06 -2.083765e+02 1.241774e+03
3.253478e+06 -2.078301e+02 1.107057e+03
3.253295e+06 -2.072141e+02 9.728372e+02
3.253152e+06 -5.528666e+02 -7.664523e+02
3.253136e+06 -2.065464e+02 8.391532e+02
3.252993e+06 -5.506950e+02 -6.614824e+02
3.253000e+06 -2.058407e+02 7.060263e+02
3.252858e+06 -5.484671e+02 -5.569267e+02
3.252888e+06 -2.051062e+02 5.734654e+02
3.252746e+06 -5.462145e+02 -4.528065e+02
3.252799e+06 -2.043499e+02 4.414720e+02
3.252658e+06 -5.439568e+02 -3.491325e+02
3.252733e+06 -2.035762e+02 3.100422e+02
3.252593e+06 -5.417052e+02 -2.459068e+02
3.252691e+06 -2.027881e+02 1.791705e+02
3.252551e+06 -5.394653e+02 -1.431275e+02
3.252676e+06 -2.011760e+02 -8.092951e+01
3.252537e+06 -5.350256e+02 6.111175e+01
3.252672e+06 -2.019877e+02 4.884907e+01
3.252533e+06 -5.372391e+02 -4.079002e+01
3.252935e+06 -3.780913e+02 -1.095785e+02
3.252703e+06 -2.003538e+02 -2.101728e+02
3.252565e+06 -5.328234e+02 1.625843e+02
3.252688e+06 -5.284433e+02 3.642661e+02
3.252753e+06 -1.995214e+02 -3.388876e+02
3.252826e+06 -1.986788e+02 -4.670801e+02
3.252903e+06 -5.240774e+02 5.642987e+02
3.252921e+06 -1.978261e+02 -5.947558e+02
3.253039e+06 -1.969634e+02 -7.219194e+02
3.253180e+06 -1.960906e+02 -8.485750e+02
3.253044e+06 -5.218944e+02 6.637078e+02
3.253343e+06 -1.952077e+02 -9.747262e+02
3.253208e+06 -5.197092e+02 7.627169e+02
3.253528e+06 -1.943154e+02 -1.100376e+03
3.253394e+06 -5.175214e+02 8.613292e+02
3.253966e+06 -1.925039e+02 -1.350187e+03
3.253832e+06 -5.131393e+02 1.057379e+03
3.253736e+06 -1.934138e+02 -1.225529e+03
3.253602e+06 -5.153309e+02 9.595486e+02
3.254327e+06 -3.624665e+02 -1.076924e+03
3.254218e+06 -1.915866e+02 -1.474354e+03
3.254085e+06 -5.109498e+02 1.154826e+03
3.254492e+06 -1.906635e+02 -1.598037e+03
3.254359e+06 -5.087673e+02 1.251895e+03
3.254788e+06 -1.897370e+02 -1.721243e+03
3.254656e+06 -5.065999e+02 1.348597e+03
3.255106e+06 -1.888102e+02 -1.843980e+03
3.254974e+06 -5.044598e+02 1.444945e+03
3.255445e+06 -1.878870e+02 -1.966265e+03
3.255315e+06 -5.023643e+02 1.540959e+03
3.256060e+06 -4.984111e+02 1.732096e+03
3.255807e+06 -1.869729e+02 -2.088118e+03
3.256190e+06 -1.860754e+02 -2.209566e+03
3.256892e+06 -4.950540e+02 1.922348e+03
3.256594e+06 -1.852043e+02 -2.330650e+03
3.257468e+06 -1.836048e+02 -2.571962e+03
3.257339e+06 -4.937567e+02 2.017310e+03
3.257020e+06 -1.843740e+02 -2.451425e+03
3.257930e+06 -3.485454e+02 -2.009329e+03
3.257936e+06 -1.829274e+02 -2.692357e+03
3.257808e+06 -4.928355e+02 2.112287e+03
3.258426e+06 -1.823898e+02 -2.812732e+03
3.258298e+06 -4.924080e+02 2.207391e+03
3.258937e+06 -1.820682e+02 -2.933235e+03
3.258809e+06 -4.926089e+02 2.302736e+03
3.259469e+06 -1.820800e+02 -3.054027e+03
3.259341e+06 -4.935665e+02 2.398420e+03
3.260023e+06 -1.825447e+02 -3.175265e+03
3.259894e+06 -4.953585e+02 2.494490e+03
3.260598e+06 -1.834475e+02 -3.297097e+03
3.260468e+06 -4.979763e+02 2.590972e+03
3.261194e+06 -1.846574e+02 -3.419682e+03
3.261064e+06 -5.013297e+02 2.687924e+03
3.261811e+06 -1.860644e+02 -3.543182e+03
3.261681e+06 -5.052857e+02 2.785449e+03
3.262451e+06 -1.875977e+02 -3.667741e+03
3.262319e+06 -5.097121e+02 2.883662e+03
3.263663e+06 -5.195390e+02 3.082584e+03
3.263113e+06 -1.892120e+02 -3.793478e+03
3.263798e+06 -1.908786e+02 -3.920485e+03
3.265099e+06 -5.301433e+02 3.285381e+03
3.264505e+06 -1.925774e+02 -4.048833e+03
3.265235e+06 -1.942952e+02 -4.178576e+03
3.265989e+06 -1.960216e+02 -4.309753e+03
3.265851e+06 -5.356046e+02 3.388377e+03
3.266766e+06 -1.977494e+02 -4.442392e+03
3.266627e+06 -5.411268e+02 3.492491e+03
3.268393e+06 -2.011883e+02 -4.712139e+03
3.268252e+06 -5.522683e+02 3.704166e+03
3.267568e+06 -1.994732e+02 -4.576516e+03
3.267427e+06 -5.466868e+02 3.597747e+03
3.269080e+06 -3.906916e+02 -3.655004e+03
3.269243e+06 -2.028919e+02 -4.849274e+03
3.269101e+06 -5.578601e+02 3.811761e+03
3.270119e+06 -2.045817e+02 -4.987930e+03
3.269974e+06 -5.634540e+02 3.920545e+03
3.271019e+06 -2.062555e+02 -5.128114e+03
3.270873e+06 -5.690456e+02 4.030524e+03
3.271944e+06 -2.079119e+02 -5.269833e+03
3.271797e+06 -5.746317e+02 4.141706e+03
3.272896e+06 -2.095501e+02 -5.413092e+03
3.272747e+06 -5.802114e+02 4.254097e+03
3.273873e+06 -2.111693e+02 -5.557897e+03
3.273723e+06 -5.857843e+02 4.367701e+03
3.275755e+06 -5.969136e+02 4.598576e+03
3.274877e+06 -2.127692e+02 -5.704255e+03
3.275907e+06 -2.143490e+02 -5.852172e+03
3.277894e+06 -6.080332e+02 4.834378e+03
3.276964e+06 -2.159084e+02 -6.001655e+03
3.278048e+06 -2.174471e+02 -6.152713e+03
3.279160e+06 -2.189651e+02 -6.305353e+03
3.279005e+06 -6.135955e+02 4.954145e+03
3.280300e+06 -2.204616e+02 -6.459586e+03
3.280143e+06 -6.191634e+02 5.075169e+03
3.282664e+06 -2.233870e+02 -6.772875e+03
3.282505e+06 -6.303249e+02 5.321020e+03
3.281468e+06 -2.219358e+02 -6.615423e+03
3.281310e+06 -6.247391e+02 5.197457e+03
3.283582e+06 -4.432305e+02 -5.237480e+03
3.283889e+06 -2.248133e+02 -6.931954e+03
3.283728e+06 -6.359208e+02 5.445867e+03
3.285143e+06 -2.262124e+02 -7.092671e+03
3.284981e+06 -6.415250e+02 5.572005e+03
3.286427e+06 -2.275803e+02 -7.255037e+03
3.286264e+06 -6.471313e+02 5.699441e+03
3.287740e+06 -2.289119e+02 -7.419059e+03
3.287576e+06 -6.527265e+02 5.828173e+03
3.291693e+06 -6.691504e+02 6.221993e+03
3.289083e+06 -2.301992e+02 -7.584740e+03
3.288918e+06 -6.582887e+02 5.958194e+03
3.293297e+06 -2.336634e+02 -8.091594e+03
3.290457e+06 -2.314314e+02 -7.752073e+03
3.290290e+06 -6.637818e+02 6.089481e+03
3.291862e+06 -2.325930e+02 -7.921038e+03
3.293127e+06 -6.743111e+02 6.355662e+03
3.302584e+06 -2.356352e+02 -9.140287e+03
3.302413e+06 -6.897645e+02 7.170998e+03
3.304079e+06 -6.860360e+02 7.305309e+03
3.305948e+06 -2.319755e+02 -9.490500e+03
3.305780e+06 -6.786235e+02 7.437298e+03
3.304086e+06 -6.856992e+02 -7.305293e+03
3.338985e+06 8.113947e+01 -1.110683e+04
3.339013e+06 1.210997e+02 8.647134e+03
3.341081e+06 1.813170e+02 8.626501e+03
3.343088e+06 1.257030e+02 -1.103958e+04
3.343144e+06 2.414982e+02 8.594058e+03
3.341090e+06 1.816457e+02 -8.626277e+03
3.372908e+06 4.686040e+02 -8.304036e+03
3.373126e+06 8.747909e+02 -6.181727e+03
3.375918e+06 5.100875e+02 -7.683891e+03
3.374753e+06 1.258801e+03 -6.208313e+03
3.389653e+06 6.352054e+02 -6.107619e+02
3.390056e+06 1.692727e+03 5.222111e+02
3.390098e+06 1.650559e+03 1.955416e+02
3.389677e+06 6.013508e+02 2.201973e+02
3.390060e+06 1.605911e+03 -1.238590e+02
3.390108e+06 1.650896e+03 -1.957309e+02
3.380598e+06 3.165809e+02 5.114105e+03
3.380792e+06 8.246427e+02 -3.957898e+03
3.379793e+06 7.755679e+02 -4.113728e+03
3.378588e+06 2.809789e+02 5.498987e+03
3.378759e+06 7.264832e+02 -4.259680e+03
3.379802e+06 7.759053e+02 4.113476e+03
3.360619e+06 1.324414e+01 6.796942e+03
3.360013e+06 -9.165914e+00 5.157783e+03
3.358088e+06 -1.919325e+01 6.771184e+03
3.358065e+06 -7.875123e+01 -5.270427e+03
3.359345e+06 -3.944031e+01 5.280247e+03
3.339333e+06 -6.694283e+01 5.949568e+03
3.339277e+06 -2.061017e+02 -4.669667e+03
3.337188e+06 -6.504508e+01 5.842270e+03
3.338208e+06 -2.026683e+02 4.627216e+03
3.322274e+06 -4.985986e+01 5.145922e+03
3.322231e+06 -1.527557e+02 -4.039559e+03
3.321304e+06 -1.496397e+02 -4.008402e+03
3.320426e+06 -4.778627e+01 5.067176e+03
3.320384e+06 -1.465316e+02 -3.977883e+03
3.321311e+06 -1.493675e+02 4.008377e+03
3.307399e+06 -4.443020e+01 4.548049e+03
3.307359e+06 -1.368178e+02 -3.561034e+03
3.306536e+06 -1.437600e+02 -3.530854e+03
3.305762e+06 -5.085957e+01 4.472589e+03
3.305719e+06 -1.517267e+02 -3.499624e+03
3.306543e+06 -1.435039e+02 3.530788e+03
3.293350e+06 -1.201345e+02 3.453245e+03
3.294632e+06 -1.117233e+02 3.611476e+03
3.294551e+06 -3.072974e+02 -2.822242e+03
3.293984e+06 -1.159276e+02 3.533650e+03
3.293264e+06 -3.288695e+02 -2.698146e+03
3.286241e+06 -1.787159e+02 2.056178e+03
3.286118e+06 -4.801029e+02 -1.601849e+03
3.285751e+06 -4.903960e+02 -1.508676e+03
3.285535e+06 -1.865637e+02 1.815806e+03
3.285413e+06 -5.000585e+02 1.413740e+03
3.285757e+06 -4.901471e+02 1.508602e+03
3.283242e+06 -1.361666e+02 1.984465e+01
3.283147e+06 -3.625511e+02 -5.100446e+01
3.283300e+06 -1.104704e+02 -1.404359e+02
3.283221e+06 -2.950961e+02 7.297260e+01
3.283183e+06 -3.290173e+02 -1.388656e+01
3.284459e+06 7.713597e+01 -2.969154e+02
3.284502e+06 2.054631e+02 1.951935e+02
3.284581e+06 1.040846e+02 -1.788058e+02
3.284642e+06 2.773947e+02 1.024465e+02
3.284584e+06 2.416749e+02 -1.521589e+02
3.283371e+06 2.895659e+02 1.629287e+03
3.283553e+06 7.708197e+02 -1.312277e+03
3.283266e+06 7.993503e+02 -1.458710e+03
3.282749e+06 3.119914e+02 2.016600e+03
3.282943e+06 8.243028e+02 -1.608410e+03
3.283274e+06 7.995637e+02 1.458741e+03
3.274123e+06 9.421523e+01 4.277138e+03
3.274178e+06 2.400109e+02 -3.261709e+03
3.273342e+06 1.523198e+02 -3.296913e+03
3.272488e+06 2.818889e+01 4.347530e+03
3.272500e+06 6.365426e+01 -3.315744e+03
3.273348e+06 1.525264e+02 3.296504e+03
3.262540e+06 -4.483261e+02 2.401842e+03
3.262243e+06 -1.198318e+03 -1.789936e+03
3.261775e+06 -1.288736e+03 -1.552331e+03
3.261704e+06 -5.167899e+02 1.774979e+03
3.261363e+06 -1.379203e+03 -1.297539e+03
3.261780e+06 -1.288567e+03 1.551884e+03
3.264271e+06 -9.588379e+02 -5.022312e+03
3.263645e+06 -2.563232e+03 4.010614e+03
3.264554e+06 -2.614744e+03 4.488594e+03
3.266233e+06 -9.972291e+02 -6.285965e+03
3.265589e+06 -2.651548e+03 4.969808e+03
3.264557e+06 -2.614471e+03 -4.488722e+03
3.290521e+06 -4.826007e+02 -1.344998e+04
3.290177e+06 -1.432994e+03 1.039420e+04
3.292741e+06 -1.280124e+03 1.066761e+04
3.295634e+06 -3.628345e+02 -1.411319e+04
3.295366e+06 -1.126425e+03 1.091285e+04
3.292745e+06 -1.279933e+03 -1.066699e+04
3.334612e+06 4.442571e+02 -1.457201e+04
3.337613e+06 1.173743e+03 1.106714e+04
3.337620e+06 1.173995e+03 -1.106651e+04
3.339983e+06 5.536837e+02 -1.402717e+04
3.366954e+06 1.219041e+03 -6.735179e+03
3.367726e+06 3.193162e+03 5.158310e+03
3.368968e+06 3.293040e+03 4.549275e+03
3.369235e+06 1.294002e+03 -5.110139e+03
3.370044e+06 3.372909e+03 3.929246e+03
3.368977e+06 3.293197e+03 -4.549045e+03
3.368281e+06 9.104048e+02 4.933485e+03
3.367801e+06 2.278737e+03 -4.182046e+03
3.366112e+06 8.130577e+02 6.069617e+03
3.366632e+06 2.143122e+03 -4.613866e+03
3.367809e+06 2.279002e+03 4.181445e+03
3.342926e+06 1.183935e+02 1.013350e+04
3.342984e+06 2.360797e+02 -7.804826e+03
3.341030e+06 9.934913e+01 -7.830066e+03
3.339083e+06 1.619330e+01 1.016342e+04
3.339075e+06 -3.752274e+01 -7.828556e+03
3.341036e+06 9.954599e+01 7.829427e+03
3.316739e+06 -6.437964e+02 7.126819e+03
3.316316e+06 -1.739009e+03 -5.481891e+03
3.314994e+06 -1.837518e+03 -5.150021e+03
3.314229e+06 -7.243461e+02 6.224955e+03
3.313764e+06 -1.921928e+03 -4.805577e+03
3.314997e+06 -1.837280e+03 5.149643e+03
3.307238e+06 -6.987994e+02 3.212737e+02
3.306778e+06 -1.867150e+03 -2.968746e+02
3.306793e+06 -1.826448e+03 5.960294e+01
3.307329e+06 -6.683478e+02 -5.780751e+02
3.306890e+06 -1.785052e+03 4.084897e+02
3.306796e+06 -1.826315e+03 -5.947836e+01
3.314998e+06 -4.555880e+02 -5.433365e+03
3.314694e+06 -1.236833e+03 4.219814e+03
3.315735e+06 -1.194720e+03 4.457477e+03
3.317114e+06 -4.220298e+02 -6.029311e+03
3.316831e+06 -1.152613e+03 4.687285e+03
3.315739e+06 -1.194596e+03 -4.457328e+03
3.335363e+06 -2.046537e+02 -8.929067e+03
3.335215e+06 -6.065150e+02 6.960812e+03
3.336885e+06 -5.648690e+02 7.080803e+03
3.338711e+06 -1.718517e+02 -9.225131e+03
3.338584e+06 -5.233713e+02 7.192993e+03
3.336889e+06 -5.647244e+02 -7.080660e+03
3.362372e+06 2.845050e+01 -1.018716e+04
3.362373e+06 -2.784325e+00 7.947047e+03
3.364273e+06 3.644667e+01 7.951138e+03
3.366154e+06 5.783604e+01 -1.018824e+04
3.366174e+06 7.563833e+01 7.947523e+03
3.364277e+06 3.661407e+01 -7.951006e+03
3.388280e+06 2.285587e+02 -9.361867e+03
3.388413e+06 5.437938e+02 7.297503e+03
3.390162e+06 5.826889e+02 7.192270e+03
3.391735e+06 2.562051e+02 -9.083693e+03
3.391886e+06 6.215786e+02 7.079100e+03
3.390167e+06 5.828768e+02 -7.192142e+03
3.410888e+06 4.308060e+02 -6.284014e+03
3.411159e+06 1.120372e+03 4.885632e+03
3.412330e+06 1.155382e+03 4.663882e+03
3.413160e+06 4.554754e+02 -5.705376e+03
3.413446e+06 1.188605e+03 4.435895e+03
3.412336e+06 1.155563e+03 -4.663797e+03
3.421697e+06 4.787086e+02 -1.830520e+03
3.422004e+06 1.276250e+03 1.445658e+03
3.422307e+06 1.265194e+03 1.193085e+03
3.422248e+06 4.695624e+02 -1.186884e+03
3.422549e+06 1.253586e+03 9.423747e+02
3.422312e+06 1.265388e+03 -1.193162e+03
3.420707e+06 4.162588e+02 2.418023e+03
3.420973e+06 1.106812e+03 -1.881988e+03
3.420486e+06 1.094757e+03 -2.101065e+03
3.419687e+06 4.080859e+02 2.973941e+03
3.419947e+06 1.082744e+03 -2.317607e+03
3.420491e+06 1.094954e+03 2.100974e+03
3.409450e+06 3.620035e+02 6.035327e+03
3.409677e+06 9.402820e+02 -4.716914e+03
3.408523e+06 9.277016e+02 -4.899489e+03
3.407105e+06 3.540805e+02 6.498351e+03
3.407326e+06 9.145396e+02 -5.078927e+03
3.408528e+06 9.278685e+02 4.899382e+03
3.388042e+06 1.941503e+02 8.865277e+03
3.388154e+06 4.573694e+02 -6.882280e+03
3.386457e+06 3.928341e+02 -6.958271e+03
3.384661e+06 1.452741e+02 9.047171e+03
3.384742e+06 3.266799e+02 -7.021994e+03
3.386461e+06 3.929582e+02 6.957970e+03
3.364177e+06 -1.676224e+02 8.695339e+03
3.364055e+06 -5.043479e+02 -6.747023e+03
3.362420e+06 -5.742966e+02 -6.635908e+03
3.360970e+06 -2.214777e+02 8.394230e+03
3.360814e+06 -6.442879e+02 -6.511269e+03
3.362423e+06 -5.741943e+02 6.635562e+03
3.345234e+06 -5.489288e+02 5.147153e+03
3.344870e+06 -1.488210e+03 -3.964266e+03
3.343912e+06 -1.557977e+03 -3.665089e+03
3.343425e+06 -6.026782e+02 4.367203e+03
3.343026e+06 -1.627016e+03 -3.353064e+03
3.343914e+06 -1.557889e+03 3.664766e+03
3.339719e+06 -7.558805e+02 -1.337969e+03
3.339240e+06 -1.978502e+03 9.886004e+02
3.339576e+06 -1.912103e+03 1.345419e+03
3.340456e+06 -6.909176e+02 -2.275945e+03
3.340009e+06 -1.831330e+03 1.692942e+03
3.339577e+06 -1.911930e+03 -1.345207e+03
3.350749e+06 -1.687213e+02 -5.816433e+03
3.350632e+06 -4.776685e+02 4.437809e+03
3.351795e+06 -3.581123e+02 4.522264e+03
3.353034e+06 -7.876143e+01 -6.001880e+03
3.352975e+06 -2.386377e+02 4.583399e+03
3.351798e+06 -3.580128e+02 -4.521781e+03
3.365279e+06 4.081832e+02 -4.888987e+03
3.365539e+06 1.071482e+03 3.709094e+03
3.366501e+06 1.190604e+03 3.488231e+03
3.367091e+06 4.955918e+02 -4.296269e+03
3.367409e+06 1.309728e+03 3.243713e+03
3.366505e+06 1.190756e+03 -3.487755e+03
3.371364e+06 9.854561e+02 1.686063e+03
3.371986e+06 2.589498e+03 -1.387206e+03
3.371654e+06 2.641439e+03 -1.871392e+03
3.370546e+06 1.029364e+03 2.987486e+03
3.371184e+06 2.670364e+03 -2.357225e+03
3.371659e+06 2.641473e+03 1.871455e+03
3.355357e+06 6.316360e+02 9.717583e+03
3.355754e+06 1.616427e+03 -7.480530e+03
3.353840e+06 1.487758e+03 -7.777204e+03
3.351526e+06 5.396079e+02 1.044109e+04
3.351862e+06 1.358484e+03 -8.048272e+03
3.353845e+06 1.487887e+03 7.776623e+03
3.327572e+06 1.487477e+01 1.206537e+04
3.327560e+06 -7.268193e+01 -9.327715e+03
3.325276e+06 -2.033633e+02 -9.290525e+03
3.323081e+06 -8.390415e+01 1.193757e+04
3.323006e+06 -3.342080e+02 -9.228019e+03
3.325279e+06 -2.032862e+02 9.289908e+03
3.299316e+06 -6.867833e+02 8.502715e+03
3.298858e+06 -1.890798e+03 -6.543269e+03
3.297280e+06 -2.008879e+03 -6.169492e+03
3.296312e+06 -7.809363e+02 7.509051e+03
3.295798e+06 -2.120443e+03 -5.777558e+03
3.297280e+06 -2.008765e+03 6.169033e+03
3.287541e+06 -7.983164e+02 6.521485e+02
3.287020e+06 -2.130403e+03 -6.131512e+02
3.287023e+06 -2.036768e+03 -2.182711e+02
3.287592e+06 -7.254270e+02 -3.425022e+02
3.287117e+06 -1.939192e+03 1.602430e+02
3.287023e+06 -2.036683e+03 2.185895e+02
3.293009e+06 -2.931397e+02 -4.041516e+03
3.292815e+06 -7.941423e+02 3.061532e+03
3.293636e+06 -6.893191e+02 3.205578e+03
3.294631e+06 -2.137955e+02 -4.382973e+03
3.294488e+06 -5.845688e+02 3.329536e+03
3.293638e+06 -6.892744e+02 -3.205147e+03
3.304449e+06 2.168968e+02 -4.429388e+03
3.304586e+06 5.652851e+02 3.363910e+03
3.305451e+06 6.691689e+02 3.246146e+03
3.306098e+06 2.935798e+02 -4.103626e+03
3.306286e+06 7.725200e+02 3.108535e+03
3.305454e+06 6.692447e+02 -3.245741e+03
3.311799e+06 6.338815e+02 -2.886061e+02
3.312193e+06 1.650751e+03 2.236619e+02
3.311746e+06 6.184642e+02 5.103258e+02
3.312138e+06 1.629689e+03 -3.741661e+02
3.312211e+06 1.646710e+03 7.422245e+01
3.306469e+06 4.260354e+02 4.284534e+03
3.306741e+06 1.121990e+03 -3.302990e+03
3.305903e+06 1.068593e+03 -3.513197e+03
3.304771e+06 3.876056e+02 4.806561e+03
3.305017e+06 1.015179e+03 -3.712887e+03
3.305905e+06 1.068696e+03 3.512925e+03
3.292786e+06 1.745333e+02 6.721288e+03
3.291993e+06 2.896672e+02 5.130325e+03
3.290283e+06 1.352708e+02 6.896770e+03
3.291637e+06 3.760273e+02 5.290164e+03
3.274844e+06 -1.001085e+02 6.860369e+03
3.274773e+06 -3.001538e+02 -5.334067e+03
3.273520e+06 -3.448727e+02 -5.273297e+03
3.272378e+06 -1.352869e+02 6.686906e+03
3.272286e+06 -3.862902e+02 -5.205635e+03
3.273521e+06 -3.448022e+02 5.273087e+03
3.258628e+06 -2.133674e+02 5.001696e+03
3.260463e+06 -2.085724e+02 5.289634e+03
3.260322e+06 -5.781747e+02 -4.146879e+03
3.259391e+06 -5.835073e+02 4.034643e+03
3.259532e+06 -2.110253e+02 5.146228e+03
3.249290e+06 -2.403842e+02 3.036406e+03
3.250428e+06 -2.364127e+02 3.349076e+03
3.249688e+06 -6.422855e+02 -2.501877e+03
3.249845e+06 -2.384045e+02 3.193225e+03
3.249132e+06 -6.467892e+02 -2.378757e+03
3.249689e+06 -6.422724e+02 2.501819e+03
3.245069e+06 -2.607887e+02 1.245378e+03
3.244899e+06 -6.961671e+02 -9.726482e+02
3.244690e+06 -7.000670e+02 -8.404374e+02
3.244683e+06 -2.637793e+02 9.071527e+02
3.244511e+06 -7.035586e+02 -7.077749e+02
3.244690e+06 -7.000478e+02 8.403927e+02
3.245167e+06 -2.048048e+02 -1.181588e+03
3.244763e+06 -2.314336e+02 -9.050624e+02
3.244616e+06 -6.089680e+02 6.786318e+02
3.244952e+06 -2.185615e+02 -1.047063e+03
3.245035e+06 -5.435584e+02 -8.889574e+02
3.248737e+06 -3.594941e+01 -2.050597e+03
3.248712e+06 -9.948553e+01 1.564783e+03
3.249109e+06 -5.764254e+01 1.580058e+03
3.249513e+06 -4.537829e+00 -2.079321e+03
3.249508e+06 -1.580001e+01 1.587387e+03
3.249110e+06 -5.761623e+01 -1.579907e+03
3.253450e+06 1.676088e+02 -1.511557e+03
3.253558e+06 4.454745e+02 1.140764e+03
3.253849e+06 4.876587e+02 1.051925e+03
3.253990e+06 1.987592e+02 -1.275526e+03
3.254119e+06 5.298444e+02 9.550294e+02
3.253850e+06 4.876960e+02 -1.051776e+03
3.254938e+06 3.485817e+02 7.018718e+02
3.255158e+06 9.135028e+02 -5.655761e+02
3.255018e+06 9.182220e+02 -7.218788e+02
3.254613e+06 3.559653e+02 1.133156e+03
3.254828e+06 9.091393e+02 -8.726702e+02
3.255019e+06 9.181366e+02 7.217473e+02
3.250176e+06 -9.938685e+01 2.272008e+03
3.250114e+06 -2.616142e+02 -1.617000e+03
3.249601e+06 -4.162596e+02 -1.550945e+03
3.249243e+06 -2.166184e+02 2.069294e+03
3.249106e+06 -5.724093e+02 -1.456231e+03
3.249601e+06 -4.163260e+02 1.550239e+03
3.247324e+06 -8.845655e+02 -1.802834e+03
3.246746e+06 -2.369244e+03 1.608068e+03
3.246977e+06 -2.553351e+03 2.090864e+03
3.247981e+06 -1.013905e+03 -3.048558e+03
3.247307e+06 -2.746615e+03 2.615369e+03
3.246974e+06 -2.553690e+03 -2.092013e+03
3.260389e+06 -1.652348e+03 -1.450801e+04
3.258790e+06 -5.835305e+03 1.226833e+04
3.264745e+06 -1.519458e+03 -1.749244e+04
3.263045e+06 -6.003373e+03 1.456024e+04
3.260766e+06 -5.996711e+03 -1.344058e+04
3.265640e+06 -5.673453e+03 -1.546141e+04
3.247738e+06 -2.951711e+03 -3.186411e+03
3.248634e+06 -7.296683e+02 1.331583e+03
3.254589e+06 8.827058e+02 1.014935e+03
3.254367e+06 5.719984e+02 -8.499768e+02
3.249909e+06 2.606662e+01 -1.586608e+03
3.245283e+06 -5.072345e+02 9.860756e+02
3.244362e+06 -7.064358e+02 5.748105e+02
3.248605e+06 -6.512969e+02 2.254807e+03
3.257605e+06 -5.932695e+02 -3.807358e+03
3.271074e+06 -4.234848e+02 5.131603e+03
3.289080e+06 2.693709e+02 5.407226e+03
3.304091e+06 9.618840e+02 3.901766e+03
3.311992e+06 1.602569e+03 6.736286e+02
3.307090e+06 8.751060e+02 -2.950977e+03
3.295368e+06 -4.798273e+02 -3.432971e+03
3.287298e+06 -1.838795e+03 -5.208262e+02
3.294417e+06 -2.222968e+03 5.369530e+03
3.320756e+06 -4.651593e+02 9.139628e+03
3.349828e+06 1.228978e+03 8.292952e+03
3.370580e+06 2.672861e+03 2.842347e+03
3.368262e+06 1.428938e+03 -2.975109e+03
3.354170e+06 -1.191536e+02 -4.620699e+03
3.340535e+06 -1.739275e+03 -2.028035e+03
3.342216e+06 -1.694808e+03 3.028288e+03
3.359241e+06 -7.142329e+02 6.372775e+03
3.383018e+06 2.594858e+02 7.072678e+03
3.406092e+06 9.006732e+02 5.254817e+03
3.419363e+06 1.070967e+03 2.531520e+03
3.422738e+06 1.241820e+03 -6.938246e+02
3.414511e+06 1.219569e+03 -4.202264e+03
3.393589e+06 6.606572e+02 -6.957847e+03
3.368079e+06 1.149668e+02 -7.936058e+03
3.340312e+06 -4.819125e+02 -7.297263e+03
3.317983e+06 -1.110383e+03 -4.909098e+03
3.307069e+06 -1.743101e+03 -7.494332e+02
3.312636e+06 -1.988947e+03 4.450547e+03
3.337129e+06 -1.743324e+02 7.799719e+03
3.365373e+06 2.007396e+03 5.018039e+03
3.370957e+06 3.427611e+03 -3.302546e+03
3.342964e+06 1.478403e+03 -1.057673e+04
3.298051e+06 -9.720949e+02 -1.112887e+04
3.266756e+06 -2.669267e+03 -5.450784e+03
3.261014e+06 -1.469551e+03 1.025097e+03
3.271661e+06 -2.544981e+01 3.317462e+03
3.282586e+06 8.445761e+02 1.760026e+03
3.284701e+06 3.136621e+02 -4.555598e+01
3.283285e+06 -2.600303e+02 -1.255757e+02
3.292649e+06 -3.394117e+02 2.632966e+03
3.304916e+06 -1.602313e+02 3.467066e+03
3.319479e+06 -1.431706e+02 3.947964e+03
3.336084e+06 -1.962981e+02 4.544371e+03
3.356808e+06 -1.135136e+02 5.254387e+03
3.377701e+06 6.777125e+02 4.395508e+03
3.389956e+06 1.559881e+03 4.349658e+02
3.377676e+06 1.377040e+03 -5.698036e+03
3.345209e+06 3.019603e+02 -8.549541e+03
3.307526e+06 -6.660869e+02 -7.565939e+03
3.294601e+06 -6.788309e+02 -6.490424e+03
3.291486e+06 -4.649298e+02 -5.989696e+03
3.290093e+06 -4.614467e+02 -5.861182e+03
3.288731e+06 -4.578792e+02 -5.733906e+03
3.287399e+06 -4.542571e+02 -5.607892e+03
3.286097e+06 -4.506005e+02 -5.483150e+03
3.284825e+06 -4.469224e+02 -5.359681e+03
3.282513e+06 -6.300232e+02 -5.321083e+03
3.282368e+06 -4.395295e+02 -5.116539e+03
3.277902e+06 -6.077300e+02 -4.834441e+03
3.281183e+06 -4.358214e+02 -4.996848e+03
3.276811e+06 -6.024734e+02 4.715857e+03
3.280026e+06 -4.321069e+02 -4.878398e+03
3.278897e+06 -4.283860e+02 -4.761178e+03
3.275763e+06 -5.966094e+02 -4.598639e+03
3.274726e+06 -5.913512e+02 4.482526e+03
3.277796e+06 -4.246576e+02 -4.645179e+03
3.276722e+06 -4.209213e+02 -4.530394e+03
3.275675e+06 -4.171760e+02 -4.416813e+03
3.274655e+06 -4.134209e+02 -4.304432e+03
3.273661e+06 -4.096560e+02 -4.193244e+03
3.272694e+06 -4.058804e+02 -4.083242e+03
3.271752e+06 -4.020949e+02 -3.974424e+03
3.270836e+06 -3.983001e+02 -3.866782e+03
3.269946e+06 -3.944981e+02 -3.760311e+03
3.268260e+06 -5.519607e+02 -3.704228e+03
3.268239e+06 -3.868845e+02 -3.550853e+03
3.265107e+06 -5.298350e+02 -3.285441e+03
3.267423e+06 -3.830833e+02 -3.447847e+03
3.264369e+06 -5.247739e+02 3.183465e+03
3.266630e+06 -3.792966e+02 -3.345970e+03
3.265862e+06 -3.755366e+02 -3.245203e+03
3.263672e+06 -5.192307e+02 -3.082642e+03
3.262980e+06 -5.144940e+02 2.982676e+03
3.265117e+06 -3.718194e+02 -3.145516e+03
3.264395e+06 -3.681677e+02 -3.046874e+03
3.263696e+06 -3.646112e+02 -2.949227e+03
3.263021e+06 -3.611906e+02 -2.852512e+03
3.262367e+06 -3.579600e+02 -2.756653e+03
3.261736e+06 -3.549926e+02 -2.661557e+03
3.261127e+06 -3.523846e+02 -2.567121e+03
3.260540e+06 -3.502554e+02 -2.473242e+03
3.259975e+06 -3.487295e+02 -2.379829e+03
3.259431e+06 -3.478707e+02 -2.286810e+03
3.258909e+06 -3.476334e+02 -2.194114e+03
3.256900e+06 -4.947414e+02 -1.922382e+03
3.258409e+06 -3.478992e+02 -2.101654e+03
3.256465e+06 -4.966307e+02 1.827303e+03
3.257348e+06 -4.934452e+02 -2.017346e+03
3.257472e+06 -3.494715e+02 -1.917036e+03
3.256068e+06 -4.980971e+02 -1.732128e+03
3.255677e+06 -5.003371e+02 1.636664e+03
3.257036e+06 -3.506014e+02 -1.824681e+03
3.256621e+06 -3.518784e+02 -1.732186e+03
3.256228e+06 -3.532602e+02 -1.639485e+03
3.255857e+06 -3.547154e+02 -1.546530e+03
3.255507e+06 -3.562207e+02 -1.453283e+03
3.255179e+06 -3.577595e+02 -1.359716e+03
3.254873e+06 -3.593188e+02 -1.265810e+03
3.254589e+06 -3.608901e+02 -1.171549e+03
3.253841e+06 -5.128208e+02 -1.057407e+03
3.254087e+06 -3.640444e+02 -9.819280e+02
3.253869e+06 -3.656202e+02 -8.865551e+02
3.252911e+06 -5.237572e+02 -5.643266e+02
3.253674e+06 -3.671927e+02 -7.908015e+02
3.252784e+06 -5.262598e+02 4.644862e+02
3.253500e+06 -3.687608e+02 -6.946639e+02
3.253350e+06 -3.703244e+02 -5.981391e+02
3.252697e+06 -5.281226e+02 -3.642937e+02
3.252615e+06 -5.306303e+02 2.636339e+02
3.253221e+06 -3.718835e+02 -5.012239e+02
3.253116e+06 -3.734389e+02 -4.039147e+02
3.253033e+06 -3.749913e+02 -3.062073e+02
3.252972e+06 -3.765418e+02 -2.080970e+02
3.252546e+06 -5.347041e+02 -6.113930e+01
3.252920e+06 -3.796405e+02 -1.064517e+01
3.252929e+06 -3.811896e+02 8.870915e+01
3.252961e+06 -3.827386e+02 1.884913e+02
3.253016e+06 -3.842851e+02 2.887077e+02
3.253094e+06 -3.858256e+02 3.893629e+02
3.253196e+06 -3.873530e+02 4.904589e+02
3.253343e+06 -5.545999e+02 8.717626e+02
3.253321e+06 -3.888561e+02 5.919925e+02
3.253541e+06 -5.568222e+02 -9.774550e+02
3.253470e+06 -3.903170e+02 6.939521e+02
3.253643e+06 -3.917093e+02 7.963140e+02
3.253780e+06 -5.580906e+02 1.083285e+03
3.254026e+06 -5.596114e+02 -1.189273e+03
3.253839e+06 -3.929943e+02 8.990355e+02
3.254060e+06 -3.941178e+02 1.002049e+03
3.254305e+06 -3.950039e+02 1.105249e+03
3.254573e+06 -3.955476e+02 1.208484e+03
3.254866e+06 -3.956069e+02 1.311539e+03
3.255183e+06 -3.949892e+02 1.414117e+03
3.255524e+06 -3.934352e+02 1.515828e+03
3.255889e+06 -3.905942e+02 1.616170e+03
3.256278e+06 -3.859947e+02 1.714526e+03
3.256691e+06 -3.790069e+02 1.810184e+03
3.257126e+06 -3.688175e+02 1.902383e+03
3.257584e+06 -3.544829e+02 1.990412e+03
3.258062e+06 -3.352578e+02 2.073692e+03
3.259643e+06 -3.314052e+02 2.369023e+03
3.258561e+06 -3.111025e+02 2.151728e+03
3.260226e+06 -2.829747e+02 -2.424445e+03
3.259079e+06 -2.827191e+02 2.223950e+03
3.259614e+06 -2.510561e+02 2.289654e+03
3.260842e+06 -2.313650e+02 2.471031e+03
3.261451e+06 -1.787190e+02 -2.509100e+03
3.260164e+06 -2.169451e+02 2.348075e+03
3.260728e+06 -1.810352e+02 2.398484e+03
3.261303e+06 -1.438129e+02 2.440245e+03
3.261887e+06 -1.056397e+02 2.472834e+03
3.262478e+06 -6.678221e+01 2.495835e+03
3.263074e+06 -2.743662e+01 2.508928e+03
3.263671e+06 1.225343e+01 2.511874e+03
3.264268e+06 5.218530e+01 2.504492e+03
3.264863e+06 9.228731e+01 2.486650e+03
3.265452e+06 1.325120e+02 2.458246e+03
3.266033e+06 1.728292e+02 2.419200e+03
3.268286e+06 4.439198e+02 2.240449e+03
3.266604e+06 2.132239e+02 2.369448e+03
3.268833e+06 5.013703e+02 -2.150588e+03
3.267163e+06 2.536903e+02 2.308926e+03
3.267706e+06 2.942295e+02 2.237579e+03
3.269379e+06 5.597911e+02 2.048853e+03
3.269882e+06 6.176519e+02 -1.936396e+03
3.268231e+06 3.348450e+02 2.155345e+03
3.268736e+06 3.755394e+02 2.062165e+03
3.269218e+06 4.163088e+02 1.957978e+03
3.269675e+06 4.571360e+02 1.842734e+03
3.270104e+06 4.979819e+02 1.716398e+03
3.270503e+06 5.387726e+02 1.578970e+03
3.270868e+06 5.793847e+02 1.430511e+03
3.271198e+06 6.196215e+02 1.271178e+03
3.271490e+06 6.591879e+02 1.101275e+03
3.271741e+06 6.976512e+02 9.213242e+02
3.271949e+06 7.343972e+02 7.321574e+02
3.273213e+06 1.188879e+03 1.550011e+01
3.272111e+06 7.685715e+02 5.350387e+02
3.273210e+06 1.204054e+03 1.904327e+02
3.272226e+06 7.990093e+02 3.318179e+02
3.272291e+06 8.241453e+02 1.251222e+02
3.273159e+06 1.199337e+03 -3.860004e+02
3.273011e+06 1.168283e+03 5.646036e+02
3.272305e+06 8.419029e+02 -8.141687e+01
3.272266e+06 8.495492e+02 -2.829087e+02
3.272175e+06 8.434990e+02 -4.729404e+02
3.272031e+06 8.190336e+02 -6.433564e+02
3.271839e+06 7.698744e+02 -7.841686e+02
3.271601e+06 6.875590e+02 -8.837386e+02
3.271325e+06 5.603672e+02 -9.296507e+02
3.271022e+06 3.696601e+02 -9.118695e+02
3.270784e+06 1.230519e+02 -8.021178e+02
3.270155e+06 -6.798266e+02 -4.099768e+02
3.270470e+06 -2.272238e+02 -6.464195e+02
3.270246e+06 -9.207556e+02 1.355527e+01
3.270091e+06 -1.667600e+03 3.906787e-01
3.269979e+06 -1.502877e+03 1.624245e+02
3.270081e+06 -1.501970e+03 -1.395926e+01
3.270908e+06 -1.934131e+03 -5.943373e+01
3.270775e+06 -1.518631e+03 3.222627e+01
3.270474e+06 -3.068298e+02 -1.697643e+02
3.270919e+06 -1.590187e+03 -1.949198e+00
3.269548e+06 -7.859588e+02 3.478590e+02
3.270644e+06 -1.904906e+03 -1.323033e+02
3.270662e+06 -1.544790e+03 -1.804622e+02
3.268524e+06 -1.513850e+03 -5.196661e+00
3.270095e+06 -1.443521e+03 -1.207337e+02
3.296091e+06 -6.834815e+02 6.625977e+03
3.292909e+06 -4.682846e+02 -6.119403e+03
3.291362e+06 -7.844369e+02 4.304540e+03
3.297629e+06 -6.867669e+02 -6.762258e+03
3.294364e+06 -4.714484e+02 -6.250225e+03
3.292785e+06 -7.907114e+02 4.397467e+03
3.299185e+06 -6.896449e+02 6.898798e+03
3.295851e+06 -4.743347e+02 -6.382046e+03
3.294239e+06 -7.965853e+02 4.491087e+03
3.303103e+06 -8.658275e+02 -2.953048e+03
3.300789e+06 -6.903958e+02 -7.035261e+03
3.297369e+06 -4.768228e+02 -6.514692e+03
3.295725e+06 -8.018554e+02 4.585267e+03
3.298920e+06 -4.787483e+02 -6.647913e+03
3.270084e+06 -6.730766e+02 3.892107e+02
3.303767e+06 -4.784808e+02 -7.047004e+03
3.304840e+06 -6.595893e+02 -4.909581e+03
3.300503e+06 -4.798872e+02 -6.781365e+03
3.270557e+06 -8.598583e+02 1.514401e+02
3.270492e+06 -2.208139e+02 6.336542e+02
3.270824e+06 -3.527554e+02 2.945759e+02
3.270793e+06 1.322894e+02 7.957315e+02
3.309299e+06 -6.479503e+02 -7.690386e+03
3.305448e+06 -4.749643e+02 -7.177879e+03
3.270966e+06 2.425338e+02 3.425451e+02
3.271017e+06 3.749710e+02 9.079021e+02
3.311109e+06 -6.229541e+02 -7.810000e+03
3.307162e+06 -4.686348e+02 -7.306380e+03
3.271317e+06 5.632772e+02 9.292204e+02
3.312953e+06 -5.908178e+02 -7.924534e+03
3.308907e+06 -4.585266e+02 -7.431629e+03
3.271592e+06 6.898511e+02 8.838309e+02
3.314831e+06 -5.520295e+02 -8.033666e+03
3.310684e+06 -4.435479e+02 -7.552820e+03
3.271830e+06 7.714992e+02 7.844965e+02
3.316740e+06 -5.076172e+02 -8.136670e+03
3.312492e+06 -4.229394e+02 -7.669302e+03
3.272182e+06 1.227605e+03 3.921764e+02
3.272023e+06 8.201777e+02 6.437594e+02
3.318678e+06 -4.587515e+02 -8.232569e+03
3.314329e+06 -3.968378e+02 -7.780491e+03
3.272348e+06 1.309964e+03 3.044054e+02
3.272166e+06 8.443551e+02 4.733051e+02
3.320634e+06 -4.068287e+02 8.320551e+03
3.316194e+06 -3.661628e+02 -7.885691e+03
3.314230e+06 -6.675144e+02 5.555595e+03
3.272453e+06 1.351161e+03 1.939930e+02
3.272257e+06 8.502436e+02 2.831802e+02
3.322630e+06 -3.516992e+02 -8.399233e+03
3.318085e+06 -3.320064e+02 -7.984052e+03
3.316101e+06 -6.209811e+02 5.626754e+03
3.272296e+06 8.425078e+02 8.157857e+01
3.324630e+06 -2.954079e+02 8.468592e+03
3.320000e+06 -2.952896e+02 -8.074680e+03
3.318000e+06 -5.687519e+02 5.693662e+03
3.272283e+06 8.246990e+02 -1.250664e+02
3.326663e+06 -2.371401e+02 -8.527306e+03
3.321938e+06 -2.567182e+02 -8.156740e+03
3.319923e+06 -5.118282e+02 5.755717e+03
3.272218e+06 7.995304e+02 -3.318543e+02
3.328703e+06 -1.783033e+02 -8.575509e+03
3.323896e+06 -2.168188e+02 -8.229518e+03
3.272103e+06 7.690696e+02 -5.351510e+02
3.330755e+06 -1.188611e+02 -8.612674e+03
3.325872e+06 -1.759810e+02 -8.292430e+03
3.272130e+06 1.216772e+03 -4.827673e+02
3.271941e+06 7.348761e+02 -7.323294e+02
3.332815e+06 -5.903207e+01 -8.638553e+03
3.327863e+06 -1.344932e+02 -8.345016e+03
3.271733e+06 6.981143e+02 -9.215413e+02
3.334882e+06 1.026595e+00 -8.652967e+03
3.329866e+06 -9.256770e+01 -8.386929e+03
3.271482e+06 6.596366e+02 -1.101525e+03
3.331879e+06 -5.036105e+01 -8.417908e+03
3.271191e+06 6.200575e+02 -1.271451e+03
3.333900e+06 -7.986934e+00 -8.437761e+03
3.336951e+06 6.120412e+01 -8.655784e+03
3.270861e+06 5.798092e+02 -1.430800e+03
3.339979e+06 1.194349e+02 -8.429366e+03
3.335925e+06 3.447214e+01 -8.446349e+03
3.338969e+06 1.306291e+02 -3.527067e+03
3.270495e+06 5.391877e+02 -1.579270e+03
3.270097e+06 4.983886e+02 -1.716704e+03
3.347254e+06 3.620302e+02 -8.493368e+03
3.342002e+06 1.618718e+02 -8.403667e+03
3.269785e+06 7.555305e+02 -1.277032e+03
3.269668e+06 4.575357e+02 -1.843043e+03
3.349286e+06 4.220380e+02 -8.425288e+03
3.344018e+06 2.042545e+02 -8.366440e+03
3.342038e+06 2.331770e+02 5.982988e+03
3.269318e+06 6.871758e+02 -1.360175e+03
3.269211e+06 4.167026e+02 -1.958289e+03
3.351292e+06 4.816474e+02 8.345499e+03
3.346025e+06 2.465729e+02 -8.317653e+03
3.344065e+06 3.034869e+02 5.956135e+03
3.268825e+06 6.190398e+02 -1.435346e+03
3.268729e+06 3.759281e+02 -2.062476e+03
3.353298e+06 5.418806e+02 -8.253306e+03
3.348021e+06 2.888232e+02 -8.257278e+03
3.346083e+06 3.737752e+02 5.920992e+03
3.268224e+06 3.352291e+02 -2.155656e+03
3.355264e+06 6.013846e+02 8.149580e+03
3.350002e+06 3.310045e+02 -8.185292e+03
3.267699e+06 2.946093e+02 -2.237888e+03
3.357224e+06 6.615385e+02 -8.033402e+03
3.351965e+06 3.731191e+02 -8.101671e+03
3.350081e+06 5.142473e+02 5.825753e+03
3.267156e+06 2.540663e+02 -2.309234e+03
3.359148e+06 7.213202e+02 -7.905416e+03
3.353909e+06 4.151705e+02 -8.006391e+03
3.266597e+06 2.135961e+02 -2.369754e+03
3.361041e+06 7.810834e+02 -7.765372e+03
3.355829e+06 4.571639e+02 -7.899429e+03
3.266070e+06 2.819461e+02 -1.692829e+03
3.266026e+06 1.731979e+02 -2.419505e+03
3.362901e+06 8.408372e+02 -7.613244e+03
3.357723e+06 4.991047e+02 -7.780759e+03
3.265445e+06 1.328772e+02 -2.458548e+03
3.364725e+06 9.005895e+02 -7.449004e+03
3.359588e+06 5.409991e+02 -7.650354e+03
3.264856e+06 9.264918e+01 -2.486949e+03
3.366510e+06 9.603451e+02 -7.272628e+03
3.361421e+06 5.828531e+02 -7.508188e+03
3.264262e+06 5.254350e+01 -2.504788e+03
3.368254e+06 1.020105e+03 -7.084095e+03
3.363220e+06 6.246721e+02 -7.354234e+03
3.263665e+06 1.260776e+01 -2.512166e+03
3.369953e+06 1.079859e+03 -6.883389e+03
3.364982e+06 6.664599e+02 -7.188464e+03
3.263067e+06 -2.708566e+01 -2.509215e+03
3.371605e+06 1.139590e+03 -6.670509e+03
3.366703e+06 7.082181e+02 -7.010852e+03
3.262472e+06 -6.643481e+01 -2.496115e+03
3.368381e+06 7.499439e+02 -6.821379e+03
3.261854e+06 -1.760109e+02 -1.733908e+03
3.261881e+06 -1.052959e+02 -2.473106e+03
3.373206e+06 1.199259e+03 -6.445469e+03
3.370013e+06 7.916286e+02 -6.620030e+03
3.373196e+06 1.198900e+03 6.445683e+03
3.368566e+06 1.215874e+03 4.845840e+03
3.371595e+06 8.332550e+02 -6.406807e+03
3.372138e+06 1.485997e+03 -2.618787e+03
3.261261e+06 -2.376739e+02 -1.711671e+03
3.261297e+06 -1.434725e+02 -2.440508e+03
3.260677e+06 -2.972592e+02 -1.683272e+03
3.260722e+06 -1.806977e+02 -2.398736e+03
3.379035e+06 1.435005e+03 5.425466e+03
3.374601e+06 9.161861e+02 -5.944839e+03
3.376234e+06 1.317756e+03 5.959327e+03
3.260158e+06 -2.166108e+02 -2.348314e+03
3.380349e+06 1.492735e+03 -5.141168e+03
3.376019e+06 9.573644e+02 -5.696235e+03
3.374828e+06 1.495786e+03 4.216971e+03
3.259608e+06 -2.507251e+02 -2.289879e+03
3.381584e+06 1.548729e+03 -4.846179e+03
3.377376e+06 9.982135e+02 -5.436071e+03
3.259073e+06 -2.823918e+02 -2.224159e+03
3.382746e+06 1.602721e+03 -4.540962e+03
3.378669e+06 1.038573e+03 -5.164582e+03
3.258482e+06 -5.003514e+02 -1.518050e+03
3.258555e+06 -3.107786e+02 -2.151920e+03
3.383833e+06 1.653882e+03 -4.226390e+03
3.379895e+06 1.078218e+03 -4.882121e+03
3.258056e+06 -3.349364e+02 -2.073867e+03
3.384840e+06 1.701122e+03 -3.903601e+03
3.381052e+06 1.116834e+03 -4.589185e+03
3.257578e+06 -3.541631e+02 -1.990568e+03
3.385765e+06 1.743036e+03 -3.574009e+03
3.382137e+06 1.153989e+03 -4.286455e+03
3.257120e+06 -3.684983e+02 -1.902521e+03
3.386604e+06 1.777885e+03 -3.239257e+03
3.383147e+06 1.189089e+03 -3.974834e+03
3.256685e+06 -3.786875e+02 -1.810305e+03
3.387355e+06 1.803674e+03 -2.901059e+03
3.384080e+06 1.221318e+03 -3.655461e+03
3.256272e+06 -3.856750e+02 -1.714632e+03
3.388014e+06 1.818521e+03 -2.560806e+03
3.384934e+06 1.249560e+03 -3.329707e+03
3.255883e+06 -3.902743e+02 -1.616262e+03
3.388582e+06 1.821360e+03 -2.219192e+03
3.385706e+06 1.272327e+03 -2.999094e+03
3.255518e+06 -3.931151e+02 -1.515908e+03
3.389058e+06 1.812443e+03 -1.876610e+03
3.386397e+06 1.287772e+03 -2.665127e+03
3.386012e+06 2.069340e+03 2.131232e+03
3.255177e+06 -3.946693e+02 -1.414186e+03
3.389431e+06 1.792899e+03 1.533916e+03
3.387003e+06 1.294154e+03 -2.329081e+03
3.386705e+06 2.091350e+03 1.899485e+03
3.254860e+06 -3.952866e+02 -1.311598e+03
3.389737e+06 1.765675e+03 -1.192981e+03
3.387526e+06 1.290913e+03 -1.991995e+03
3.387313e+06 2.101433e+03 1.666733e+03
3.254467e+06 -6.523502e+02 -8.686758e+02
3.254567e+06 -3.952272e+02 -1.208535e+03
3.387966e+06 1.279165e+03 -1.654970e+03
3.254198e+06 -6.517914e+02 -7.950519e+02
3.254299e+06 -3.946829e+02 -1.105294e+03
3.389944e+06 1.731748e+03 -8.552424e+02
3.388321e+06 1.260802e+03 -1.319387e+03
3.388274e+06 2.085565e+03 1.198920e+03
3.389934e+06 1.731423e+03 8.550930e+02
3.253954e+06 -6.504691e+02 -7.212662e+02
3.254054e+06 -3.937965e+02 -1.002089e+03
3.388898e+06 1.181527e+03 -3.363563e+02
3.388594e+06 1.237564e+03 -9.867921e+02
3.388400e+06 1.585657e+03 -1.363607e+02
3.388786e+06 1.210805e+03 -6.586802e+02
3.253834e+06 -3.926723e+02 -8.990718e+02
3.253637e+06 -3.913866e+02 -7.963474e+02
3.389769e+06 1.512334e+03 7.376040e+02
3.388931e+06 1.150465e+03 -2.089021e+01
3.253464e+06 -3.899940e+02 -6.939836e+02
3.389511e+06 1.464014e+03 1.031137e+03
3.388889e+06 1.118151e+03 2.868805e+02
3.253315e+06 -3.885327e+02 -5.920227e+02
3.389184e+06 1.415209e+03 1.315262e+03
3.388773e+06 1.084976e+03 5.863265e+02
3.253190e+06 -3.870293e+02 -4.904882e+02
3.388792e+06 1.366119e+03 1.589772e+03
3.388586e+06 1.051223e+03 8.769886e+02
3.253088e+06 -3.855019e+02 -3.893916e+02
3.388335e+06 1.316880e+03 1.854530e+03
3.388329e+06 1.017092e+03 1.158541e+03
3.253010e+06 -3.839612e+02 -2.887360e+02
3.387818e+06 1.267578e+03 2.109451e+03
3.388005e+06 9.827272e+02 1.430760e+03
3.252955e+06 -3.824146e+02 -1.885195e+02
3.387242e+06 1.218269e+03 2.354483e+03
3.387616e+06 9.482281e+02 1.693497e+03
3.388248e+06 1.621247e+03 -9.888325e+02
3.252923e+06 -3.808660e+02 -8.873729e+01
3.386600e+06 1.168628e+03 -2.589853e+03
3.387165e+06 9.136614e+02 1.946659e+03
3.387850e+06 1.563897e+03 -1.177104e+03
3.252914e+06 -3.793169e+02 1.061714e+01
3.385923e+06 1.119737e+03 2.814791e+03
3.386654e+06 8.790703e+02 2.190189e+03
3.387391e+06 1.506332e+03 -1.358587e+03
3.252929e+06 -3.777677e+02 1.095502e+02
3.385175e+06 1.070182e+03 -3.030306e+03
3.386085e+06 8.444810e+02 2.424056e+03
3.252871e+06 -6.204870e+02 1.477137e+02
3.252966e+06 -3.762185e+02 2.080688e+02
3.384397e+06 1.021371e+03 3.235391e+03
3.385461e+06 8.099082e+02 2.648248e+03
3.386293e+06 1.390962e+03 -1.700928e+03
3.252931e+06 -6.179273e+02 2.181889e+02
3.253027e+06 -3.746684e+02 3.061791e+02
3.383563e+06 9.722437e+02 3.430810e+03
3.384784e+06 7.753582e+02 2.862761e+03
3.253015e+06 -6.153788e+02 2.883705e+02
3.253110e+06 -3.731162e+02 4.038864e+02
3.382684e+06 9.231422e+02 3.616320e+03
3.384056e+06 7.408315e+02 3.067599e+03
3.253215e+06 -3.715610e+02 5.011956e+02
3.383280e+06 7.063258e+02 3.262768e+03
3.253344e+06 -3.700020e+02 5.981107e+02
3.382459e+06 6.718364e+02 3.448278e+03
3.381762e+06 8.740585e+02 3.791929e+03
3.253495e+06 -3.684388e+02 6.946355e+02
3.379743e+06 5.684049e+02 3.946933e+03
3.379017e+06 7.457776e+02 2.761545e+03
3.381594e+06 6.373573e+02 3.624136e+03
3.380058e+06 1.025685e+03 1.601679e+03
3.253668e+06 -3.668710e+02 7.907730e+02
3.253863e+06 -3.652987e+02 8.865266e+02
3.376603e+06 6.285851e+02 4.521722e+03
3.378761e+06 5.339192e+02 4.093886e+03
3.254081e+06 -3.637229e+02 9.818994e+02
3.375478e+06 5.794323e+02 4.638080e+03
3.377746e+06 4.994195e+02 4.231217e+03
3.254321e+06 -3.621455e+02 1.076896e+03
3.374326e+06 5.302548e+02 4.744590e+03
3.376699e+06 4.649017e+02 4.358932e+03
3.377867e+06 8.153833e+02 -2.997108e+03
3.254583e+06 -3.605692e+02 1.171520e+03
3.373142e+06 4.807360e+02 -4.841520e+03
3.375622e+06 4.303633e+02 4.477039e+03
3.376811e+06 7.578713e+02 -3.088711e+03
3.254867e+06 -3.589981e+02 1.265781e+03
3.371955e+06 4.318602e+02 4.928136e+03
3.374519e+06 3.958036e+02 4.585544e+03
3.375726e+06 7.003432e+02 -3.173423e+03
3.255173e+06 -3.574388e+02 1.359687e+03
3.370731e+06 3.823634e+02 -5.005475e+03
3.373391e+06 3.612249e+02 4.684458e+03
3.255501e+06 -3.559002e+02 1.453253e+03
3.369508e+06 3.335734e+02 5.072585e+03
3.372240e+06 3.266346e+02 4.773795e+03
3.373477e+06 5.852529e+02 -3.322211e+03
3.255761e+06 -5.855809e+02 1.109078e+03
3.255851e+06 -3.543950e+02 1.546499e+03
3.368262e+06 2.845935e+02 5.130288e+03
3.371070e+06 2.920453e+02 4.853580e+03
3.256133e+06 -5.834137e+02 1.175918e+03
3.256222e+06 -3.529399e+02 1.639453e+03
3.367004e+06 2.358402e+02 5.178438e+03
3.369882e+06 2.574790e+02 4.923847e+03
3.256526e+06 -5.814227e+02 1.242615e+03
3.256615e+06 -3.515583e+02 1.732153e+03
3.365737e+06 1.874506e+02 5.217184e+03
3.368678e+06 2.229686e+02 4.984648e+03
3.257030e+06 -3.502817e+02 1.824647e+03
3.364463e+06 1.396158e+02 5.246736e+03
3.367461e+06 1.885628e+02 5.036059e+03
3.257466e+06 -3.491517e+02 1.917000e+03
3.363184e+06 9.259819e+01 5.267379e+03
3.366234e+06 1.543321e+02 5.078194e+03
3.257924e+06 -3.482257e+02 2.009291e+03
3.364998e+06 1.203736e+02 5.111212e+03
3.258403e+06 -3.475798e+02 2.101614e+03
3.361903e+06 4.675026e+01 5.279493e+03
3.363756e+06 8.682351e+01 5.135331e+03
3.258903e+06 -3.473143e+02 2.194072e+03
3.360623e+06 2.536760e+00 5.283576e+03
3.362510e+06 5.386650e+01 5.150853e+03
3.360615e+06 2.210555e+00 -5.283780e+03
3.361261e+06 2.175525e+01 5.158170e+03
3.259425e+06 -3.475518e+02 2.286766e+03
3.259969e+06 -3.484107e+02 2.379783e+03
3.355545e+06 -1.440919e+02 -5.233570e+03
3.358767e+06 -3.842953e+01 5.150302e+03
3.360008e+06 -2.203642e+01 -3.668371e+03
3.260534e+06 -3.499373e+02 2.473193e+03
3.354309e+06 -1.684579e+02 5.207813e+03
3.357525e+06 -6.540811e+01 5.136425e+03
3.358756e+06 -6.777705e+01 -3.665491e+03
3.261121e+06 -3.520671e+02 2.567070e+03
3.353071e+06 -1.877460e+02 -5.177884e+03
3.356288e+06 -8.929533e+01 5.116877e+03
3.261730e+06 -3.546757e+02 2.661504e+03
3.351860e+06 -2.011003e+02 5.143554e+03
3.355058e+06 -1.091963e+02 5.092314e+03
3.356265e+06 -1.463390e+02 -3.648124e+03
3.262361e+06 -3.576438e+02 2.756598e+03
3.350656e+06 -2.103605e+02 5.105811e+03
3.353836e+06 -1.245367e+02 5.063259e+03
3.262923e+06 -5.997050e+02 2.052092e+03
3.263015e+06 -3.608749e+02 2.852455e+03
3.349465e+06 -2.161462e+02 5.065325e+03
3.352623e+06 -1.355047e+02 5.030190e+03
3.263598e+06 -6.053703e+02 2.121760e+03
3.263691e+06 -3.642963e+02 2.949168e+03
3.348286e+06 -2.192942e+02 5.022875e+03
3.351420e+06 -1.428857e+02 4.993687e+03
3.264296e+06 -6.113404e+02 2.192035e+03
3.264389e+06 -3.678533e+02 3.046814e+03
3.347121e+06 -2.204859e+02 4.979134e+03
3.350227e+06 -1.475566e+02 4.954447e+03
3.265111e+06 -3.715057e+02 3.145455e+03
3.345968e+06 -2.202556e+02 4.934652e+03
3.349045e+06 -1.502385e+02 4.913181e+03
3.265856e+06 -3.752235e+02 3.245141e+03
3.344826e+06 -2.190103e+02 4.889854e+03
3.347873e+06 -1.514757e+02 4.870542e+03
3.266625e+06 -3.789842e+02 3.345908e+03
3.343696e+06 -2.170563e+02 4.845059e+03
3.346713e+06 -1.516707e+02 4.827076e+03
3.267417e+06 -3.827716e+02 3.447784e+03
3.342577e+06 -2.146189e+02 4.800500e+03
3.345565e+06 -1.511178e+02 4.783218e+03
3.268233e+06 -3.865733e+02 3.550790e+03
3.341469e+06 -2.118616e+02 4.756342e+03
3.344427e+06 -1.500336e+02 4.739302e+03
3.269074e+06 -3.903809e+02 3.654940e+03
3.340371e+06 -2.089006e+02 4.712697e+03
3.343300e+06 -1.485761e+02 4.695574e+03
3.344384e+06 -2.580535e+02 -3.401667e+03
3.269940e+06 -3.941883e+02 3.760247e+03
3.342184e+06 -1.468609e+02 4.652207e+03
3.343257e+06 -2.557862e+02 -3.370717e+03
3.270831e+06 -3.979910e+02 3.866718e+03
3.338899e+06 -1.408938e+02 4.525308e+03
3.338431e+06 -1.967702e+02 3.111332e+03
3.342141e+06 -2.529299e+02 -3.339881e+03
3.341078e+06 -1.449717e+02 4.609325e+03
3.271747e+06 -4.017862e+02 3.974360e+03
3.272688e+06 -4.055723e+02 4.083179e+03
3.335037e+06 -1.931132e+02 4.503968e+03
3.337824e+06 -1.387755e+02 4.484253e+03
3.337133e+06 -1.997674e+02 -4.585481e+03
3.273656e+06 -4.093484e+02 4.193180e+03
3.333999e+06 -1.899396e+02 4.464249e+03
3.336760e+06 -1.366336e+02 4.443859e+03
3.274544e+06 -6.902843e+02 3.095057e+03
3.274649e+06 -4.131142e+02 4.304368e+03
3.332971e+06 -1.867803e+02 4.425210e+03
3.335705e+06 -1.344806e+02 4.404135e+03
3.275564e+06 -6.969718e+02 3.175717e+03
3.275669e+06 -4.168696e+02 4.416749e+03
3.331952e+06 -1.836349e+02 4.386846e+03
3.334661e+06 -1.323239e+02 4.365081e+03
3.276609e+06 -7.036635e+02 3.257238e+03
3.276716e+06 -4.206155e+02 4.530330e+03
3.330943e+06 -1.805022e+02 4.349154e+03
3.333625e+06 -1.301680e+02 4.326694e+03
3.277790e+06 -4.243524e+02 4.645115e+03
3.329942e+06 -1.773795e+02 4.312128e+03
3.332599e+06 -1.280148e+02 4.288969e+03
3.278891e+06 -4.280812e+02 4.761114e+03
3.328950e+06 -1.742644e+02 4.275765e+03
3.331583e+06 -1.258649e+02 4.251902e+03
3.280020e+06 -4.318029e+02 4.878334e+03
3.327966e+06 -1.711539e+02 4.240060e+03
3.330575e+06 -1.237183e+02 4.215486e+03
3.281177e+06 -4.355179e+02 4.996784e+03
3.326991e+06 -1.680457e+02 4.205011e+03
3.329576e+06 -1.215738e+02 4.179719e+03
3.282363e+06 -4.392267e+02 5.116475e+03
3.326025e+06 -1.649377e+02 4.170616e+03
3.328586e+06 -1.194307e+02 4.144595e+03
3.283576e+06 -4.429285e+02 5.237416e+03
3.325059e+06 -1.621016e+02 -4.136897e+03
3.327605e+06 -1.172875e+02 4.110112e+03
3.328551e+06 -2.050389e+02 -2.976185e+03
3.284819e+06 -4.466211e+02 5.359617e+03
3.324116e+06 -1.587153e+02 4.103778e+03
3.326632e+06 -1.151439e+02 4.076267e+03
3.327570e+06 -2.013484e+02 -2.951473e+03
3.286092e+06 -4.503001e+02 5.483086e+03
3.325667e+06 -1.129987e+02 4.043058e+03
3.326597e+06 -1.976613e+02 -2.927220e+03
3.287394e+06 -4.539578e+02 5.607829e+03
3.323173e+06 -1.555994e+02 4.071333e+03
3.324710e+06 -1.108513e+02 4.010484e+03
3.325633e+06 -1.939758e+02 -2.903427e+03
3.323166e+06 -1.558730e+02 -4.071358e+03
3.288725e+06 -4.575808e+02 5.733844e+03
3.321887e+06 -1.044034e+02 3.916556e+03
3.323761e+06 -1.087023e+02 3.978543e+03
3.321474e+06 -1.452510e+02 2.694536e+03
3.322820e+06 -1.065523e+02 3.947235e+03
3.290088e+06 -4.611496e+02 5.861122e+03
3.292791e+06 -7.903976e+02 -4.397533e+03
3.291480e+06 -4.646341e+02 5.989638e+03
3.318573e+06 -1.401131e+02 3.918684e+03
3.320961e+06 -1.022586e+02 3.886502e+03
3.294245e+06 -7.962663e+02 -4.491148e+03
3.292904e+06 -4.679901e+02 6.119347e+03
3.317675e+06 -1.371103e+02 3.889994e+03
3.320042e+06 -1.001235e+02 3.857069e+03
3.295731e+06 -8.015320e+02 -4.585321e+03
3.294359e+06 -4.711555e+02 6.250174e+03
3.316783e+06 -1.341938e+02 3.861865e+03
3.319131e+06 -9.800578e+01 3.828245e+03
3.297249e+06 -8.059150e+02 -4.679866e+03
3.295845e+06 -4.740434e+02 6.382001e+03
3.315898e+06 -1.314073e+02 3.834248e+03
3.318227e+06 -9.591697e+01 3.800015e+03
3.297364e+06 -4.765331e+02 6.514654e+03
3.315019e+06 -1.288116e+02 3.807083e+03
3.317329e+06 -9.387372e+01 3.772357e+03
3.298800e+06 -8.090461e+02 -4.774524e+03
3.298915e+06 -4.784595e+02 6.647883e+03
3.314146e+06 -1.264877e+02 3.780282e+03
3.316438e+06 -9.189856e+01 3.745236e+03
3.300383e+06 -8.104460e+02 -4.868957e+03
3.300498e+06 -4.795990e+02 6.781347e+03
3.313280e+06 -1.245440e+02 3.753732e+03
3.315554e+06 -9.002300e+01 3.718603e+03
3.302113e+06 -4.796481e+02 6.914586e+03
3.312411e+06 -1.233814e+02 -3.727330e+03
3.314676e+06 -8.828987e+01 3.692392e+03
3.315526e+06 -1.550790e+02 -2.670564e+03
3.303762e+06 -4.781943e+02 7.047012e+03
3.311563e+06 -1.223950e+02 3.700779e+03
3.313805e+06 -8.675686e+01 3.666515e+03
3.314649e+06 -1.523699e+02 -2.651550e+03
3.305333e+06 -7.974738e+02 -5.146130e+03
3.305443e+06 -4.746785e+02 7.177902e+03
3.310706e+06 -1.228436e+02 -3.674047e+03
3.312940e+06 -8.550295e+01 3.640856e+03
3.313777e+06 -1.501022e+02 -2.632681e+03
3.307049e+06 -7.845102e+02 -5.234516e+03
3.307156e+06 -4.683506e+02 7.306421e+03
3.309869e+06 -1.239344e+02 3.646749e+03
3.312080e+06 -8.463418e+01 3.615272e+03
3.312912e+06 -1.484228e+02 -2.613852e+03
3.308799e+06 -7.656025e+02 -5.319920e+03
3.308902e+06 -4.582434e+02 7.431690e+03
3.309029e+06 -1.266635e+02 3.618871e+03
3.311227e+06 -8.429379e+01 3.589595e+03
3.310580e+06 -7.399388e+02 -5.401966e+03
3.310679e+06 -4.432646e+02 7.552901e+03
3.310381e+06 -8.466931e+01 3.563642e+03
3.312393e+06 -7.070925e+02 -5.480498e+03
3.312486e+06 -4.226548e+02 7.669403e+03
3.309540e+06 -8.598671e+01 3.537236e+03
3.308195e+06 -1.308873e+02 3.590293e+03
3.316107e+06 -6.206020e+02 -5.626569e+03
3.314323e+06 -3.965508e+02 7.780612e+03
3.307056e+06 -9.678910e+01 3.453930e+03
3.306695e+06 -1.406227e+02 2.372138e+03
3.308705e+06 -8.844641e+01 3.510230e+03
3.307496e+06 -1.782387e+02 1.463499e+03
3.318006e+06 -5.683776e+02 -5.693455e+03
3.316188e+06 -3.658726e+02 7.885830e+03
3.319929e+06 -5.114601e+02 -5.755488e+03
3.318079e+06 -3.317132e+02 7.984208e+03
3.304113e+06 -1.695886e+02 3.433138e+03
3.306241e+06 -1.022977e+02 3.424339e+03
3.321876e+06 -4.508161e+02 -5.812024e+03
3.319995e+06 -2.949933e+02 8.074850e+03
3.303318e+06 -1.793871e+02 3.397613e+03
3.305433e+06 -1.084157e+02 3.393551e+03
3.321932e+06 -2.564191e+02 8.156925e+03
3.302531e+06 -1.895053e+02 3.360366e+03
3.304633e+06 -1.149808e+02 3.361391e+03
3.323844e+06 -3.873010e+02 -5.862459e+03
3.323890e+06 -2.165169e+02 8.229714e+03
3.301753e+06 -1.998511e+02 3.321303e+03
3.303841e+06 -1.218717e+02 3.327705e+03
3.304599e+06 -1.958088e+02 -2.405514e+03
3.325829e+06 -3.216321e+02 -5.906270e+03
3.325866e+06 -1.756761e+02 8.292635e+03
3.300984e+06 -2.103559e+02 3.280353e+03
3.303057e+06 -1.289995e+02 3.292368e+03
3.303805e+06 -2.066552e+02 -2.380987e+03
3.327830e+06 -2.543884e+02 -5.943029e+03
3.327857e+06 -1.341850e+02 8.345230e+03
3.300218e+06 -2.212245e+02 -3.237549e+03
3.302282e+06 -1.362979e+02 3.255282e+03
3.303020e+06 -2.180059e+02 -2.355377e+03
3.329844e+06 -1.860236e+02 -5.972396e+03
3.329860e+06 -9.225666e+01 8.387149e+03
3.299476e+06 -2.316524e+02 3.192605e+03
3.301516e+06 -1.437186e+02 3.216374e+03
3.331868e+06 -1.168848e+02 -5.994113e+03
3.331873e+06 -5.004675e+01 8.418132e+03
3.298730e+06 -2.426374e+02 -3.145835e+03
3.300759e+06 -1.512258e+02 3.175590e+03
3.333899e+06 -4.722949e+01 -6.007984e+03
3.333894e+06 -7.669563e+00 8.437988e+03
3.298010e+06 -2.531392e+02 3.096881e+03
3.300012e+06 -1.587927e+02 3.132891e+03
3.300716e+06 -2.539114e+02 -2.271234e+03
3.335936e+06 2.275118e+01 -6.013867e+03
3.335919e+06 3.479333e+01 8.446580e+03
3.297294e+06 -2.639114e+02 3.045992e+03
3.299276e+06 -1.664011e+02 3.088254e+03
3.337946e+06 7.728383e+01 8.443807e+03
3.296591e+06 -2.746920e+02 2.993077e+03
3.298551e+06 -1.740371e+02 3.041660e+03
3.339973e+06 1.197620e+02 8.429597e+03
3.295900e+06 -2.854755e+02 2.938133e+03
3.297837e+06 -1.816910e+02 2.993100e+03
3.344072e+06 3.038195e+02 -5.955838e+03
3.341995e+06 1.622019e+02 8.403898e+03
3.297135e+06 -1.893566e+02 2.942569e+03
3.346090e+06 3.741075e+02 -5.920696e+03
3.344012e+06 2.045867e+02 8.366672e+03
3.295222e+06 -2.962604e+02 2.881159e+03
3.296446e+06 -1.970290e+02 2.890063e+03
3.348096e+06 4.443635e+02 -5.877242e+03
3.346019e+06 2.469078e+02 8.317885e+03
3.294455e+06 -2.200700e+02 2.720695e+03
3.295769e+06 -2.047066e+02 2.835582e+03
3.348015e+06 2.891605e+02 8.257510e+03
3.352062e+06 5.847710e+02 -5.765324e+03
3.349995e+06 3.313443e+02 8.185523e+03
3.292043e+06 -3.502092e+02 2.565842e+03
3.293819e+06 -2.277555e+02 2.660289e+03
3.294395e+06 -3.662155e+02 -1.944837e+03
3.351959e+06 3.734612e+02 8.101902e+03
3.291453e+06 -3.610147e+02 2.496686e+03
3.293198e+06 -2.354433e+02 2.597909e+03
3.293757e+06 -3.787481e+02 -1.901495e+03
3.354016e+06 6.549310e+02 -5.696825e+03
3.353902e+06 4.155150e+02 8.006622e+03
3.290872e+06 -3.720769e+02 -2.425582e+03
3.292592e+06 -2.431345e+02 2.533553e+03
3.293134e+06 -3.912849e+02 -1.856731e+03
3.355946e+06 7.250725e+02 -5.619943e+03
3.355822e+06 4.575105e+02 7.899659e+03
3.290321e+06 -3.826589e+02 2.352266e+03
3.292001e+06 -2.508295e+02 2.467222e+03
3.357851e+06 7.952049e+02 -5.534659e+03
3.357716e+06 4.994535e+02 7.780988e+03
3.289774e+06 -3.937457e+02 -2.277084e+03
3.291426e+06 -2.585294e+02 2.398913e+03
3.359727e+06 8.653381e+02 -5.440958e+03
3.359581e+06 5.413503e+02 7.650583e+03
3.289257e+06 -4.043566e+02 2.199686e+03
3.290867e+06 -2.662344e+02 2.328623e+03
3.291356e+06 -4.289446e+02 -1.713900e+03
3.361571e+06 9.354818e+02 -5.338818e+03
3.361415e+06 5.832064e+02 7.508417e+03
3.288752e+06 -4.152240e+02 2.120330e+03
3.290326e+06 -2.739442e+02 2.256350e+03
3.363381e+06 1.005643e+03 -5.228223e+03
3.363214e+06 6.250278e+02 7.354463e+03
3.288265e+06 -4.260977e+02 2.038930e+03
3.289802e+06 -2.816589e+02 2.182090e+03
3.290252e+06 -4.541174e+02 -1.611547e+03
3.365153e+06 1.075826e+03 -5.109155e+03
3.364975e+06 6.668180e+02 7.188692e+03
3.287797e+06 -4.369675e+02 1.955492e+03
3.289295e+06 -2.893761e+02 2.105839e+03
3.366885e+06 1.146027e+03 -4.981600e+03
3.366696e+06 7.085787e+02 7.011080e+03
3.287349e+06 -4.478146e+02 1.870027e+03
3.288807e+06 -2.970923e+02 2.027598e+03
3.370215e+06 1.286417e+03 -4.701004e+03
3.368374e+06 7.503073e+02 6.821606e+03
3.286920e+06 -4.586111e+02 1.782557e+03
3.288337e+06 -3.048011e+02 1.947366e+03
3.370208e+06 1.286057e+03 4.701295e+03
3.370006e+06 7.919955e+02 6.620256e+03
3.287887e+06 -3.124918e+02 1.865149e+03
3.371801e+06 1.356169e+03 4.548271e+03
3.371588e+06 8.336246e+02 6.407030e+03
3.287456e+06 -3.201487e+02 1.780960e+03
3.286512e+06 -4.693127e+02 1.693119e+03
3.373119e+06 8.751637e+02 6.181947e+03
3.286285e+06 -3.426229e+02 1.516885e+03
3.286264e+06 -4.720549e+02 1.012313e+03
3.287045e+06 -3.277480e+02 1.694822e+03
3.286566e+06 -5.996701e+02 6.539496e+02
3.376264e+06 1.565320e+03 -4.038603e+03
3.374594e+06 9.165623e+02 5.945055e+03
3.376012e+06 9.577439e+02 5.696446e+03
3.284785e+06 -5.182227e+02 -1.219787e+03
3.285937e+06 -3.497832e+02 1.425243e+03
3.377631e+06 1.633738e+03 -3.852442e+03
3.377368e+06 9.985969e+02 5.436274e+03
3.284515e+06 -5.254043e+02 1.121164e+03
3.285611e+06 -3.566435e+02 1.331986e+03
3.285844e+06 -5.776870e+02 -1.015508e+03
3.378934e+06 1.701006e+03 -3.658468e+03
3.378661e+06 1.038960e+03 5.164775e+03
3.284264e+06 -5.313066e+02 1.022099e+03
3.285307e+06 -3.630785e+02 1.237306e+03
3.285516e+06 -5.884473e+02 -9.490217e+02
3.380170e+06 1.766594e+03 -3.457050e+03
3.379888e+06 1.078608e+03 4.882301e+03
3.284037e+06 -5.351374e+02 9.230725e+02
3.285026e+06 -3.689180e+02 1.141463e+03
3.285211e+06 -5.982569e+02 -8.817317e+02
3.381336e+06 1.829795e+03 -3.248688e+03
3.381045e+06 1.117227e+03 4.589349e+03
3.283836e+06 -5.362305e+02 8.247156e+02
3.284768e+06 -3.739327e+02 1.044799e+03
3.284929e+06 -6.067592e+02 -8.138904e+02
3.382429e+06 1.889690e+03 -3.034042e+03
3.382130e+06 1.154385e+03 4.286601e+03
3.283661e+06 -5.338060e+02 7.277086e+02
3.284532e+06 -3.778119e+02 9.477443e+02
3.383446e+06 1.945124e+03 -2.813939e+03
3.383140e+06 1.189488e+03 3.974958e+03
3.283513e+06 -5.270644e+02 6.326630e+02
3.284320e+06 -3.801378e+02 8.508223e+02
3.384386e+06 1.994689e+03 -2.589369e+03
3.384073e+06 1.221719e+03 3.655560e+03
3.283390e+06 -5.154331e+02 5.399381e+02
3.284132e+06 -3.803548e+02 7.546228e+02
3.385244e+06 2.036759e+03 -2.361422e+03
3.384926e+06 1.249965e+03 3.329778e+03
3.283294e+06 -4.988134e+02 4.496741e+02
3.283967e+06 -3.777629e+02 6.597498e+02
3.386713e+06 2.091603e+03 -1.899469e+03
3.385699e+06 1.272735e+03 2.999135e+03
3.283222e+06 -4.776275e+02 3.621286e+02
3.283825e+06 -3.716128e+02 5.667385e+02
3.387320e+06 2.101685e+03 -1.666758e+03
3.386389e+06 1.288183e+03 2.665136e+03
3.283173e+06 -4.526271e+02 2.778388e+02
3.283705e+06 -3.614694e+02 4.760143e+02
3.387844e+06 2.099559e+03 -1.433201e+03
3.386996e+06 1.294564e+03 2.329057e+03
3.283147e+06 -4.246176e+02 1.974785e+02
3.283607e+06 -3.475509e+02 3.879786e+02
3.387519e+06 1.291322e+03 1.991938e+03
3.283531e+06 -3.305447e+02 3.031263e+02
3.388635e+06 2.061795e+03 -9.648438e+02
3.387958e+06 1.279571e+03 1.654882e+03
3.283141e+06 -3.943114e+02 1.217056e+02
3.283475e+06 -3.111923e+02 2.220458e+02
3.388314e+06 1.261205e+03 1.319270e+03
3.283416e+06 -2.444591e+02 7.174708e+00
3.283438e+06 -2.901035e+02 1.453406e+02
3.283525e+06 -3.157955e+02 -5.809173e+00
3.283418e+06 -2.677438e+02 7.356172e+01
3.388904e+06 2.029160e+03 -7.316067e+02
3.388587e+06 1.237964e+03 9.866487e+02
3.388778e+06 1.211201e+03 6.585124e+02
3.283355e+06 -2.247832e+02 -1.718010e+02
3.283428e+06 -2.205064e+02 -5.344621e+01
3.388890e+06 1.181920e+03 3.361678e+02
3.283434e+06 -1.892452e+02 -2.113982e+02
3.283454e+06 -1.960748e+02 -1.080127e+02
3.389223e+06 1.895936e+03 -4.839770e+01
3.388924e+06 1.150854e+03 2.068499e+01
3.283522e+06 -1.535199e+02 -2.442649e+02
3.283493e+06 -1.713053e+02 -1.563095e+02
3.389173e+06 1.844139e+03 1.707250e+02
3.388882e+06 1.118537e+03 -2.871001e+02
3.283617e+06 -1.176811e+02 -2.703316e+02
3.283542e+06 -1.463011e+02 -1.981810e+02
3.389049e+06 1.790244e+03 3.843820e+02
3.388766e+06 1.085359e+03 -5.865575e+02
3.283716e+06 -8.177827e+01 -2.895529e+02
3.283600e+06 -1.211377e+02 -2.335180e+02
3.388853e+06 1.734893e+03 5.921101e+02
3.388579e+06 1.051601e+03 -8.772284e+02
3.283819e+06 -4.584434e+01 -3.019003e+02
3.283665e+06 -9.586939e+01 -2.622458e+02
3.388588e+06 1.678562e+03 7.935688e+02
3.388322e+06 1.017466e+03 -1.158787e+03
3.283925e+06 -9.899500e+00 -3.073568e+02
3.283737e+06 -7.053498e+01 -2.843160e+02
3.387858e+06 1.564253e+03 1.176786e+03
3.387998e+06 9.830980e+02 -1.431011e+03
3.284030e+06 2.604501e+01 -3.059132e+02
3.283813e+06 -4.516105e+01 -2.996977e+02
3.387398e+06 1.506689e+03 1.358266e+03
3.387609e+06 9.485952e+02 -1.693752e+03
3.284135e+06 6.198403e+01 -2.975642e+02
3.283891e+06 -1.976543e+01 -3.083732e+02
3.386878e+06 1.449021e+03 1.532887e+03
3.387158e+06 9.140250e+02 -1.946916e+03
3.284236e+06 9.791737e+01 -2.823076e+02
3.283971e+06 5.640879e+00 -3.103325e+02
3.386647e+06 8.794305e+02 -2.190447e+03
3.284334e+06 1.338475e+02 -2.601410e+02
3.284051e+06 3.105084e+01 -3.055708e+02
3.385667e+06 1.333626e+03 1.861400e+03
3.386078e+06 8.448382e+02 -2.424315e+03
3.284418e+06 1.695244e+02 2.311861e+02
3.284425e+06 1.697795e+02 -2.310630e+02
3.284128e+06 5.646180e+01 -2.940861e+02
3.385454e+06 8.102625e+02 -2.648507e+03
3.284202e+06 8.187274e+01 -2.758773e+02
3.384981e+06 1.275965e+03 2.015260e+03
3.384777e+06 7.757095e+02 -2.863020e+03
3.284388e+06 1.581240e+02 -1.808917e+02
3.284271e+06 1.072853e+02 -2.509435e+02
3.284218e+06 1.348810e+02 1.706139e+02
3.384245e+06 1.218344e+03 2.162183e+03
3.384049e+06 7.411804e+02 -3.067858e+03
3.383461e+06 1.160763e+03 2.302171e+03
3.383274e+06 7.066725e+02 -3.263027e+03
3.284740e+06 3.497072e+02 1.814953e+01
3.284432e+06 1.835569e+02 -1.357656e+02
3.284423e+06 2.607678e+02 1.024068e+02
3.382630e+06 1.103217e+03 2.435229e+03
3.382452e+06 6.721803e+02 -3.448537e+03
3.284763e+06 3.857928e+02 8.880029e+01
3.284465e+06 2.090031e+02 -8.389817e+01
3.381756e+06 1.045697e+03 2.561364e+03
3.381587e+06 6.376988e+02 -3.624396e+03
3.284770e+06 4.219173e+02 1.664009e+02
3.284486e+06 2.344649e+02 -2.528194e+01
3.380681e+06 6.032212e+02 -3.790612e+03
3.284758e+06 4.580728e+02 2.509503e+02
3.284491e+06 2.599439e+02 4.009110e+01
3.379736e+06 5.687414e+02 -3.947192e+03
3.284727e+06 4.942397e+02 3.424387e+02
3.284480e+06 2.854386e+02 1.122287e+02
3.378897e+06 8.732154e+02 2.898287e+03
3.378755e+06 5.342531e+02 -4.094145e+03
3.284673e+06 5.303811e+02 4.408405e+02
3.284452e+06 3.109434e+02 1.911353e+02
3.376817e+06 7.582008e+02 3.088387e+03
3.377739e+06 4.997511e+02 -4.231476e+03
3.284597e+06 5.664357e+02 5.461066e+02
3.284405e+06 3.364471e+02 2.768098e+02
3.375732e+06 7.006703e+02 3.173098e+03
3.376692e+06 4.652310e+02 -4.359192e+03
3.284496e+06 6.023073e+02 6.581529e+02
3.284336e+06 3.619292e+02 3.692410e+02
3.374620e+06 6.431259e+02 3.250928e+03
3.375616e+06 4.306899e+02 -4.477299e+03
3.284361e+06 6.376030e+02 -7.767417e+02
3.284245e+06 3.873561e+02 4.684007e+02
3.374513e+06 3.961273e+02 -4.585803e+03
3.284213e+06 6.728564e+02 9.019770e+02
3.284131e+06 4.126768e+02 5.742354e+02
3.372324e+06 5.280417e+02 3.385990e+03
3.373384e+06 3.615461e+02 -4.684717e+03
3.284027e+06 7.070247e+02 1.033249e+03
3.283990e+06 4.378154e+02 6.866538e+02
3.372234e+06 3.269527e+02 -4.774055e+03
3.283822e+06 4.626624e+02 8.055103e+02
3.371145e+06 4.705553e+02 3.443266e+03
3.371064e+06 2.923605e+02 -4.853839e+03
3.283626e+06 4.870635e+02 9.305846e+02
3.283810e+06 7.399414e+02 1.170230e+03
3.283935e+06 7.635085e+02 -6.054235e+02
3.369948e+06 4.131709e+02 3.493754e+03
3.369876e+06 2.577910e+02 -4.924104e+03
3.282851e+06 5.550282e+02 1.339201e+03
3.282434e+06 7.644968e+02 9.830944e+02
3.283400e+06 5.108047e+02 1.061555e+03
3.282836e+06 9.536936e+02 5.571315e+02
3.368735e+06 3.559691e+02 3.537510e+03
3.368672e+06 2.232773e+02 -4.984902e+03
3.367510e+06 2.990670e+02 3.574618e+03
3.367456e+06 1.888686e+02 -5.036311e+03
3.282181e+06 8.581296e+02 1.911958e+03
3.282525e+06 5.745708e+02 1.484424e+03
3.366274e+06 2.426297e+02 3.605198e+03
3.366228e+06 1.546344e+02 -5.078442e+03
3.281732e+06 8.631869e+02 2.062400e+03
3.282164e+06 5.914887e+02 1.632573e+03
3.365030e+06 1.868825e+02 3.629413e+03
3.364992e+06 1.206731e+02 -5.111454e+03
3.281238e+06 8.575558e+02 2.209552e+03
3.281767e+06 6.047933e+02 1.782333e+03
3.363779e+06 1.321277e+02 3.647483e+03
3.363750e+06 8.711967e+01 -5.135567e+03
3.280698e+06 8.393160e+02 2.352084e+03
3.281333e+06 6.131608e+02 1.932171e+03
3.362525e+06 7.876073e+01 3.659698e+03
3.362504e+06 5.415948e+01 -5.151081e+03
3.280114e+06 8.075609e+02 2.489419e+03
3.280862e+06 6.148672e+02 2.080442e+03
3.361263e+06 2.693997e+01 -3.666706e+03
3.361256e+06 2.204522e+01 -5.158388e+03
3.279487e+06 7.628166e+02 2.621117e+03
3.280355e+06 6.078740e+02 2.225581e+03
3.358761e+06 -6.742665e+01 3.665244e+03
3.360008e+06 -8.878788e+00 -5.157989e+03
3.278819e+06 7.067958e+02 2.746061e+03
3.279811e+06 5.904706e+02 2.366307e+03
3.357513e+06 -1.091249e+02 3.658361e+03
3.358762e+06 -3.814550e+01 -5.150495e+03
3.279232e+06 5.624007e+02 2.501548e+03
3.357519e+06 -6.512690e+01 -5.136604e+03
3.277369e+06 5.693489e+02 -2.969023e+03
3.278620e+06 5.250804e+02 2.630104e+03
3.355037e+06 -1.773658e+02 3.634201e+03
3.356282e+06 -8.901694e+01 -5.117042e+03
3.276609e+06 4.920809e+02 3.062920e+03
3.277977e+06 4.805553e+02 2.750482e+03
3.278738e+06 8.365865e+02 -1.846493e+03
3.355052e+06 -1.089203e+02 -5.092464e+03
3.275819e+06 4.107044e+02 3.143785e+03
3.277305e+06 4.306473e+02 2.861043e+03
3.278086e+06 7.693726e+02 -1.925820e+03
3.353810e+06 -2.029563e+02 3.617339e+03
3.353830e+06 -1.242620e+02 -5.063392e+03
3.276607e+06 3.767779e+02 2.960225e+03
3.277404e+06 6.927203e+02 -1.999436e+03
3.352594e+06 -2.228510e+02 3.597395e+03
3.352617e+06 -1.352304e+02 -5.030307e+03
3.275886e+06 3.200114e+02 3.046666e+03
3.275009e+06 3.264771e+02 3.210197e+03
3.276694e+06 6.084782e+02 -2.066165e+03
3.351388e+06 -2.375311e+02 3.574558e+03
3.351414e+06 -1.426112e+02 -4.993790e+03
3.273624e+06 1.392291e+02 3.219599e+03
3.273188e+06 1.439679e+02 2.204964e+03
3.275146e+06 2.611354e+02 3.119253e+03
3.273958e+06 2.927040e+02 1.294105e+03
3.350192e+06 -2.477323e+02 3.549207e+03
3.350221e+06 -1.472821e+02 -4.954536e+03
3.349009e+06 -2.542715e+02 3.521835e+03
3.349039e+06 -1.499635e+02 -4.913259e+03
3.270818e+06 -1.151804e+02 3.302706e+03
3.272848e+06 7.694488e+01 3.246228e+03
3.347837e+06 -2.579235e+02 3.492956e+03
3.347868e+06 -1.512010e+02 -4.870609e+03
3.269980e+06 -2.051689e+02 3.270923e+03
3.272069e+06 1.411054e+01 3.256669e+03
3.346676e+06 -2.593653e+02 3.463041e+03
3.346708e+06 -1.513959e+02 -4.827133e+03
3.269152e+06 -2.953068e+02 3.222033e+03
3.271289e+06 -4.910507e+01 3.250695e+03
3.345527e+06 -2.591580e+02 3.432487e+03
3.345559e+06 -1.508430e+02 -4.783268e+03
3.268337e+06 -3.855241e+02 3.155995e+03
3.270513e+06 -1.125812e+02 3.228161e+03
3.343262e+06 -2.554883e+02 3.370671e+03
3.344421e+06 -1.497581e+02 -4.739345e+03
3.267534e+06 -4.759818e+02 -3.073232e+03
3.269744e+06 -1.762327e+02 3.188981e+03
3.342147e+06 -2.526382e+02 3.339838e+03
3.343294e+06 -1.483003e+02 -4.695612e+03
3.266764e+06 -5.660440e+02 2.972413e+03
3.268987e+06 -2.400007e+02 3.133107e+03
3.341042e+06 -2.493930e+02 3.309247e+03
3.342178e+06 -1.465848e+02 -4.652242e+03
3.266013e+06 -6.563120e+02 2.854871e+03
3.268244e+06 -3.038451e+02 3.060519e+03
3.341073e+06 -1.446954e+02 -4.609357e+03
3.265291e+06 -7.465799e+02 2.720173e+03
3.267522e+06 -3.677398e+02 2.971213e+03
3.339942e+06 -2.461802e+02 -3.279032e+03
3.339978e+06 -1.426921e+02 -4.567038e+03
3.264601e+06 -8.368513e+02 2.568325e+03
3.266822e+06 -4.316686e+02 2.865195e+03
3.267425e+06 -6.095456e+02 -2.064402e+03
3.338893e+06 -1.406168e+02 -4.525335e+03
3.263948e+06 -9.271342e+02 2.399335e+03
3.266149e+06 -4.956214e+02 2.742476e+03
3.337819e+06 -1.384982e+02 -4.484279e+03
3.263336e+06 -1.017437e+03 2.213202e+03
3.265506e+06 -5.595926e+02 2.603066e+03
3.336725e+06 -2.347266e+02 3.190747e+03
3.336755e+06 -1.363562e+02 -4.443886e+03
3.264899e+06 -6.235800e+02 2.446973e+03
3.335672e+06 -2.309357e+02 3.162255e+03
3.335700e+06 -1.342030e+02 -4.404162e+03
3.264330e+06 -6.875816e+02 2.274200e+03
3.262768e+06 -1.107771e+03 2.009923e+03
3.334627e+06 -2.271502e+02 3.134242e+03
3.334655e+06 -1.320465e+02 -4.365107e+03
3.262892e+06 -8.796613e+02 1.655765e+03
3.263103e+06 -1.242651e+03 1.034030e+03
3.263803e+06 -7.515970e+02 2.084747e+03
3.263345e+06 -1.498466e+03 6.865727e+02
3.333593e+06 -2.233787e+02 3.106709e+03
3.333620e+06 -1.298907e+02 -4.326720e+03
3.332567e+06 -2.196247e+02 3.079653e+03
3.332594e+06 -1.277376e+02 -4.288995e+03
3.260725e+06 -1.560089e+03 7.358828e+02
3.262516e+06 -9.437003e+02 1.416205e+03
3.331551e+06 -2.158883e+02 3.053072e+03
3.331577e+06 -1.255882e+02 -4.251928e+03
3.260502e+06 -1.650615e+03 4.294473e+02
3.262197e+06 -1.007730e+03 1.159906e+03
3.330544e+06 -2.121681e+02 3.026964e+03
3.330570e+06 -1.234417e+02 -4.215512e+03
3.260351e+06 -1.741062e+03 1.058069e+02
3.261940e+06 -1.071733e+03 8.868482e+02
3.329546e+06 -2.084609e+02 3.001323e+03
3.329571e+06 -1.212975e+02 -4.179745e+03
3.261749e+06 -1.135678e+03 5.970140e+02
3.327575e+06 -2.010732e+02 2.951436e+03
3.328581e+06 -1.191546e+02 -4.144621e+03
3.260274e+06 -1.921400e+03 5.924102e+02
3.261627e+06 -1.199520e+03 2.903992e+02
3.326603e+06 -1.973867e+02 2.927183e+03
3.327599e+06 -1.170121e+02 -4.110139e+03
3.260363e+06 -2.010536e+03 -9.675479e+02
3.261578e+06 -1.263193e+03 -3.297821e+01
3.325638e+06 -1.937015e+02 2.903390e+03
3.326626e+06 -1.148685e+02 -4.076293e+03
3.260536e+06 -2.098884e+03 -1.358839e+03
3.261606e+06 -1.326596e+03 -3.730636e+02
3.261254e+06 -2.085151e+03 9.373116e+01
3.324682e+06 -1.900168e+02 2.880053e+03
3.325662e+06 -1.127234e+02 -4.043085e+03
3.260800e+06 -2.185767e+03 -1.766256e+03
3.261716e+06 -1.389591e+03 -7.297452e+02
3.261266e+06 -2.190081e+03 3.379429e+02
3.324705e+06 -1.105764e+02 -4.010511e+03
3.261159e+06 -2.270481e+03 -2.189141e+03
3.261910e+06 -1.451980e+03 -1.102827e+03
3.323734e+06 -1.863309e+02 2.857171e+03
3.323756e+06 -1.084278e+02 -3.978570e+03
3.261619e+06 -2.352067e+03 -2.626555e+03
3.262194e+06 -1.513490e+03 -1.491993e+03
3.322815e+06 -1.062783e+02 -3.947261e+03
3.262184e+06 -2.429235e+03 -3.077206e+03
3.262570e+06 -1.573749e+03 -1.896763e+03
3.321882e+06 -1.041294e+02 -3.916582e+03
3.263042e+06 -1.632250e+03 -2.316436e+03
3.320935e+06 -1.753001e+02 2.791230e+03
3.320956e+06 -1.019847e+02 -3.886529e+03
3.263615e+06 -1.688313e+03 -2.750024e+03
3.262858e+06 -2.500279e+03 -3.539367e+03
3.320017e+06 -1.716577e+02 2.770132e+03
3.320037e+06 -9.984960e+01 -3.857096e+03
3.265969e+06 -1.831022e+03 -4.118668e+03
3.267302e+06 -2.501614e+03 -3.021297e+03
3.264292e+06 -1.741021e+03 -3.196182e+03
3.266058e+06 -3.167118e+03 -1.684711e+03
3.319106e+06 -1.680578e+02 2.749459e+03
3.319126e+06 -9.773199e+01 -3.828272e+03
3.318203e+06 -1.645283e+02 2.729193e+03
3.318221e+06 -9.564323e+01 -3.800044e+03
3.268052e+06 -2.664396e+03 -5.928412e+03
3.266976e+06 -1.864434e+03 -4.590064e+03
3.317306e+06 -1.611071e+02 2.709308e+03
3.317324e+06 -9.360020e+01 -3.772386e+03
3.269479e+06 -2.634172e+03 6.401208e+03
3.268096e+06 -1.886439e+03 -5.064300e+03
3.316415e+06 -1.578460e+02 2.689768e+03
3.316433e+06 -9.162513e+01 -3.745266e+03
3.271043e+06 -2.577441e+03 -6.868079e+03
3.269333e+06 -1.893364e+03 -5.538306e+03
3.314654e+06 -1.521092e+02 2.651506e+03
3.315549e+06 -8.974975e+01 -3.718635e+03
3.272734e+06 -2.497512e+03 -7.328011e+03
3.270685e+06 -1.881405e+03 -6.009397e+03
3.313783e+06 -1.498437e+02 2.632633e+03
3.314671e+06 -8.801657e+01 -3.692427e+03
3.274550e+06 -2.398055e+03 -7.777987e+03
3.272152e+06 -1.848576e+03 -6.475433e+03
3.312918e+06 -1.481666e+02 2.613800e+03
3.313800e+06 -8.648409e+01 -3.666552e+03
3.276485e+06 -2.283231e+03 -8.214500e+03
3.273733e+06 -1.796304e+03 -6.934334e+03
3.271707e+06 -3.004628e+03 4.611067e+03
3.312059e+06 -1.472540e+02 2.594885e+03
3.312934e+06 -8.523021e+01 -3.640896e+03
3.278531e+06 -2.156693e+03 -8.634149e+03
3.275426e+06 -1.728257e+03 -7.383503e+03
3.312075e+06 -8.436169e+01 -3.615315e+03
3.280682e+06 -2.021431e+03 -9.033970e+03
3.277228e+06 -1.648245e+03 -7.819871e+03
3.311205e+06 -1.473060e+02 2.575755e+03
3.311222e+06 -8.402135e+01 -3.589642e+03
3.282930e+06 -1.879801e+03 -9.411529e+03
3.279133e+06 -1.559385e+03 -8.240313e+03
3.310358e+06 -1.485322e+02 2.556285e+03
3.310376e+06 -8.439707e+01 -3.563692e+03
3.285267e+06 -1.733623e+03 -9.764906e+03
3.281139e+06 -1.464061e+03 -8.641982e+03
3.309517e+06 -1.511207e+02 2.536380e+03
3.309535e+06 -8.571475e+01 -3.537290e+03
3.283240e+06 -1.364057e+03 -9.022463e+03
3.308682e+06 -1.551923e+02 2.515993e+03
3.308700e+06 -8.817504e+01 -3.510289e+03
3.285430e+06 -1.260705e+03 -9.379805e+03
3.287686e+06 -1.584278e+03 -1.009263e+04
3.307872e+06 -9.182532e+01 -3.482568e+03
3.292475e+06 -9.392889e+02 -1.029957e+04
3.294158e+06 -1.239701e+03 -7.154161e+03
3.287703e+06 -1.154998e+03 -9.712488e+03
3.291596e+06 -1.817374e+03 -4.198842e+03
3.307051e+06 -9.651937e+01 -3.453996e+03
3.306215e+06 -1.760480e+02 2.451695e+03
3.306236e+06 -1.020294e+02 -3.424409e+03
3.294961e+06 -8.302440e+02 -1.055249e+04
3.305406e+06 -1.853772e+02 2.428976e+03
3.305428e+06 -1.081480e+02 -3.393625e+03
3.303546e+06 -6.636445e+02 1.147591e+04
3.297505e+06 -7.208361e+02 -1.077768e+04
3.303810e+06 -2.064032e+02 2.380884e+03
3.304628e+06 -1.147139e+02 -3.361468e+03
3.306357e+06 -5.092558e+02 -1.160464e+04
3.300102e+06 -6.112799e+02 -1.097480e+04
3.297322e+06 -1.246969e+03 7.620241e+03
3.303025e+06 -2.177528e+02 2.355271e+03
3.303836e+06 -1.216060e+02 -3.327784e+03
3.309192e+06 -3.552366e+02 -1.170460e+04
3.302743e+06 -5.017259e+02 -1.114365e+04
3.299946e+06 -1.068040e+03 7.761295e+03
3.302248e+06 -2.294764e+02 2.328486e+03
3.303052e+06 -1.287347e+02 -3.292450e+03
3.312049e+06 -2.014369e+02 -1.177506e+04
3.305423e+06 -3.922776e+02 -1.128404e+04
3.302615e+06 -8.887664e+02 7.882151e+03
3.302277e+06 -1.360342e+02 -3.255366e+03
3.314920e+06 -4.786958e+01 -1.181591e+04
3.308135e+06 -2.830040e+02 -1.139584e+04
3.305323e+06 -7.093621e+02 7.982636e+03
3.301480e+06 -2.414707e+02 2.300455e+03
3.301511e+06 -1.434560e+02 -3.216459e+03
3.317800e+06 1.054672e+02 -1.182708e+04
3.310872e+06 -1.739489e+02 -1.147896e+04
3.299973e+06 -2.659734e+02 2.240450e+03
3.300754e+06 -1.509642e+02 -3.175676e+03
3.320682e+06 2.585861e+02 -1.180848e+04
3.313628e+06 -6.513735e+01 -1.153331e+04
3.300008e+06 -1.585323e+02 -3.132979e+03
3.323559e+06 4.115061e+02 -1.176002e+04
3.316396e+06 4.341909e+01 -1.155880e+04
3.299235e+06 -2.783782e+02 2.208407e+03
3.299272e+06 -1.661418e+02 -3.088342e+03
3.326423e+06 5.642511e+02 -1.168160e+04
3.319168e+06 1.517182e+02 -1.155534e+04
3.298507e+06 -2.908390e+02 2.174974e+03
3.298546e+06 -1.737786e+02 -3.041749e+03
3.329269e+06 7.168464e+02 -1.157315e+04
3.321939e+06 2.597648e+02 -1.152286e+04
3.297792e+06 -3.033339e+02 2.140138e+03
3.297833e+06 -1.814336e+02 -2.993189e+03
3.324701e+06 3.675683e+02 -1.146127e+04
3.297088e+06 -3.158482e+02 2.103891e+03
3.297131e+06 -1.890999e+02 -2.942658e+03
3.332088e+06 8.693184e+02 -1.143454e+04
3.327447e+06 4.751413e+02 -1.137048e+04
3.296396e+06 -3.283728e+02 2.066229e+03
3.296441e+06 -1.967738e+02 -2.890153e+03
3.334874e+06 1.021694e+03 -1.126570e+04
3.330171e+06 5.824985e+02 -1.125038e+04
3.334867e+06 1.021449e+03 1.126633e+04
3.332864e+06 6.896560e+02 -1.110087e+04
3.334040e+06 1.240885e+03 -4.552511e+03
3.295717e+06 -3.409018e+02 2.027147e+03
3.295764e+06 -2.044523e+02 -2.835672e+03
3.295100e+06 -2.121336e+02 -2.779215e+03
3.345546e+06 1.630483e+03 -1.028600e+04
3.338134e+06 9.034218e+02 -1.071326e+04
3.340312e+06 1.325975e+03 1.083750e+04
3.293762e+06 -3.784986e+02 1.901383e+03
3.294450e+06 -2.198175e+02 -2.720784e+03
3.348060e+06 1.782410e+03 -9.964676e+03
3.340696e+06 1.010045e+03 -1.047495e+04
3.293138e+06 -3.910362e+02 1.856619e+03
3.293814e+06 -2.275038e+02 -2.660378e+03
3.350498e+06 1.934071e+03 -9.612778e+03
3.343199e+06 1.116487e+03 -1.020686e+04
3.340951e+06 1.615244e+03 7.397236e+03
3.292530e+06 -4.035801e+02 1.810433e+03
3.293193e+06 -2.351924e+02 -2.597998e+03
3.352852e+06 2.085271e+03 -9.230427e+03
3.345637e+06 1.222725e+03 -9.908942e+03
3.292587e+06 -2.428847e+02 -2.533643e+03
3.355115e+06 2.235710e+03 -8.817858e+03
3.348002e+06 1.328706e+03 -9.581175e+03
3.291937e+06 -4.161329e+02 1.762823e+03
3.291996e+06 -2.505808e+02 -2.467312e+03
3.357279e+06 2.384934e+03 -8.375476e+03
3.350287e+06 1.434340e+03 -9.223605e+03
3.290800e+06 -4.412770e+02 1.663326e+03
3.291421e+06 -2.582815e+02 -2.399003e+03
3.359336e+06 2.532285e+03 -7.903916e+03
3.352484e+06 1.539486e+03 -8.836369e+03
3.290863e+06 -2.659871e+02 -2.328713e+03
3.361279e+06 2.676831e+03 -7.404124e+03
3.354586e+06 1.643923e+03 -8.419732e+03
3.289730e+06 -4.664838e+02 1.558113e+03
3.290321e+06 -2.736982e+02 -2.256439e+03
3.363098e+06 2.817278e+03 -6.877452e+03
3.356586e+06 1.747334e+03 -7.974138e+03
3.289797e+06 -2.814138e+02 -2.182179e+03
3.364787e+06 2.951866e+03 -6.325766e+03
3.358476e+06 1.849260e+03 -7.500280e+03
3.289222e+06 -4.791081e+02 1.503359e+03
3.289291e+06 -2.891322e+02 -2.105929e+03
3.366335e+06 3.078244e+03 -5.751555e+03
3.360250e+06 1.949057e+03 -6.999173e+03
3.288732e+06 -4.917392e+02 1.447175e+03
3.288802e+06 -2.968496e+02 -2.027687e+03
3.361900e+06 2.045832e+03 -6.472249e+03
3.288260e+06 -5.043630e+02 1.389566e+03
3.288333e+06 -3.045594e+02 -1.947455e+03
3.366044e+06 2.303180e+03 -4.759067e+03
3.363420e+06 2.138350e+03 -5.921456e+03
3.364778e+06 3.926897e+03 -2.064666e+03
3.287807e+06 -5.169571e+02 1.330542e+03
3.287882e+06 -3.122516e+02 -1.865237e+03
3.287375e+06 -5.294856e+02 1.270122e+03
3.287451e+06 -3.199098e+02 -1.781046e+03
3.371683e+06 3.452341e+03 -2.672596e+03
3.367137e+06 2.369978e+03 -4.154388e+03
3.366606e+06 3.745520e+03 3.338167e+03
3.286962e+06 -5.418936e+02 1.208337e+03
3.287041e+06 -3.275108e+02 -1.694907e+03
3.372232e+06 3.445332e+03 -2.040633e+03
3.368078e+06 2.421114e+03 -3.539344e+03
3.367710e+06 3.843086e+03 2.920271e+03
3.286650e+06 -3.350199e+02 -1.606859e+03
3.372603e+06 3.408197e+03 -1.407938e+03
3.368865e+06 2.451619e+03 -2.917766e+03
3.286281e+06 -3.423887e+02 -1.516964e+03
3.372798e+06 3.345302e+03 -7.775349e+02
3.369495e+06 2.457497e+03 -2.292792e+03
3.285521e+06 -5.881864e+02 9.489273e+02
3.285933e+06 -3.495503e+02 -1.425318e+03
3.372824e+06 3.261947e+03 -1.537923e+02
3.369968e+06 2.438536e+03 -1.667108e+03
3.285216e+06 -5.979903e+02 8.816450e+02
3.285607e+06 -3.564121e+02 -1.332056e+03
3.372687e+06 3.162996e+03 4.587932e+02
3.370285e+06 2.398500e+03 -1.043791e+03
3.284933e+06 -6.064870e+02 8.138135e+02
3.285303e+06 -3.628485e+02 -1.237370e+03
3.372394e+06 3.052471e+03 1.056212e+03
3.370447e+06 2.342396e+03 -4.266361e+02
3.284674e+06 -6.132293e+02 7.457505e+02
3.285022e+06 -3.686893e+02 -1.141519e+03
3.371955e+06 2.933541e+03 1.635153e+03
3.370458e+06 2.274521e+03 1.802805e+02
3.284763e+06 -3.737052e+02 -1.044845e+03
3.371376e+06 2.808630e+03 2.193014e+03
3.370320e+06 2.198162e+03 7.731374e+02
3.284439e+06 -6.176730e+02 6.778365e+02
3.284528e+06 -3.775855e+02 -9.477807e+02
3.370656e+06 2.679319e+03 -2.728366e+03
3.370040e+06 2.115739e+03 1.348656e+03
3.284227e+06 -6.191841e+02 6.104982e+02
3.284316e+06 -3.799127e+02 -8.508471e+02
3.366665e+06 3.007324e+03 1.456143e+03
3.369621e+06 2.029019e+03 1.904185e+03
3.284040e+06 -6.170716e+02 5.441688e+02
3.284128e+06 -3.801313e+02 -7.546349e+02
3.369070e+06 1.939286e+03 2.437675e+03
3.369828e+06 2.547663e+03 3.238135e+03
3.283876e+06 -6.106638e+02 4.792174e+02
3.283963e+06 -3.775404e+02 -6.597484e+02
3.368874e+06 2.413917e+03 3.722913e+03
3.368393e+06 1.847474e+03 2.947596e+03
3.368865e+06 2.413658e+03 -3.723500e+03
3.367595e+06 1.754254e+03 3.432846e+03
3.369556e+06 3.193725e+03 -1.649915e+03
3.283736e+06 -5.994413e+02 4.158696e+02
3.283820e+06 -3.713907e+02 -5.667229e+02
3.283618e+06 -5.831701e+02 3.542068e+02
3.283701e+06 -3.612470e+02 -4.759844e+02
3.364015e+06 1.871226e+03 5.395623e+03
3.365666e+06 1.565359e+03 4.326505e+03
3.367102e+06 2.733031e+03 -2.688490e+03
3.283524e+06 -5.619611e+02 2.942831e+02
3.283603e+06 -3.473272e+02 -3.879349e+02
3.362574e+06 1.734998e+03 5.745918e+03
3.364547e+06 1.470246e+03 4.734062e+03
3.366060e+06 2.575224e+03 -2.999180e+03
3.283450e+06 -5.362439e+02 2.362657e+02
3.283527e+06 -3.303195e+02 -3.030695e+02
3.361054e+06 1.598779e+03 6.068892e+03
3.363334e+06 1.374917e+03 5.115129e+03
3.283398e+06 -5.066515e+02 1.804787e+02
3.283470e+06 -3.109652e+02 -2.219770e+02
3.359463e+06 1.462596e+03 6.364554e+03
3.362033e+06 1.279465e+03 5.469602e+03
3.283366e+06 -4.738805e+02 1.273415e+02
3.283433e+06 -2.898750e+02 -1.452610e+02
3.357807e+06 1.326452e+03 6.632935e+03
3.360650e+06 1.183946e+03 5.797443e+03
3.283414e+06 -2.675139e+02 -7.347233e+01
3.356093e+06 1.190336e+03 6.874081e+03
3.359193e+06 1.088385e+03 6.098653e+03
3.283411e+06 -2.442277e+02 -7.077146e+00
3.354327e+06 1.054226e+03 7.088047e+03
3.357667e+06 9.927893e+02 6.373261e+03
3.283373e+06 -3.626793e+02 -1.201586e+01
3.283424e+06 -2.202731e+02 5.355072e+01
3.352514e+06 9.180975e+02 7.274890e+03
3.356080e+06 8.971545e+02 6.621312e+03
3.283405e+06 -3.229243e+02 -5.065197e+01
3.283450e+06 -1.958401e+02 1.081227e+02
3.350663e+06 7.819234e+02 7.434666e+03
3.354437e+06 8.014691e+02 6.842861e+03
3.283449e+06 -2.824037e+02 -8.497001e+01
3.283488e+06 -1.710689e+02 1.564241e+02
3.348778e+06 6.456773e+02 7.567431e+03
3.352745e+06 7.057167e+02 7.037964e+03
3.283505e+06 -2.413485e+02 -1.148084e+02
3.283537e+06 -1.460627e+02 1.982990e+02
3.351010e+06 6.098800e+02 7.206679e+03
3.283569e+06 -1.999317e+02 -1.400493e+02
3.283595e+06 -1.208975e+02 2.336385e+02
3.349239e+06 5.139412e+02 7.349063e+03
3.283641e+06 -1.582791e+02 -1.606090e+02
3.283661e+06 -9.562738e+01 2.623684e+02
3.344936e+06 3.728756e+02 7.752140e+03
3.347438e+06 4.178842e+02 7.465168e+03
3.349367e+06 8.221394e+02 -5.168798e+03
3.344930e+06 3.726677e+02 -7.752779e+03
3.283719e+06 -1.164800e+02 -1.764303e+02
3.283732e+06 -7.029135e+01 2.844398e+02
3.341918e+06 1.288831e+02 7.656322e+03
3.345613e+06 3.216952e+02 7.555047e+03
3.340980e+06 9.130974e+01 5.250662e+03
3.347542e+06 6.627570e+02 -5.252250e+03
3.343771e+06 2.253632e+02 7.618749e+03
3.283801e+06 -7.459587e+01 -1.874748e+02
3.283808e+06 -4.491562e+01 2.998224e+02
3.283886e+06 -3.266767e+01 -1.937184e+02
3.283887e+06 -1.951844e+01 3.084984e+02
3.335188e+06 -3.114167e+02 7.744913e+03
3.340061e+06 3.225583e+01 7.667813e+03
3.283973e+06 9.279953e+00 -1.951458e+02
3.283967e+06 5.889214e+00 3.104581e+02
3.333264e+06 -4.485132e+02 7.663604e+03
3.338204e+06 -6.450830e+01 7.653276e+03
3.284059e+06 5.123238e+01 -1.917482e+02
3.284046e+06 3.130059e+01 3.056966e+02
3.331363e+06 -5.855053e+02 7.555935e+03
3.336355e+06 -1.613856e+02 7.612774e+03
3.284143e+06 9.318403e+01 -1.835208e+02
3.284124e+06 5.671283e+01 2.942121e+02
3.329491e+06 -7.222141e+02 7.422111e+03
3.334520e+06 -2.583348e+02 7.546387e+03
3.284299e+06 1.770868e+02 -1.525635e+02
3.284198e+06 8.212516e+01 2.760035e+02
3.327655e+06 -8.583758e+02 7.262420e+03
3.332705e+06 -3.552909e+02 7.454223e+03
3.284294e+06 1.768323e+02 1.527175e+02
3.284267e+06 1.075388e+02 2.510698e+02
3.325859e+06 -9.936129e+02 7.077268e+03
3.330916e+06 -4.521557e+02 7.336432e+03
3.284363e+06 2.187919e+02 1.299828e+02
3.284329e+06 1.329560e+02 2.194090e+02
3.324112e+06 -1.127397e+03 6.867224e+03
3.329158e+06 -5.487867e+02 7.193231e+03
3.284479e+06 3.030272e+02 -6.983080e+01
3.284383e+06 1.583801e+02 1.810181e+02
3.322419e+06 -1.259002e+03 6.633063e+03
3.327439e+06 -6.449825e+02 7.024924e+03
3.284428e+06 1.838143e+02 1.358922e+02
3.320783e+06 -1.387659e+03 -6.376365e+03
3.325764e+06 -7.404639e+02 6.831943e+03
3.284519e+06 3.450622e+02 -3.255839e+01
3.284461e+06 2.092615e+02 8.402498e+01
3.319221e+06 -1.511438e+03 6.096912e+03
3.324138e+06 -8.348479e+02 6.614884e+03
3.284545e+06 3.871374e+02 9.569670e+00
3.284481e+06 2.347249e+02 2.540881e+01
3.317730e+06 -1.629270e+03 5.798066e+03
3.322569e+06 -9.276152e+02 6.374564e+03
3.284557e+06 4.292558e+02 5.655798e+01
3.284486e+06 2.602056e+02 -3.996446e+01
3.321060e+06 -1.018064e+03 6.112069e+03
3.284553e+06 4.714150e+02 1.084092e+02
3.284476e+06 2.857017e+02 -1.121022e+02
3.316955e+06 -1.264275e+03 5.207382e+03
3.316934e+06 -1.755683e+03 3.455339e+03
3.320804e+06 -1.688906e+03 -4.294284e+03
3.319618e+06 -1.105248e+03 5.828809e+03
3.317975e+06 -2.142983e+03 2.204599e+03
3.284531e+06 5.136028e+02 1.651211e+02
3.284447e+06 3.112085e+02 -1.910093e+02
3.284490e+06 5.557929e+02 2.266838e+02
3.284400e+06 3.367142e+02 -2.766848e+02
3.311606e+06 -2.037101e+03 4.086745e+03
3.315742e+06 -1.332131e+03 4.873656e+03
3.284429e+06 5.979373e+02 2.930746e+02
3.284331e+06 3.621984e+02 -3.691175e+02
3.310680e+06 -2.066140e+03 3.714360e+03
3.314613e+06 -1.388637e+03 4.527710e+03
3.284344e+06 6.399575e+02 3.642511e+02
3.284240e+06 3.876278e+02 -4.682797e+02
3.309857e+06 -2.078017e+03 3.334590e+03
3.313572e+06 -1.430950e+03 4.171557e+03
3.284236e+06 6.817320e+02 4.401421e+02
3.284125e+06 4.129514e+02 -5.741183e+02
3.309137e+06 -2.075769e+03 2.949677e+03
3.312620e+06 -1.457762e+03 3.806799e+03
3.284102e+06 7.230805e+02 5.206358e+02
3.283985e+06 4.380926e+02 -6.865419e+02
3.308519e+06 -2.062473e+03 2.562245e+03
3.311759e+06 -1.470371e+03 3.435034e+03
3.283750e+06 8.033602e+02 6.946822e+02
3.283817e+06 4.629427e+02 -8.054057e+02
3.307999e+06 -2.040793e+03 2.174770e+03
3.310991e+06 -1.471604e+03 3.058265e+03
3.283621e+06 4.873467e+02 -9.304898e+02
3.307575e+06 -2.012879e+03 1.789368e+03
3.310314e+06 -1.464255e+03 2.678804e+03
3.283529e+06 8.414352e+02 7.876490e+02
3.283395e+06 5.110908e+02 -1.061473e+03
3.309730e+06 -1.450569e+03 2.298950e+03
3.283136e+06 5.338812e+02 -1.197902e+03
3.306999e+06 -1.944835e+03 -1.031116e+03
3.309238e+06 -1.432237e+03 1.920753e+03
3.282845e+06 5.553188e+02 -1.339154e+03
3.308499e+06 -2.330414e+03 1.456716e+02
3.306848e+06 -1.906635e+03 6.607101e+02
3.308835e+06 -1.410510e+03 1.545918e+03
3.308875e+06 -2.356217e+03 -1.400331e+03
3.282668e+06 9.387899e+02 1.084217e+03
3.282520e+06 5.748632e+02 -1.484400e+03
3.308522e+06 -1.386315e+03 1.175786e+03
3.308477e+06 -2.323831e+03 -1.135073e+03
3.282310e+06 9.619474e+02 1.186339e+03
3.282159e+06 5.917834e+02 -1.632575e+03
3.308098e+06 -1.304911e+03 1.024834e+02
3.308679e+06 -1.758545e+03 -3.491928e+01
3.308296e+06 -1.360335e+03 8.113769e+02
3.308168e+06 -2.286184e+03 -8.720589e+02
3.281914e+06 9.779936e+02 1.288373e+03
3.281762e+06 6.050907e+02 -1.782364e+03
3.281480e+06 9.851141e+02 1.389132e+03
3.281328e+06 6.134605e+02 -1.932236e+03
3.307322e+06 -1.701023e+03 -1.082579e+03
3.308124e+06 -1.276111e+03 -2.411190e+02
3.281007e+06 9.814366e+02 1.487508e+03
3.280857e+06 6.151694e+02 -2.080542e+03
3.307651e+06 -1.658809e+03 -1.407724e+03
3.308230e+06 -1.246873e+03 -5.771398e+02
3.280496e+06 9.653248e+02 1.582695e+03
3.280349e+06 6.081774e+02 -2.225719e+03
3.308054e+06 -1.616535e+03 -1.724839e+03
3.308414e+06 -1.217336e+03 -9.054383e+02
3.279947e+06 9.357630e+02 1.674314e+03
3.279806e+06 5.907727e+02 -2.366483e+03
3.308528e+06 -1.574246e+03 -2.033920e+03
3.308675e+06 -1.187601e+03 -1.225938e+03
3.279363e+06 8.926226e+02 1.762235e+03
3.279227e+06 5.626994e+02 -2.501762e+03
3.309072e+06 -1.531969e+03 -2.334979e+03
3.309010e+06 -1.157735e+03 -1.538605e+03
3.278092e+06 7.694900e+02 1.925461e+03
3.278615e+06 5.253740e+02 -2.630354e+03
3.309685e+06 -1.489716e+03 -2.628037e+03
3.309419e+06 -1.127784e+03 -1.843435e+03
3.277409e+06 6.928483e+02 1.999035e+03
3.277972e+06 4.808435e+02 -2.750766e+03
3.310365e+06 -1.447492e+03 -2.913118e+03
3.309899e+06 -1.097778e+03 -2.140439e+03
3.276699e+06 6.086186e+02 2.065726e+03
3.277300e+06 4.309301e+02 -2.861358e+03
3.311105e+06 -1.405412e+03 3.190396e+03
3.310448e+06 -1.067736e+03 -2.429638e+03
3.275966e+06 5.184693e+02 2.124404e+03
3.276602e+06 3.770559e+02 -2.960567e+03
3.311916e+06 -1.363123e+03 -3.459445e+03
3.311064e+06 -1.037670e+03 -2.711058e+03
3.275881e+06 3.202844e+02 -3.047033e+03
3.312784e+06 -1.320970e+03 -3.720736e+03
3.311747e+06 -1.007588e+03 -2.984727e+03
3.275212e+06 4.238191e+02 2.174074e+03
3.275141e+06 2.614032e+02 -3.119640e+03
3.312493e+06 -9.774928e+02 -3.250668e+03
3.274386e+06 2.009936e+02 -3.177519e+03
3.313302e+06 -9.473874e+02 -3.508906e+03
3.313712e+06 -1.278834e+03 -3.974138e+03
3.312243e+06 -1.617460e+03 2.301747e+03
3.273619e+06 1.394855e+02 -3.220017e+03
3.316083e+06 -8.570260e+02 -4.237574e+03
3.316978e+06 -1.152600e+03 -2.992949e+03
3.314171e+06 -9.172739e+02 -3.759458e+03
3.315841e+06 -1.550060e+03 -1.715749e+03
3.272869e+06 1.232692e+02 2.261701e+03
3.272844e+06 7.719524e+01 -3.246657e+03
3.272074e+06 1.994383e+01 2.268788e+03
3.272064e+06 1.435501e+01 -3.257106e+03
3.319182e+06 -1.068284e+03 -5.123214e+03
3.317123e+06 -8.268940e+02 -4.465160e+03
3.271278e+06 -8.417515e+01 2.264298e+03
3.271285e+06 -4.886645e+01 -3.251138e+03
3.320430e+06 -1.026191e+03 -5.329487e+03
3.318216e+06 -7.967584e+02 -4.685109e+03
3.270485e+06 -1.888059e+02 2.248056e+03
3.270509e+06 -1.123486e+02 -3.228610e+03
3.321725e+06 -9.841032e+02 -5.527918e+03
3.319361e+06 -7.666211e+02 -4.897424e+03
3.269700e+06 -2.937501e+02 2.219946e+03
3.269740e+06 -1.760059e+02 -3.189433e+03
3.323066e+06 -9.420237e+02 -5.718506e+03
3.320555e+06 -7.364852e+02 -5.102110e+03
3.268927e+06 -3.988736e+02 2.179898e+03
3.268983e+06 -2.397790e+02 -3.133561e+03
3.324447e+06 -9.000904e+02 5.901395e+03
3.321798e+06 -7.063525e+02 -5.299166e+03
3.268168e+06 -5.040888e+02 2.127870e+03
3.268241e+06 -3.036287e+02 -3.060974e+03
3.325877e+06 -8.579027e+02 -6.076142e+03
3.323087e+06 -6.762265e+02 -5.488593e+03
3.266713e+06 -7.146077e+02 1.987805e+03
3.267518e+06 -3.675287e+02 -2.971669e+03
3.327344e+06 -8.158703e+02 -6.243186e+03
3.324421e+06 -6.461103e+02 -5.670387e+03
3.266818e+06 -4.314622e+02 -2.865652e+03
3.328845e+06 -7.740050e+02 6.402524e+03
3.325798e+06 -6.160082e+02 -5.844547e+03
3.324255e+06 -1.080816e+03 4.038024e+03
3.266024e+06 -8.198714e+02 1.899759e+03
3.266145e+06 -4.954199e+02 -2.742934e+03
3.330391e+06 -7.318994e+02 -6.553719e+03
3.327216e+06 -5.859243e+02 -6.011069e+03
3.325640e+06 -1.032117e+03 4.162925e+03
3.265365e+06 -9.251339e+02 1.799705e+03
3.265503e+06 -5.593959e+02 -2.603524e+03
3.331968e+06 -6.899829e+02 -6.697209e+03
3.328673e+06 -5.558643e+02 -6.169951e+03
3.264741e+06 -1.030403e+03 1.687644e+03
3.264895e+06 -6.233876e+02 -2.447431e+03
3.330167e+06 -5.258350e+02 -6.321192e+03
3.328530e+06 -9.347803e+02 4.396270e+03
3.264156e+06 -1.135692e+03 1.563577e+03
3.264326e+06 -6.873941e+02 -2.274659e+03
3.331698e+06 -4.958442e+02 -6.464791e+03
3.333578e+06 -6.481336e+02 -6.832856e+03
3.330032e+06 -8.861612e+02 4.504716e+03
3.263613e+06 -1.241014e+03 1.427500e+03
3.263800e+06 -7.514143e+02 -2.085206e+03
3.336486e+06 -4.062183e+02 -6.849779e+03
3.337505e+06 -5.477162e+02 -4.757027e+03
3.333262e+06 -4.659022e+02 -6.600750e+03
3.335809e+06 -7.711881e+02 -2.844382e+03
3.263319e+06 -8.154466e+02 -1.879066e+03
3.262889e+06 -8.794879e+02 -1.656224e+03
3.342060e+06 -4.408332e+02 -7.393917e+03
3.338142e+06 -3.765145e+02 -6.962871e+03
3.262276e+06 -1.557320e+03 9.471349e+02
3.262513e+06 -9.435319e+02 -1.416665e+03
3.343831e+06 -4.000212e+02 -7.482823e+03
3.339825e+06 -3.469372e+02 -7.068369e+03
3.261941e+06 -1.662884e+03 7.629323e+02
3.262194e+06 -1.007567e+03 -1.160366e+03
3.345622e+06 -3.594902e+02 -7.563975e+03
3.341532e+06 -3.175233e+02 -7.166293e+03
3.261668e+06 -1.768496e+03 5.666758e+02
3.261937e+06 -1.071575e+03 -8.873067e+02
3.347432e+06 -3.192260e+02 -7.637371e+03
3.343264e+06 -2.883143e+02 -7.256659e+03
3.261460e+06 -1.874111e+03 3.583680e+02
3.261746e+06 -1.135527e+03 -5.974707e+02
3.349259e+06 -2.791937e+02 -7.703019e+03
3.345016e+06 -2.593404e+02 -7.339477e+03
3.261321e+06 -1.979650e+03 1.380295e+02
3.261624e+06 -1.199376e+03 -2.908530e+02
3.351101e+06 -2.393514e+02 -7.760939e+03
3.346789e+06 -2.306022e+02 -7.414752e+03
3.261269e+06 -2.189907e+03 -3.384976e+02
3.261575e+06 -1.263055e+03 3.252895e+01
3.352953e+06 -1.998202e+02 7.811286e+03
3.348579e+06 -2.020685e+02 -7.482495e+03
3.261362e+06 -2.294121e+03 -5.944347e+02
3.261604e+06 -1.326466e+03 3.726209e+02
3.354824e+06 -1.600932e+02 -7.853668e+03
3.350386e+06 -1.737017e+02 -7.542721e+03
3.261713e+06 -1.389468e+03 7.293120e+02
3.356702e+06 -1.206210e+02 -7.888502e+03
3.352207e+06 -1.454681e+02 -7.595445e+03
3.261541e+06 -2.397190e+03 -8.618522e+02
3.261908e+06 -1.451865e+03 1.102407e+03
3.358588e+06 -8.122683e+01 -7.915655e+03
3.354041e+06 -1.173435e+02 -7.640681e+03
3.261809e+06 -2.498505e+03 -1.140377e+03
3.262191e+06 -1.513383e+03 1.491591e+03
3.355886e+06 -8.930861e+01 -7.678440e+03
3.354010e+06 -2.211131e+02 5.451174e+03
3.262170e+06 -2.597229e+03 -1.429472e+03
3.262568e+06 -1.573650e+03 1.896383e+03
3.357740e+06 -6.135090e+01 -7.708725e+03
3.360480e+06 -4.189674e+01 -7.935128e+03
3.262629e+06 -2.692239e+03 -1.728387e+03
3.263040e+06 -1.632159e+03 2.316085e+03
3.363340e+06 2.215014e+01 -7.754713e+03
3.364286e+06 3.092744e+01 -5.343207e+03
3.359602e+06 -3.345968e+01 -7.731535e+03
3.362428e+06 -2.071662e+01 -3.250341e+03
3.263189e+06 -2.782060e+03 -2.036113e+03
3.263613e+06 -1.688228e+03 2.749708e+03
3.263854e+06 -2.864800e+03 -2.351334e+03
3.264290e+06 -1.740942e+03 3.195909e+03
3.369977e+06 1.540925e+02 -7.916990e+03
3.365213e+06 4.987795e+01 -7.755061e+03
3.265074e+06 -1.789070e+03 3.652920e+03
3.371871e+06 1.931886e+02 -7.890174e+03
3.367086e+06 7.755908e+01 -7.747897e+03
3.265968e+06 -1.830955e+03 4.118501e+03
3.373759e+06 2.322563e+02 -7.855592e+03
3.368958e+06 1.051951e+02 -7.733209e+03
3.266518e+06 -3.044430e+03 -3.323979e+03
3.266974e+06 -1.864373e+03 4.589958e+03
3.375638e+06 2.712972e+02 -7.813229e+03
3.370826e+06 1.327881e+02 -7.710981e+03
3.267638e+06 -3.070556e+03 -3.650099e+03
3.268095e+06 -1.886385e+03 5.064261e+03
3.372689e+06 1.603393e+02 -7.681196e+03
3.268877e+06 -3.074028e+03 -3.973877e+03
3.269331e+06 -1.893315e+03 5.538340e+03
3.379362e+06 3.491255e+02 7.705221e+03
3.374545e+06 1.878507e+02 -7.643840e+03
3.270235e+06 -3.052260e+03 -4.294244e+03
3.270683e+06 -1.881358e+03 6.009506e+03
3.381211e+06 3.882752e+02 -7.639282e+03
3.376392e+06 2.153228e+02 -7.598894e+03
3.374590e+06 2.826273e+02 5.451985e+03
3.273300e+06 -2.930570e+03 -4.923357e+03
3.272151e+06 -1.848525e+03 6.475617e+03
3.383041e+06 4.272253e+02 -7.565623e+03
3.378228e+06 2.427576e+02 -7.546342e+03
3.376444e+06 3.282847e+02 5.419607e+03
3.273732e+06 -1.796245e+03 6.934590e+03
3.384853e+06 4.661575e+02 -7.484097e+03
3.380052e+06 2.701561e+02 -7.486167e+03
3.378288e+06 3.739338e+02 5.381778e+03
3.275006e+06 -2.833714e+03 -5.230882e+03
3.275425e+06 -1.728189e+03 7.383827e+03
3.381861e+06 2.975203e+02 -7.418351e+03
3.380118e+06 4.195765e+02 5.338484e+03
3.276823e+06 -2.716959e+03 -5.531675e+03
3.277226e+06 -1.648167e+03 7.820257e+03
3.383654e+06 3.248513e+02 -7.342877e+03
3.386646e+06 5.050742e+02 -7.394686e+03
3.278748e+06 -2.583913e+03 -5.823538e+03
3.279132e+06 -1.559298e+03 8.240754e+03
3.388915e+06 4.066701e+02 -7.070335e+03
3.389607e+06 5.577500e+02 -4.833576e+03
3.385429e+06 3.521518e+02 -7.259728e+03
3.387962e+06 6.647029e+02 -2.981689e+03
3.280775e+06 -2.437975e+03 -6.104207e+03
3.281137e+06 -1.463965e+03 8.642472e+03
3.282899e+06 -2.282119e+03 -6.371606e+03
3.283238e+06 -1.363953e+03 9.022995e+03
3.395257e+06 6.995450e+02 -6.828752e+03
3.390624e+06 4.338924e+02 -6.964054e+03
3.285114e+06 -2.118820e+03 -6.623960e+03
3.285427e+06 -1.260592e+03 9.380372e+03
3.396896e+06 7.384325e+02 -6.691672e+03
3.392307e+06 4.610932e+02 -6.850028e+03
3.287413e+06 -1.950075e+03 -6.859822e+03
3.287700e+06 -1.154874e+03 9.713084e+03
3.398501e+06 7.773162e+02 -6.546596e+03
3.393962e+06 4.882740e+02 -6.728238e+03
3.290051e+06 -1.047542e+03 1.001998e+04
3.400073e+06 8.161877e+02 -6.393517e+03
3.395587e+06 5.154353e+02 -6.598670e+03
3.292472e+06 -9.391448e+02 1.030020e+04
3.401602e+06 8.548366e+02 6.232563e+03
3.397181e+06 5.425766e+02 -6.461309e+03
3.294753e+06 -1.425025e+03 -7.458419e+03
3.294958e+06 -8.300893e+02 1.055314e+04
3.403104e+06 8.938158e+02 -6.063373e+03
3.398741e+06 5.696940e+02 -6.316143e+03
3.299949e+06 -1.067855e+03 -7.760470e+03
3.297502e+06 -7.206722e+02 1.077833e+04
3.404560e+06 9.324987e+02 -5.886353e+03
3.400265e+06 5.967797e+02 -6.163169e+03
3.302619e+06 -8.885827e+02 -7.881326e+03
3.300098e+06 -6.111067e+02 1.097546e+04
3.405974e+06 9.710104e+02 -5.701438e+03
3.401753e+06 6.238204e+02 -6.002389e+03
3.305327e+06 -7.091777e+02 -7.981812e+03
3.302740e+06 -5.015433e+02 1.114431e+04
3.407343e+06 1.009249e+03 -5.508721e+03
3.403200e+06 6.507940e+02 -5.833822e+03
3.401908e+06 1.013095e+03 4.273041e+03
3.308067e+06 -5.297780e+02 -8.061800e+03
3.305420e+06 -3.920864e+02 1.128470e+04
3.408666e+06 1.047068e+03 -5.308345e+03
3.404607e+06 6.776664e+02 -5.657503e+03
3.308131e+06 -2.828050e+02 1.139651e+04
3.405970e+06 7.043879e+02 -5.473496e+03
3.310832e+06 -3.504654e+02 -8.121193e+03
3.310869e+06 -1.737423e+02 1.147963e+04
3.407288e+06 7.308862e+02 -5.281905e+03
3.409941e+06 1.084263e+03 -5.100520e+03
3.313616e+06 -1.712819e+02 -8.159916e+03
3.313624e+06 -6.492350e+01 1.153397e+04
3.410951e+06 8.078109e+02 -4.663530e+03
3.411159e+06 1.108519e+03 -3.133594e+03
3.408559e+06 7.570597e+02 -5.082884e+03
3.410151e+06 1.388288e+03 -1.990193e+03
3.316411e+06 7.758132e+00 -8.177902e+03
3.316392e+06 4.363999e+01 1.155946e+04
3.319211e+06 1.866590e+02 -8.175090e+03
3.319164e+06 1.519457e+02 1.155600e+04
3.415510e+06 1.247105e+03 -3.963900e+03
3.412069e+06 8.319206e+02 -4.443916e+03
3.322009e+06 3.654368e+02 -8.151421e+03
3.321935e+06 2.599985e+02 1.152352e+04
3.416448e+06 1.270449e+03 -3.721550e+03
3.413133e+06 8.547227e+02 -4.218343e+03
3.324799e+06 5.441153e+02 -8.106834e+03
3.324697e+06 3.678081e+02 1.146193e+04
3.417323e+06 1.288682e+03 -3.475904e+03
3.414141e+06 8.757048e+02 -3.987451e+03
3.327572e+06 7.227239e+02 -8.041266e+03
3.327443e+06 4.753875e+02 1.137113e+04
3.415091e+06 8.941773e+02 -3.751960e+03
3.330323e+06 9.012877e+02 -7.954651e+03
3.330166e+06 5.827517e+02 1.125103e+04
3.418875e+06 1.308026e+03 2.975994e+03
3.415982e+06 9.092722e+02 -3.512594e+03
3.332860e+06 6.899155e+02 1.110153e+04
3.419562e+06 1.310200e+03 -2.722353e+03
3.416814e+06 9.201294e+02 -3.269977e+03
3.416204e+06 1.480998e+03 2.503594e+03
3.335516e+06 7.968930e+02 1.092252e+04
3.420179e+06 1.308192e+03 -2.467123e+03
3.417585e+06 9.264089e+02 -3.024612e+03
3.417038e+06 1.498931e+03 2.333525e+03
3.338129e+06 9.036948e+02 1.071390e+04
3.420731e+06 1.303103e+03 -2.211141e+03
3.418295e+06 9.285870e+02 -2.777016e+03
3.417811e+06 1.511068e+03 2.161469e+03
3.343487e+06 1.794016e+03 -7.203668e+03
3.340691e+06 1.010324e+03 1.047559e+04
3.421219e+06 1.295722e+03 -1.955173e+03
3.418943e+06 9.275623e+02 -2.527841e+03
3.418523e+06 1.517660e+03 1.987526e+03
3.343194e+06 1.116775e+03 1.020750e+04
3.419530e+06 9.241805e+02 -2.277825e+03
3.345952e+06 1.972397e+03 -6.989570e+03
3.345632e+06 1.223021e+03 9.909578e+03
3.420055e+06 9.191028e+02 -2.027689e+03
3.421645e+06 1.286673e+03 -1.699864e+03
3.348344e+06 2.150487e+03 -6.754182e+03
3.347996e+06 1.329010e+03 9.581804e+03
3.421262e+06 8.979710e+02 -1.282328e+03
3.421011e+06 1.216982e+03 -8.040700e+02
3.420518e+06 9.128194e+02 -1.778066e+03
3.420839e+06 1.590334e+03 -6.003098e+02
3.350655e+06 2.328034e+03 -6.497610e+03
3.350281e+06 1.434654e+03 9.224226e+03
3.352878e+06 2.504651e+03 -6.220058e+03
3.352478e+06 1.539808e+03 8.836977e+03
3.422861e+06 1.229640e+03 -4.474190e+02
3.421543e+06 8.898557e+02 -1.036928e+03
3.355007e+06 2.679769e+03 -5.921863e+03
3.354580e+06 1.644256e+03 8.420323e+03
3.421764e+06 8.814801e+02 -7.935038e+02
3.357032e+06 2.852581e+03 -5.603544e+03
3.356580e+06 1.747676e+03 7.974707e+03
3.422928e+06 1.204785e+03 -3.841877e+01
3.421926e+06 8.729431e+02 -5.522177e+02
3.358948e+06 3.021962e+03 -5.265856e+03
3.358470e+06 1.849611e+03 7.500821e+03
3.422883e+06 1.192620e+03 2.775503e+02
3.422030e+06 8.643153e+02 -3.131825e+02
3.360745e+06 3.186395e+03 -4.909859e+03
3.360244e+06 1.949417e+03 6.999678e+03
3.422776e+06 1.180270e+03 5.142913e+02
3.422075e+06 8.556455e+02 -7.647533e+01
3.362418e+06 3.343873e+03 -4.536981e+03
3.361894e+06 2.046200e+03 6.472710e+03
3.422613e+06 1.167951e+03 7.485312e+02
3.422062e+06 8.469668e+02 1.578522e+02
3.422288e+06 1.412423e+03 6.393391e+01
3.363951e+06 3.491720e+03 4.149628e+03
3.363413e+06 2.138726e+03 5.921865e+03
3.422395e+06 1.155673e+03 9.802570e+02
3.421993e+06 8.383015e+02 3.897665e+02
3.422274e+06 1.398035e+03 -1.039665e+02
3.365351e+06 3.626935e+03 3.748919e+03
3.364796e+06 2.225294e+03 5.349684e+03
3.422121e+06 1.143440e+03 1.209461e+03
3.421867e+06 8.296631e+02 6.192455e+02
3.367717e+06 3.843098e+03 -2.920001e+03
3.366037e+06 2.303571e+03 4.759346e+03
3.421794e+06 1.131251e+03 1.436138e+03
3.421685e+06 8.210604e+02 8.462759e+02
3.368665e+06 3.915096e+03 -2.497780e+03
3.367130e+06 2.370376e+03 4.154593e+03
3.421448e+06 8.124971e+02 1.070849e+03
3.368071e+06 2.421521e+03 3.539469e+03
3.421156e+06 8.039758e+02 1.292959e+03
3.421412e+06 1.119108e+03 1.660283e+03
3.369456e+06 3.957635e+03 -2.073084e+03
3.368858e+06 2.452031e+03 2.917806e+03
3.419960e+06 7.786636e+02 1.944475e+03
3.419372e+06 1.053714e+03 1.412216e+03
3.420810e+06 7.954965e+02 1.512601e+03
3.419969e+06 1.381080e+03 7.674112e+02
3.370087e+06 3.968384e+03 -1.646819e+03
3.369488e+06 2.457909e+03 2.292745e+03
3.370559e+06 3.947233e+03 -1.219355e+03
3.369961e+06 2.438943e+03 1.666976e+03
3.418722e+06 1.059037e+03 2.742987e+03
3.419456e+06 7.703072e+02 2.156703e+03
3.370871e+06 3.896324e+03 -7.915170e+02
3.370278e+06 2.398899e+03 1.043578e+03
3.418032e+06 1.047148e+03 2.951917e+03
3.418900e+06 7.619899e+02 2.366455e+03
3.371025e+06 3.819461e+03 -3.651716e+02
3.370440e+06 2.342785e+03 4.263480e+02
3.417293e+06 1.035301e+03 3.158308e+03
3.418294e+06 7.537105e+02 2.573732e+03
3.371024e+06 3.721159e+03 5.700123e+01
3.370451e+06 2.274902e+03 -1.806364e+02
3.416505e+06 1.023493e+03 3.362160e+03
3.417638e+06 7.454683e+02 2.778533e+03
3.370871e+06 3.605843e+03 4.720807e+02
3.370314e+06 2.198535e+03 -7.735536e+02
3.416932e+06 7.372615e+02 2.980859e+03
3.370573e+06 3.477443e+03 8.773158e+02
3.370033e+06 2.116104e+03 -1.349124e+03
3.414780e+06 9.997821e+02 -3.762321e+03
3.416177e+06 7.290879e+02 3.180708e+03
3.370134e+06 3.339250e+03 1.270333e+03
3.369614e+06 2.029376e+03 -1.904697e+03
3.413856e+06 9.882246e+02 3.958427e+03
3.415374e+06 7.209428e+02 3.378080e+03
3.416359e+06 1.198655e+03 -2.270493e+03
3.368863e+06 3.043492e+03 2.012421e+03
3.369063e+06 1.939635e+03 -2.438223e+03
3.412880e+06 9.764587e+02 4.152036e+03
3.414523e+06 7.128206e+02 3.572971e+03
3.415553e+06 1.184682e+03 -2.411991e+03
3.368856e+06 3.043282e+03 -2.013165e+03
3.368386e+06 1.847814e+03 -2.948174e+03
3.411858e+06 9.646256e+02 4.343018e+03
3.413625e+06 7.047102e+02 3.765374e+03
3.414701e+06 1.170727e+03 -2.551713e+03
3.367589e+06 1.754584e+03 -3.433446e+03
3.412680e+06 6.965956e+02 3.955274e+03
3.413801e+06 1.156766e+03 -2.689649e+03
3.366066e+06 2.575482e+03 2.998391e+03
3.366679e+06 1.660423e+03 -3.893271e+03
3.411690e+06 6.884519e+02 4.142644e+03
3.410792e+06 9.526573e+02 4.531309e+03
3.364923e+06 2.416759e+03 3.290516e+03
3.365661e+06 1.565668e+03 -4.327132e+03
3.408452e+06 6.633981e+02 4.689006e+03
3.407589e+06 8.906717e+02 3.294800e+03
3.410655e+06 6.802430e+02 4.327441e+03
3.408835e+06 1.167225e+03 1.933695e+03
3.364542e+06 1.470547e+03 -4.734697e+03
3.363685e+06 2.257518e+03 3.563836e+03
3.363329e+06 1.375209e+03 -5.115770e+03
3.404810e+06 8.854107e+02 5.427000e+03
3.407286e+06 6.545834e+02 4.865515e+03
3.362360e+06 2.098020e+03 3.818202e+03
3.362028e+06 1.279750e+03 -5.470248e+03
3.403487e+06 8.684135e+02 5.594843e+03
3.406077e+06 6.453285e+02 5.038903e+03
3.360953e+06 1.938431e+03 4.053535e+03
3.360645e+06 1.184223e+03 -5.798091e+03
3.402123e+06 8.490323e+02 5.757687e+03
3.404827e+06 6.354363e+02 5.208865e+03
3.359472e+06 1.778845e+03 4.269803e+03
3.359188e+06 1.088655e+03 -6.099302e+03
3.400713e+06 8.263092e+02 -5.914904e+03
3.403536e+06 6.246382e+02 5.374996e+03
3.357922e+06 1.619310e+03 4.467005e+03
3.357662e+06 9.930521e+02 -6.373911e+03
3.399272e+06 7.996616e+02 6.065102e+03
3.402205e+06 6.125656e+02 5.536766e+03
3.356310e+06 1.459840e+03 4.645161e+03
3.356075e+06 8.974109e+02 -6.621964e+03
3.397787e+06 7.676208e+02 6.207943e+03
3.400835e+06 5.987165e+02 5.693526e+03
3.354642e+06 1.300431e+03 4.804300e+03
3.354432e+06 8.017190e+02 -6.843513e+03
3.396264e+06 7.294800e+02 6.342706e+03
3.399428e+06 5.824128e+02 5.844520e+03
3.352926e+06 1.141064e+03 4.944460e+03
3.352740e+06 7.059604e+02 -7.038617e+03
3.394705e+06 6.849751e+02 6.469177e+03
3.397984e+06 5.627720e+02 5.988950e+03
3.399569e+06 9.337142e+02 -4.168575e+03
3.351167e+06 9.817168e+02 5.065679e+03
3.351006e+06 6.101176e+02 -7.207332e+03
3.393112e+06 6.345492e+02 6.587073e+03
3.396506e+06 5.387856e+02 6.126086e+03
3.347546e+06 6.629702e+02 5.251444e+03
3.349235e+06 5.141728e+02 -7.349716e+03
3.391487e+06 5.791417e+02 6.695747e+03
3.394994e+06 5.097468e+02 6.255347e+03
3.345697e+06 5.035211e+02 5.316064e+03
3.347434e+06 4.181095e+02 -7.465823e+03
3.393452e+06 4.757825e+02 6.376217e+03
3.345693e+06 5.033153e+02 -5.316871e+03
3.345609e+06 3.219138e+02 -7.555703e+03
3.391881e+06 4.377372e+02 6.488077e+03
3.389835e+06 5.198096e+02 6.794336e+03
3.343827e+06 3.437944e+02 -5.362698e+03
3.343767e+06 2.255752e+02 -7.619406e+03
3.387022e+06 3.081042e+02 6.762042e+03
3.386085e+06 3.726930e+02 4.673384e+03
3.390284e+06 3.965984e+02 6.590175e+03
3.387765e+06 5.510035e+02 2.797990e+03
3.341915e+06 1.290884e+02 -7.656978e+03
3.340071e+06 2.468688e+01 5.397302e+03
3.340057e+06 3.245417e+01 -7.668470e+03
3.381279e+06 1.913453e+02 7.110619e+03
3.385363e+06 2.618152e+02 6.830508e+03
3.338190e+06 -1.350731e+02 5.386973e+03
3.338201e+06 -6.431688e+01 -7.653933e+03
3.379534e+06 1.226312e+02 7.135274e+03
3.383690e+06 2.146433e+02 6.886665e+03
3.336316e+06 -2.948461e+02 5.358030e+03
3.336352e+06 -1.612017e+02 -7.613431e+03
3.377785e+06 5.352438e+01 7.146486e+03
3.382005e+06 1.668293e+02 6.930165e+03
3.334456e+06 -4.545460e+02 5.310555e+03
3.334517e+06 -2.581590e+02 -7.547042e+03
3.380312e+06 1.185469e+02 6.960760e+03
3.332616e+06 -6.140291e+02 5.244661e+03
3.332702e+06 -3.551237e+02 -7.454874e+03
3.374286e+06 -8.551753e+01 -7.128564e+03
3.378615e+06 6.992352e+01 6.978278e+03
3.330802e+06 -7.730775e+02 5.160511e+03
3.330912e+06 -4.519971e+02 -7.337078e+03
3.372550e+06 -1.550616e+02 7.098670e+03
3.376915e+06 2.104965e+01 6.982612e+03
3.378631e+06 9.328993e+01 -4.952355e+03
3.329020e+06 -9.313719e+02 5.058336e+03
3.329155e+06 -5.486372e+02 -7.193869e+03
3.370820e+06 -2.248063e+02 7.055483e+03
3.375217e+06 -2.800903e+01 6.973696e+03
3.376919e+06 1.267749e+01 -4.955467e+03
3.327276e+06 -1.088460e+03 4.938463e+03
3.327436e+06 -6.448422e+02 -7.025550e+03
3.369102e+06 -2.946066e+02 6.998672e+03
3.373523e+06 -7.720745e+01 6.951502e+03
3.375209e+06 -6.822962e+01 -4.949152e+03
3.325577e+06 -1.243715e+03 4.801339e+03
3.325761e+06 -7.403325e+02 -6.832553e+03
3.367401e+06 -3.644487e+02 6.928254e+03
3.371837e+06 -1.265142e+02 6.916019e+03
3.373503e+06 -1.493234e+02 -4.933359e+03
3.323928e+06 -1.396292e+03 4.647577e+03
3.324136e+06 -8.347253e+02 -6.615475e+03
3.370163e+06 -1.759083e+02 6.867255e+03
3.322336e+06 -1.545078e+03 4.477983e+03
3.322566e+06 -9.275009e+02 -6.375130e+03
3.368502e+06 -2.253761e+02 6.805225e+03
3.365718e+06 -4.343269e+02 6.844248e+03
3.319344e+06 -1.825171e+03 4.095714e+03
3.321058e+06 -1.017958e+03 -6.112606e+03
3.363638e+06 -3.741530e+02 6.539761e+03
3.363044e+06 -5.561934e+02 4.456528e+03
3.366859e+06 -2.749087e+02 6.729951e+03
3.364553e+06 -6.422489e+02 2.740081e+03
3.319616e+06 -1.105150e+03 -5.829310e+03
3.318246e+06 -1.187801e+03 -5.527006e+03
3.357701e+06 -7.843321e+02 6.221132e+03
3.362066e+06 -4.238605e+02 6.424889e+03
3.316953e+06 -1.264194e+03 -5.207797e+03
3.356198e+06 -8.544946e+02 6.056004e+03
3.360524e+06 -4.736245e+02 6.296857e+03
3.315420e+06 -2.169315e+03 3.437018e+03
3.315740e+06 -1.332058e+03 -4.874023e+03
3.354734e+06 -9.248135e+02 -5.877744e+03
3.359015e+06 -5.234450e+02 6.155683e+03
3.314279e+06 -2.253526e+03 3.201070e+03
3.314612e+06 -1.388571e+03 -4.528025e+03
3.353318e+06 -9.950359e+02 5.685308e+03
3.357542e+06 -5.733227e+02 6.001376e+03
3.313228e+06 -2.318894e+03 2.958668e+03
3.313570e+06 -1.430889e+03 -4.171817e+03
3.351946e+06 -1.065422e+03 5.479743e+03
3.356109e+06 -6.232570e+02 5.833944e+03
3.312268e+06 -2.364742e+03 2.710070e+03
3.312618e+06 -1.457701e+03 -3.807004e+03
3.350625e+06 -1.135883e+03 5.260699e+03
3.354717e+06 -6.732470e+02 5.653390e+03
3.311401e+06 -2.391749e+03 2.455532e+03
3.311758e+06 -1.470309e+03 -3.435187e+03
3.349356e+06 -1.206405e+03 5.028180e+03
3.353371e+06 -7.232887e+02 5.459713e+03
3.354545e+06 -1.126258e+03 -4.003608e+03
3.310629e+06 -2.401780e+03 2.195819e+03
3.310989e+06 -1.471539e+03 -3.058369e+03
3.348143e+06 -1.276959e+03 4.782199e+03
3.352074e+06 -7.733748e+02 5.252912e+03
3.309951e+06 -2.397392e+03 1.932286e+03
3.310313e+06 -1.464187e+03 -2.678862e+03
3.346990e+06 -1.347496e+03 4.522785e+03
3.350828e+06 -8.234928e+02 5.032983e+03
3.309367e+06 -2.381286e+03 1.666587e+03
3.309729e+06 -1.450499e+03 -2.298966e+03
3.349637e+06 -8.736215e+02 4.799930e+03
3.308478e+06 -2.323607e+03 1.135163e+03
3.309236e+06 -1.432163e+03 -1.920734e+03
3.348503e+06 -9.237269e+02 4.553765e+03
3.345898e+06 -1.417929e+03 4.249997e+03
3.308170e+06 -2.285984e+03 8.721787e+02
3.308833e+06 -1.410434e+03 -1.545867e+03
3.345479e+06 -1.073260e+03 3.737079e+03
3.345532e+06 -1.500241e+03 2.457345e+03
3.347430e+06 -9.737583e+02 4.294519e+03
3.346252e+06 -1.863093e+03 1.594202e+03
3.307950e+06 -2.244521e+03 6.124247e+02
3.308520e+06 -1.386236e+03 -1.175710e+03
3.307948e+06 -2.244703e+03 -6.122818e+02
3.308294e+06 -1.360253e+03 -8.112798e+02
3.341482e+06 -1.760965e+03 2.691945e+03
3.344606e+06 -1.122462e+03 3.439175e+03
3.308153e+06 -1.332990e+03 -4.533202e+02
3.340831e+06 -1.824590e+03 2.344530e+03
3.343807e+06 -1.171023e+03 3.128823e+03
3.308097e+06 -1.304821e+03 -1.023565e+02
3.340265e+06 -1.884602e+03 1.987152e+03
3.343083e+06 -1.218639e+03 2.806445e+03
3.307799e+06 -2.106871e+03 -1.408179e+02
3.308122e+06 -1.276016e+03 2.412547e+02
3.342439e+06 -1.264890e+03 2.472650e+03
3.307912e+06 -2.058678e+03 -3.818566e+02
3.308228e+06 -1.246774e+03 5.772821e+02
3.339403e+06 -1.987746e+03 -1.248993e+03
3.341876e+06 -1.309208e+03 2.128290e+03
3.308104e+06 -2.009979e+03 -6.174892e+02
3.308412e+06 -1.217234e+03 9.055854e+02
3.339118e+06 -2.026293e+03 8.721764e+02
3.341397e+06 -1.350823e+03 1.774517e+03
3.341544e+06 -2.157632e+03 -1.482327e+03
3.308372e+06 -1.960992e+03 -8.476035e+02
3.308673e+06 -1.187496e+03 1.226088e+03
3.338933e+06 -2.052717e+03 4.939956e+02
3.341005e+06 -1.388689e+03 1.412844e+03
3.341057e+06 -2.221085e+03 -1.232710e+03
3.308716e+06 -1.911864e+03 -1.072136e+03
3.309008e+06 -1.157627e+03 1.538758e+03
3.338852e+06 -2.063511e+03 1.171094e+02
3.340702e+06 -1.421391e+03 1.045173e+03
3.340658e+06 -2.276728e+03 -9.789671e+02
3.309132e+06 -1.862688e+03 -1.291057e+03
3.309417e+06 -1.127673e+03 1.843589e+03
3.338877e+06 -2.055527e+03 -2.562304e+02
3.340490e+06 -1.447018e+03 6.737681e+02
3.340350e+06 -2.322172e+03 -7.227432e+02
3.309620e+06 -1.813521e+03 -1.504357e+03
3.309896e+06 -1.097664e+03 2.140593e+03
3.340370e+06 -1.463045e+03 3.011321e+02
3.310176e+06 -1.764393e+03 -1.712043e+03
3.310445e+06 -1.067620e+03 2.429792e+03
3.340342e+06 -1.466378e+03 -7.028181e+01
3.339007e+06 -2.026990e+03 -6.249425e+02
3.310801e+06 -1.715320e+03 -1.914127e+03
3.311062e+06 -1.037553e+03 2.711213e+03
3.340807e+06 -1.381948e+03 -1.158010e+03
3.341575e+06 -1.825264e+03 -8.989500e+02
3.340406e+06 -1.454125e+03 -4.384088e+02
3.341099e+06 -2.416078e+03 -3.785242e+02
3.311491e+06 -1.666304e+03 -2.110626e+03
3.311744e+06 -1.007468e+03 2.984881e+03
3.313061e+06 -1.568431e+03 -2.486938e+03
3.312491e+06 -9.773717e+02 3.250822e+03
3.341146e+06 -1.639016e+03 -2.348644e+03
3.341140e+06 -1.327021e+03 -1.505470e+03
3.313299e+06 -9.472650e+02 3.509059e+03
3.341835e+06 -1.532596e+03 -2.652306e+03
3.341558e+06 -1.263509e+03 -1.841434e+03
3.313938e+06 -1.519560e+03 -2.666784e+03
3.314168e+06 -9.171497e+02 3.759612e+03
3.342598e+06 -1.421726e+03 -2.937259e+03
3.342056e+06 -1.193712e+03 -2.163452e+03
3.315096e+06 -8.870271e+02 4.002497e+03
3.343426e+06 -1.307831e+03 3.202570e+03
3.342631e+06 -1.119353e+03 -2.469368e+03
3.316081e+06 -8.568982e+02 4.237727e+03
3.344319e+06 -1.191528e+03 -3.445961e+03
3.343278e+06 -1.041706e+03 -2.757409e+03
3.316913e+06 -1.373132e+03 -3.173237e+03
3.317120e+06 -8.267646e+02 4.465313e+03
3.345265e+06 -1.073891e+03 -3.667966e+03
3.343993e+06 -9.617109e+02 -3.026181e+03
3.318014e+06 -1.324362e+03 -3.331055e+03
3.318213e+06 -7.966279e+02 4.685261e+03
3.346262e+06 -9.553228e+02 -3.867639e+03
3.344770e+06 -8.800634e+02 -3.274629e+03
3.319167e+06 -1.275606e+03 -3.483383e+03
3.319358e+06 -7.664894e+02 4.897577e+03
3.347302e+06 -8.361901e+02 -4.044618e+03
3.345605e+06 -7.972760e+02 -3.501975e+03
3.344546e+06 -1.457825e+03 2.262086e+03
3.320369e+06 -1.226860e+03 -3.630223e+03
3.320553e+06 -7.363520e+02 5.102262e+03
3.348381e+06 -7.167491e+02 -4.198658e+03
3.346491e+06 -7.137256e+02 -3.707667e+03
3.321620e+06 -1.178124e+03 -3.771579e+03
3.321796e+06 -7.062178e+02 5.299319e+03
3.347425e+06 -6.296855e+02 -3.891316e+03
3.322916e+06 -1.129398e+03 -3.907450e+03
3.323085e+06 -6.760902e+02 5.488745e+03
3.348399e+06 -5.453524e+02 -4.052660e+03
3.349494e+06 -5.971726e+02 -4.329596e+03
3.325642e+06 -1.031981e+03 -4.162737e+03
3.324419e+06 -6.459724e+02 5.670539e+03
3.351520e+06 -2.917773e+02 -4.401422e+03
3.352181e+06 -3.464547e+02 -3.029411e+03
3.349411e+06 -4.608650e+02 -4.191527e+03
3.351088e+06 -6.027721e+02 -1.761521e+03
3.327068e+06 -9.832989e+02 -4.282152e+03
3.325795e+06 -6.158688e+02 5.844698e+03
3.327213e+06 -5.857833e+02 6.011220e+03
3.355368e+06 1.276118e-01 -4.635107e+03
3.352607e+06 -2.072813e+02 -4.472333e+03
3.330035e+06 -8.860225e+02 -4.504529e+03
3.328670e+06 -5.557221e+02 6.170102e+03
3.356568e+06 1.193170e+02 -4.626119e+03
3.353709e+06 -1.228545e+02 -4.520510e+03
3.331573e+06 -8.374504e+02 -4.607494e+03
3.330165e+06 -5.256912e+02 6.321342e+03
3.357763e+06 2.384280e+02 -4.593712e+03
3.354820e+06 -3.850934e+01 -4.545930e+03
3.331695e+06 -4.956990e+02 6.464941e+03
3.355934e+06 4.575052e+01 -4.548574e+03
3.333145e+06 -7.889448e+02 -4.704984e+03
3.333260e+06 -4.657553e+02 6.600900e+03
3.360114e+06 4.763590e+02 4.459016e+03
3.357047e+06 1.299275e+02 -4.528421e+03
3.334856e+06 -4.358727e+02 6.729226e+03
3.361266e+06 5.954800e+02 -4.355702e+03
3.358153e+06 2.140282e+02 -4.485451e+03
3.357079e+06 2.045205e+02 3.159030e+03
3.336483e+06 -4.060681e+02 6.849927e+03
3.362389e+06 7.144736e+02 -4.229329e+03
3.359246e+06 2.980618e+02 -4.419635e+03
3.358206e+06 3.435782e+02 3.128148e+03
3.338047e+06 -6.440738e+02 -4.964702e+03
3.338139e+06 -3.763626e+02 6.963017e+03
3.363479e+06 8.334882e+02 -4.079379e+03
3.360321e+06 3.820395e+02 -4.330945e+03
3.359320e+06 4.826119e+02 3.080857e+03
3.339738e+06 -5.961020e+02 -5.040398e+03
3.339822e+06 -3.467846e+02 7.068515e+03
3.361372e+06 4.659726e+02 -4.219347e+03
3.360416e+06 6.216456e+02 3.017139e+03
3.341453e+06 -5.483511e+02 -5.110679e+03
3.341529e+06 -3.173693e+02 7.166439e+03
3.362394e+06 5.498724e+02 -4.084803e+03
3.364533e+06 9.525384e+02 -3.905818e+03
3.343191e+06 -5.008500e+02 -5.175549e+03
3.343261e+06 -2.881585e+02 7.256804e+03
3.365230e+06 8.014427e+02 -3.543145e+03
3.365290e+06 1.145633e+03 -2.333241e+03
3.363382e+06 6.337484e+02 -3.927277e+03
3.364573e+06 1.334932e+03 -1.460567e+03
3.344951e+06 -4.536162e+02 -5.235004e+03
3.345013e+06 -2.591832e+02 7.339620e+03
3.346731e+06 -4.066502e+02 -5.289038e+03
3.346786e+06 -2.304436e+02 7.414895e+03
3.369045e+06 1.547808e+03 -2.683452e+03
3.366080e+06 8.852445e+02 -3.316494e+03
3.348529e+06 -3.599334e+02 -5.337647e+03
3.348576e+06 -2.019087e+02 7.482637e+03
3.369758e+06 1.666298e+03 -2.368440e+03
3.366873e+06 9.689803e+02 -3.066789e+03
3.350343e+06 -3.134359e+02 -5.380837e+03
3.350383e+06 -1.735403e+02 7.542862e+03
3.370394e+06 1.784110e+03 -2.030352e+03
3.367603e+06 1.052592e+03 -2.794076e+03
3.352172e+06 -2.671212e+02 -5.418616e+03
3.352204e+06 -1.453055e+02 7.595585e+03
3.370947e+06 1.900802e+03 -1.669630e+03
3.368265e+06 1.135986e+03 -2.498458e+03
3.355865e+06 -1.749066e+02 -5.477995e+03
3.354038e+06 -1.171796e+02 7.640820e+03
3.371407e+06 2.015621e+03 1.287322e+03
3.368853e+06 1.219017e+03 -2.180124e+03
3.355883e+06 -8.914381e+01 7.678578e+03
3.371783e+06 2.128037e+03 -8.831804e+02
3.369362e+06 1.301465e+03 -1.839380e+03
3.357726e+06 -1.289486e+02 -5.499611e+03
3.357737e+06 -6.118455e+01 7.708863e+03
3.372053e+06 2.236464e+03 -4.597071e+02
3.369787e+06 1.383018e+03 -1.476705e+03
3.359595e+06 -8.306220e+01 -5.515852e+03
3.359599e+06 -3.329172e+01 7.731673e+03
3.372215e+06 2.339364e+03 -1.828250e+01
3.370121e+06 1.463229e+03 -1.092802e+03
3.361466e+06 -5.458407e+00 7.747005e+03
3.372264e+06 2.434538e+03 4.387604e+02
3.370359e+06 1.541478e+03 -6.886724e+02
3.370488e+06 2.411256e+03 6.989412e+02
3.363337e+06 2.232082e+01 7.754849e+03
3.370497e+06 1.616909e+03 -2.656978e+02
3.365227e+06 5.431647e+01 -5.532314e+03
3.365210e+06 5.004964e+01 7.755196e+03
3.370530e+06 1.688342e+03 1.742806e+02
3.372191e+06 2.519131e+03 9.084755e+02
3.367107e+06 1.000482e+02 -5.527030e+03
3.367083e+06 7.773169e+01 7.748032e+03
3.369952e+06 1.859358e+03 1.570020e+03
3.368913e+06 2.519523e+03 1.259783e+03
3.370452e+06 1.754163e+03 6.288980e+02
3.369570e+06 3.171921e+03 5.996190e+02
3.368986e+06 1.457585e+02 -5.516348e+03
3.368954e+06 1.053689e+02 7.733344e+03
3.370861e+06 1.914532e+02 -5.500259e+03
3.370823e+06 1.329636e+02 7.711116e+03
3.369831e+06 2.648044e+03 3.325912e+03
3.369523e+06 1.891898e+03 2.049709e+03
3.372731e+06 2.371339e+02 -5.478751e+03
3.372686e+06 1.605161e+02 7.681331e+03
3.368944e+06 2.598094e+03 3.806501e+03
3.368974e+06 1.905489e+03 2.531171e+03
3.376448e+06 3.284615e+02 -5.419437e+03
3.374541e+06 1.880286e+02 7.643974e+03
3.367923e+06 2.527147e+03 4.281122e+03
3.368304e+06 1.897363e+03 3.011889e+03
3.378291e+06 3.741122e+02 -5.381608e+03
3.376388e+06 2.155022e+02 7.599028e+03
3.366774e+06 2.439731e+03 4.745945e+03
3.367512e+06 1.868427e+03 3.489552e+03
3.380122e+06 4.197562e+02 -5.338315e+03
3.378225e+06 2.429382e+02 7.546476e+03
3.365505e+06 2.339839e+03 5.197232e+03
3.366602e+06 1.822459e+03 3.961361e+03
3.381938e+06 4.653960e+02 -5.289546e+03
3.380048e+06 2.703379e+02 7.486300e+03
3.365576e+06 1.763668e+03 4.423968e+03
3.381858e+06 2.977029e+02 7.418484e+03
3.362627e+06 2.114816e+03 -6.047325e+03
3.364436e+06 1.695500e+03 4.873934e+03
3.383738e+06 5.110341e+02 -5.235288e+03
3.383650e+06 3.250357e+02 7.343011e+03
3.361044e+06 1.994325e+03 6.440537e+03
3.363188e+06 1.620550e+03 5.308132e+03
3.364855e+06 2.762724e+03 -3.420001e+03
3.385519e+06 5.566717e+02 -5.175528e+03
3.385425e+06 3.523376e+02 7.259862e+03
3.359365e+06 1.870418e+03 6.811287e+03
3.361836e+06 1.540721e+03 5.723941e+03
3.363591e+06 2.645655e+03 -3.723610e+03
3.387179e+06 3.796111e+02 7.169020e+03
3.360387e+06 1.457399e+03 6.119283e+03
3.362222e+06 2.518129e+03 -4.016150e+03
3.388912e+06 4.068584e+02 7.070467e+03
3.358844e+06 1.371594e+03 6.492577e+03
3.357601e+06 1.744240e+03 7.158013e+03
3.360753e+06 2.382820e+03 -4.295716e+03
3.390736e+06 6.936158e+02 -4.963123e+03
3.390620e+06 4.340819e+02 6.964186e+03
3.353723e+06 1.105641e+03 7.470263e+03
3.352355e+06 1.427476e+03 5.213231e+03
3.357216e+06 1.284040e+03 6.842670e+03
3.354313e+06 2.001284e+03 3.005680e+03
3.392425e+06 7.392828e+02 -4.881235e+03
3.392303e+06 4.612839e+02 6.850160e+03
3.394087e+06 7.849616e+02 -4.793784e+03
3.393958e+06 4.884660e+02 6.728371e+03
3.347738e+06 1.099138e+03 8.512346e+03
3.351871e+06 1.015438e+03 7.746863e+03
3.395719e+06 8.306520e+02 -4.700761e+03
3.395583e+06 5.156291e+02 6.598802e+03
3.345601e+06 9.691846e+02 8.705840e+03
3.349957e+06 9.248340e+02 7.998341e+03
3.397320e+06 8.763477e+02 -4.602159e+03
3.397177e+06 5.427720e+02 6.461440e+03
3.343425e+06 8.391688e+02 8.873453e+03
3.347987e+06 8.339491e+02 8.224593e+03
3.398887e+06 9.220362e+02 -4.497973e+03
3.398737e+06 5.698907e+02 6.316274e+03
3.341210e+06 7.089935e+02 -9.015840e+03
3.345968e+06 7.428597e+02 8.425586e+03
3.400418e+06 9.676948e+02 -4.388208e+03
3.400262e+06 5.969784e+02 6.163299e+03
3.338974e+06 5.790133e+02 9.131233e+03
3.343904e+06 6.516107e+02 8.601335e+03
3.403367e+06 1.058755e+03 -4.152006e+03
3.401749e+06 6.240209e+02 6.002518e+03
3.336713e+06 4.488655e+02 9.221533e+03
3.341804e+06 5.602255e+02 8.751882e+03
3.403196e+06 6.509961e+02 5.833949e+03
3.334435e+06 3.186508e+02 9.286199e+03
3.339671e+06 4.687130e+02 8.877288e+03
3.404780e+06 1.104012e+03 -4.025646e+03
3.404603e+06 6.778705e+02 5.657627e+03
3.332147e+06 1.883496e+02 9.325305e+03
3.337514e+06 3.770731e+02 8.977625e+03
3.339791e+06 7.365932e+02 -6.269796e+03
3.406150e+06 1.148934e+03 -3.893874e+03
3.405966e+06 7.045938e+02 5.473617e+03
3.335337e+06 2.852993e+02 9.052964e+03
3.407475e+06 1.193345e+03 -3.756804e+03
3.407284e+06 7.310943e+02 5.282021e+03
3.333146e+06 1.933836e+02 9.103380e+03
3.329854e+06 5.794062e+01 9.338916e+03
3.408752e+06 1.237002e+03 -3.614600e+03
3.408555e+06 7.572699e+02 5.082995e+03
3.326552e+06 -8.331360e+01 9.105764e+03
3.325552e+06 -2.021061e+02 6.232542e+03
3.330948e+06 1.013160e+02 9.128942e+03
3.327698e+06 -1.153155e+02 3.768999e+03
3.409776e+06 7.829787e+02 4.876759e+03
3.410947e+06 8.080243e+02 4.663624e+03
3.318528e+06 -5.963516e+02 9.026645e+03
3.324367e+06 -1.758883e+02 9.057138e+03
3.412280e+06 1.359719e+03 -3.159842e+03
3.412065e+06 8.321351e+02 4.444000e+03
3.316330e+06 -7.276976e+02 8.888508e+03
3.322198e+06 -2.686390e+02 8.983890e+03
3.413349e+06 1.396077e+03 -3.000143e+03
3.413129e+06 8.549386e+02 4.218416e+03
3.314169e+06 -8.591592e+02 8.725290e+03
3.320050e+06 -3.615604e+02 8.886069e+03
3.414360e+06 1.428978e+03 -2.837199e+03
3.414137e+06 8.759227e+02 3.987511e+03
3.312049e+06 -9.906647e+02 8.537084e+03
3.317930e+06 -4.546375e+02 8.763727e+03
3.415314e+06 1.457594e+03 -2.671529e+03
3.415087e+06 8.943970e+02 3.752006e+03
3.309977e+06 -1.122098e+03 8.324024e+03
3.315843e+06 -5.478435e+02 8.616919e+03
3.417043e+06 1.499078e+03 -2.333504e+03
3.415978e+06 9.094931e+02 3.512625e+03
3.307957e+06 -1.253276e+03 8.086301e+03
3.313794e+06 -6.411327e+02 8.445716e+03
3.417816e+06 1.511216e+03 -2.161467e+03
3.416810e+06 9.203508e+02 3.269993e+03
3.305996e+06 -1.383928e+03 7.824191e+03
3.311791e+06 -7.344348e+02 8.250214e+03
3.418527e+06 1.517811e+03 -1.987544e+03
3.417581e+06 9.266300e+02 3.024612e+03
3.309838e+06 -8.276451e+02 8.030551e+03
3.419176e+06 1.519469e+03 -1.812007e+03
3.418291e+06 9.288070e+02 2.777001e+03
3.302274e+06 -1.642006e+03 -7.229135e+03
3.307940e+06 -9.206121e+02 7.786928e+03
3.418939e+06 9.277805e+02 2.527813e+03
3.300656e+06 -2.358805e+03 2.630548e+03
3.300525e+06 -1.767950e+03 6.896442e+03
3.306104e+06 -1.013122e+03 7.519639e+03
3.307707e+06 -1.549998e+03 -5.490734e+03
3.419763e+06 1.516992e+03 -1.635306e+03
3.419526e+06 9.243974e+02 2.277784e+03
3.304335e+06 -1.104877e+03 7.229106e+03
3.305848e+06 -1.700380e+03 -5.299703e+03
3.420287e+06 1.511205e+03 -1.457971e+03
3.420051e+06 9.193184e+02 2.027637e+03
3.299485e+06 -1.370768e+03 6.225319e+03
3.299407e+06 -1.928222e+03 4.135465e+03
3.302639e+06 -1.195471e+03 6.915932e+03
3.304056e+06 -1.848909e+03 -5.092447e+03
3.420750e+06 1.502855e+03 -1.280521e+03
3.420514e+06 9.130340e+02 1.778004e+03
3.420917e+06 9.059020e+02 1.529406e+03
3.293145e+06 -2.313701e+03 4.949149e+03
3.298037e+06 -1.453724e+03 5.850529e+03
3.421258e+06 8.981825e+02 1.282250e+03
3.291988e+06 -2.388853e+03 4.519351e+03
3.296682e+06 -1.531867e+03 5.458535e+03
3.421770e+06 1.468232e+03 -7.516523e+02
3.421539e+06 8.900655e+02 1.036845e+03
3.290950e+06 -2.444323e+03 4.083513e+03
3.295424e+06 -1.603384e+03 5.051743e+03
3.421989e+06 1.454864e+03 -5.775243e+02
3.421760e+06 8.816882e+02 7.934176e+02
3.290037e+06 -2.476400e+03 3.644225e+03
3.294267e+06 -1.665847e+03 4.632973e+03
3.422149e+06 1.441037e+03 -4.048076e+02
3.421922e+06 8.731500e+02 5.521284e+02
3.289248e+06 -2.483327e+03 -3.202702e+03
3.293214e+06 -1.716090e+03 4.205282e+03
3.422250e+06 1.426917e+03 -2.336215e+02
3.422026e+06 8.645207e+02 3.130909e+02
3.288583e+06 -2.465337e+03 2.759537e+03
3.292267e+06 -1.750319e+03 3.771608e+03
3.422278e+06 1.398236e+03 1.038499e+02
3.422071e+06 8.558492e+02 7.638228e+01
3.288042e+06 -2.426005e+03 2.316805e+03
3.291428e+06 -1.765177e+03 3.334381e+03
3.422206e+06 1.383809e+03 2.700398e+02
3.422058e+06 8.471692e+02 -1.579462e+02
3.287621e+06 -2.369237e+03 1.877590e+03
3.290697e+06 -1.759869e+03 2.895598e+03
3.421989e+06 8.385024e+02 -3.898609e+02
3.287314e+06 -2.298937e+03 1.445293e+03
3.290074e+06 -1.736835e+03 2.457431e+03
3.290274e+06 -2.847740e+03 -2.091567e+03
3.422078e+06 1.369380e+03 4.344951e+02
3.421863e+06 8.298629e+02 -6.193401e+02
3.289557e+06 -1.699891e+03 2.022610e+03
3.421894e+06 1.354967e+03 5.972006e+02
3.421681e+06 8.212588e+02 -8.463707e+02
3.289146e+06 -1.652514e+03 1.594169e+03
3.287115e+06 -2.218409e+03 1.023034e+03
3.421654e+06 1.340584e+03 7.581469e+02
3.421444e+06 8.126947e+02 -1.070943e+03
3.288513e+06 -1.471881e+03 3.744712e+02
3.289142e+06 -1.956016e+03 1.580317e+02
3.288837e+06 -1.597439e+03 1.175034e+03
3.289006e+06 -2.643179e+03 3.037291e+02
3.421361e+06 1.326236e+03 9.173285e+02
3.421152e+06 8.041723e+02 -1.293053e+03
3.421013e+06 1.311925e+03 1.074742e+03
3.420807e+06 7.956923e+02 -1.512695e+03
3.287561e+06 -1.736587e+03 -8.633363e+02
3.288490e+06 -1.404055e+03 -3.201006e+00
3.420408e+06 7.872541e+02 -1.729868e+03
3.287900e+06 -1.633134e+03 -1.186818e+03
3.288555e+06 -1.334083e+03 -3.640016e+02
3.419956e+06 7.788568e+02 -1.944569e+03
3.288312e+06 -1.528890e+03 -1.490856e+03
3.288703e+06 -1.262589e+03 -7.070181e+02
3.419652e+06 1.269232e+03 1.536369e+03
3.419452e+06 7.704996e+02 -2.156796e+03
3.288790e+06 -1.424176e+03 -1.775177e+03
3.288929e+06 -1.190036e+03 -1.031604e+03
3.419095e+06 1.255078e+03 1.686706e+03
3.418897e+06 7.621818e+02 -2.366548e+03
3.289331e+06 -1.319209e+03 -2.039607e+03
3.289229e+06 -1.116760e+03 -1.337314e+03
3.418486e+06 1.240962e+03 1.835275e+03
3.418291e+06 7.539019e+02 -2.573825e+03
3.289931e+06 -1.214134e+03 -2.284044e+03
3.289599e+06 -1.043010e+03 -1.623856e+03
3.417828e+06 1.226886e+03 1.982077e+03
3.417634e+06 7.456588e+02 -2.778626e+03
3.290583e+06 -1.109044e+03 -2.508432e+03
3.290034e+06 -9.689593e+02 -1.891044e+03
3.417120e+06 1.212848e+03 2.127111e+03
3.416928e+06 7.374513e+02 -2.980952e+03
3.290529e+06 -8.947334e+02 -2.138768e+03
3.415557e+06 1.184871e+03 2.411876e+03
3.416173e+06 7.292768e+02 -3.180801e+03
3.291081e+06 -8.204178e+02 -2.366968e+03
3.414704e+06 1.170913e+03 2.551598e+03
3.415370e+06 7.211314e+02 -3.378173e+03
3.292031e+06 -8.990063e+02 -2.896966e+03
3.291683e+06 -7.460698e+02 -2.575616e+03
3.290872e+06 -1.357131e+03 1.619203e+03
3.292030e+06 -8.990451e+02 2.897398e+03
3.413804e+06 1.156951e+03 2.689533e+03
3.414519e+06 7.130086e+02 -3.573064e+03
3.293754e+06 -5.231437e+02 -3.084203e+03
3.292333e+06 -6.717277e+02 -2.764703e+03
3.294352e+06 -6.652326e+02 -2.144186e+03
3.291493e+06 -1.234666e+03 1.769106e+03
3.293025e+06 -5.974147e+02 -2.934231e+03
3.412858e+06 1.142947e+03 2.825663e+03
3.413621e+06 7.048978e+02 -3.765467e+03
3.412677e+06 6.967830e+02 -3.955368e+03
3.296267e+06 -3.751840e+02 -3.516735e+03
3.294517e+06 -4.489214e+02 -3.214623e+03
3.411866e+06 1.128846e+03 2.959952e+03
3.411686e+06 6.886394e+02 -4.142740e+03
3.297184e+06 -2.705757e+02 -3.580386e+03
3.295308e+06 -3.747496e+02 -3.325489e+03
3.410829e+06 1.114564e+03 3.092349e+03
3.410651e+06 6.804304e+02 -4.327540e+03
3.298114e+06 -1.659900e+02 -3.623905e+03
3.296124e+06 -3.006282e+02 -3.416797e+03
3.409572e+06 6.721037e+02 -4.509699e+03
3.299052e+06 -6.141595e+01 -3.647271e+03
3.296958e+06 -2.265543e+02 -3.488537e+03
3.408449e+06 6.635851e+02 -4.689112e+03
3.299993e+06 4.315253e+01 -3.650464e+03
3.297808e+06 -1.525254e+02 -3.540692e+03
3.407453e+06 1.069157e+03 3.477206e+03
3.407282e+06 6.547701e+02 -4.865626e+03
3.300931e+06 1.476401e+02 3.633888e+03
3.298668e+06 -7.853876e+01 -3.573244e+03
3.406241e+06 1.052354e+03 3.600819e+03
3.406074e+06 6.455152e+02 -5.039021e+03
3.301867e+06 2.522588e+02 -3.596253e+03
3.299533e+06 -4.593529e+00 -3.586168e+03
3.404988e+06 1.034098e+03 3.721657e+03
3.404823e+06 6.356232e+02 -5.208993e+03
3.302791e+06 3.567561e+02 -3.538836e+03
3.300400e+06 6.930699e+01 -3.579441e+03
3.403694e+06 1.013847e+03 3.839334e+03
3.403532e+06 6.248244e+02 -5.375134e+03
3.301263e+06 1.431552e+02 -3.553044e+03
3.402359e+06 9.909304e+02 3.953378e+03
3.402202e+06 6.127514e+02 -5.536917e+03
3.302117e+06 2.169340e+02 -3.506961e+03
3.303700e+06 4.611531e+02 -3.461233e+03
3.301299e+06 2.311268e+02 2.470418e+03
3.400985e+06 9.645521e+02 4.063243e+03
3.400832e+06 5.989020e+02 -5.693690e+03
3.304586e+06 4.374723e+02 -3.250754e+03
3.304767e+06 6.428103e+02 -2.170064e+03
3.302959e+06 2.906151e+02 -3.441195e+03
3.304075e+06 7.027335e+02 -1.326465e+03
3.398123e+06 8.978288e+02 4.268196e+03
3.399424e+06 5.825981e+02 -5.844699e+03
3.397981e+06 5.629569e+02 -5.989146e+03
3.307852e+06 9.763587e+02 -2.774673e+03
3.305361e+06 5.104711e+02 -3.126260e+03
3.396637e+06 8.558396e+02 4.362425e+03
3.396502e+06 5.389696e+02 -6.126299e+03
3.308570e+06 1.075762e+03 -2.579830e+03
3.306105e+06 5.829950e+02 -2.982485e+03
3.395119e+06 8.074588e+02 4.450905e+03
3.394991e+06 5.099286e+02 -6.255578e+03
3.309239e+06 1.172511e+03 -2.367288e+03
3.306812e+06 6.548284e+02 -2.819736e+03
3.393569e+06 7.527505e+02 4.533576e+03
3.393449e+06 4.759613e+02 -6.376465e+03
3.309853e+06 1.265533e+03 -2.138173e+03
3.307479e+06 7.256719e+02 -2.638462e+03
3.391989e+06 6.922207e+02 4.610251e+03
3.391878e+06 4.379125e+02 -6.488341e+03
3.310407e+06 1.353412e+03 -1.893957e+03
3.308100e+06 7.951129e+02 -2.439304e+03
3.390383e+06 6.266777e+02 4.680537e+03
3.390281e+06 3.967698e+02 -6.590455e+03
3.310896e+06 1.434326e+03 -1.636482e+03
3.308672e+06 8.625883e+02 -2.223138e+03
3.388660e+06 3.533499e+02 -6.682026e+03
3.311314e+06 1.506001e+03 -1.367928e+03
3.309190e+06 9.273305e+02 -1.991127e+03
3.387019e+06 3.082681e+02 -6.762346e+03
3.311656e+06 1.565761e+03 -1.090657e+03
3.309650e+06 9.882950e+02 -1.744751e+03
3.385431e+06 4.088054e+02 4.847666e+03
3.385360e+06 2.619753e+02 -6.830823e+03
3.311919e+06 1.610854e+03 -8.068007e+02
3.310049e+06 1.044065e+03 -1.485809e+03
3.383746e+06 3.316090e+02 4.887124e+03
3.383687e+06 2.148001e+02 -6.886989e+03
3.312096e+06 1.639290e+03 5.176865e+02
3.312100e+06 1.639302e+03 -5.176277e+02
3.310382e+06 1.092747e+03 -1.216343e+03
3.382049e+06 2.530695e+02 4.917814e+03
3.382002e+06 1.669820e+02 -6.930497e+03
3.310648e+06 1.131936e+03 -9.384551e+02
3.380344e+06 1.735721e+02 4.939477e+03
3.380310e+06 1.186957e+02 -6.961097e+03
3.311021e+06 1.173252e+03 -7.134332e+01
3.310844e+06 1.159044e+03 -6.540125e+02
3.310916e+06 1.824703e+03 6.403644e+02
3.376922e+06 1.279790e+01 4.955037e+03
3.378612e+06 7.006800e+01 -6.978620e+03
3.375211e+06 -6.810933e+01 4.948720e+03
3.376912e+06 2.119022e+01 -6.982957e+03
3.311766e+06 1.567698e+03 9.705294e+02
3.311000e+06 1.163491e+03 2.237455e+02
3.311301e+06 1.897430e+03 5.258244e+01
3.373505e+06 -1.492040e+02 4.932926e+03
3.375214e+06 -2.787274e+01 -6.974044e+03
3.311465e+06 1.527095e+03 1.262813e+03
3.310907e+06 1.145837e+03 5.187029e+02
3.371807e+06 -2.304135e+02 4.907629e+03
3.373521e+06 -7.707505e+01 -6.951852e+03
3.311093e+06 1.482320e+03 1.548861e+03
3.310743e+06 1.122382e+03 8.114273e+02
3.371835e+06 -1.263856e+02 -6.916370e+03
3.310653e+06 1.434566e+03 1.827407e+03
3.310508e+06 1.094713e+03 1.100007e+03
3.370120e+06 -3.116905e+02 4.872818e+03
3.370160e+06 -1.757835e+02 -6.867607e+03
3.310148e+06 1.384733e+03 2.097499e+03
3.310204e+06 1.064003e+03 1.382829e+03
3.368447e+06 -3.930074e+02 4.828494e+03
3.368500e+06 -2.252549e+02 -6.805579e+03
3.309581e+06 1.333484e+03 2.358435e+03
3.309834e+06 1.031115e+03 1.658601e+03
3.366791e+06 -4.743470e+02 4.774665e+03
3.366857e+06 -2.747916e+02 -6.730305e+03
3.308951e+06 1.281208e+03 -2.609969e+03
3.309398e+06 9.966860e+02 1.926333e+03
3.365235e+06 -3.243886e+02 -6.641809e+03
3.308271e+06 1.228527e+03 2.850999e+03
3.308900e+06 9.611806e+02 2.185286e+03
3.363636e+06 -3.740429e+02 -6.540115e+03
3.307533e+06 1.175404e+03 3.082050e+03
3.308342e+06 9.249386e+02 2.434928e+03
3.361960e+06 -7.184820e+02 4.556269e+03
3.362064e+06 -4.237536e+02 -6.425243e+03
3.307726e+06 8.882052e+02 2.674889e+03
3.360405e+06 -7.999139e+02 4.464538e+03
3.360522e+06 -4.735210e+02 -6.297213e+03
3.305555e+06 7.765561e+02 3.334602e+03
3.304817e+06 1.028735e+03 2.354412e+03
3.307950e+06 1.462256e+03 -1.878401e+03
3.307055e+06 8.511558e+02 2.904918e+03
3.305724e+06 1.398650e+03 1.329302e+03
3.358883e+06 -8.813877e+02 4.363359e+03
3.359013e+06 -5.233450e+02 -6.156039e+03
3.357397e+06 -9.629158e+02 4.252736e+03
3.357540e+06 -5.732264e+02 -6.001733e+03
3.303119e+06 9.085244e+02 4.080381e+03
3.304732e+06 7.391423e+02 3.534106e+03
3.355951e+06 -1.044508e+03 4.132672e+03
3.356107e+06 -6.231646e+02 -5.834302e+03
3.302108e+06 8.552065e+02 4.248466e+03
3.303863e+06 7.017043e+02 3.723343e+03
3.353188e+06 -1.207919e+03 3.864226e+03
3.354716e+06 -6.731582e+02 -5.653748e+03
3.301061e+06 8.019280e+02 4.406037e+03
3.302951e+06 6.642610e+02 3.902309e+03
3.353370e+06 -7.232038e+02 -5.460071e+03
3.299978e+06 7.486814e+02 4.553110e+03
3.301998e+06 6.268223e+02 4.071012e+03
3.351878e+06 -1.289740e+03 3.715845e+03
3.352072e+06 -7.732941e+02 -5.253270e+03
3.298864e+06 6.954573e+02 4.689704e+03
3.301007e+06 5.893900e+02 4.229467e+03
3.350619e+06 -1.371624e+03 3.558027e+03
3.350826e+06 -8.234164e+02 -5.033341e+03
3.297720e+06 6.422449e+02 4.815838e+03
3.299981e+06 5.519627e+02 4.377692e+03
3.349415e+06 -1.453537e+03 3.390787e+03
3.349635e+06 -8.735497e+02 -4.800287e+03
3.296548e+06 5.890335e+02 4.931528e+03
3.298920e+06 5.145358e+02 4.515706e+03
3.348268e+06 -1.535419e+03 3.214150e+03
3.348502e+06 -9.236603e+02 -4.554120e+03
3.295352e+06 5.358135e+02 5.036790e+03
3.297829e+06 4.771039e+02 4.643527e+03
3.347182e+06 -1.617164e+03 3.028166e+03
3.347429e+06 -9.736974e+02 -4.294871e+03
3.296709e+06 4.396606e+02 4.761174e+03
3.346420e+06 -1.023585e+03 -4.022601e+03
3.294133e+06 4.825766e+02 5.131640e+03
3.295563e+06 4.022002e+02 4.868662e+03
3.345478e+06 -1.073211e+03 -3.737419e+03
3.292894e+06 4.293162e+02 5.216093e+03
3.294394e+06 3.647172e+02 4.966007e+03
3.292892e+06 4.292397e+02 -5.216369e+03
3.293203e+06 3.272070e+02 5.053223e+03
3.292523e+06 5.284268e+02 2.118347e+03
3.344321e+06 -1.859538e+03 2.415303e+03
3.344605e+06 -1.122418e+03 -3.439505e+03
3.343509e+06 -1.938155e+03 2.193461e+03
3.343806e+06 -1.170986e+03 -3.129140e+03
3.287784e+06 2.160220e+02 5.450263e+03
3.290766e+06 2.520967e+02 5.197326e+03
3.290363e+06 3.226395e+02 -5.354143e+03
3.342774e+06 -2.014685e+03 1.963500e+03
3.343083e+06 -1.218608e+03 -2.806745e+03
3.286480e+06 1.626861e+02 5.483014e+03
3.289526e+06 2.144977e+02 5.254243e+03
3.290829e+06 4.022326e+02 -3.689695e+03
3.342118e+06 -2.088195e+03 1.726058e+03
3.342438e+06 -1.264865e+03 -2.472927e+03
3.285171e+06 1.094003e+02 5.505527e+03
3.288273e+06 1.768772e+02 5.301094e+03
3.289579e+06 3.398958e+02 -3.730603e+03
3.341057e+06 -2.220885e+03 1.232418e+03
3.341875e+06 -1.309189e+03 -2.128539e+03
3.283858e+06 5.622161e+01 5.517869e+03
3.287012e+06 1.392472e+02 5.337908e+03
3.340658e+06 -2.276505e+03 9.787257e+02
3.341396e+06 -1.350809e+03 -1.774733e+03
3.282544e+06 3.232911e+00 5.520135e+03
3.285743e+06 1.016268e+02 5.364719e+03
3.340350e+06 -2.321927e+03 7.225615e+02
3.341005e+06 -1.388679e+03 -1.413021e+03
3.281231e+06 -4.944773e+01 5.512457e+03
3.284470e+06 6.404625e+01 5.381577e+03
3.340135e+06 -2.354407e+03 4.657303e+02
3.340702e+06 -1.421386e+03 -1.045306e+03
3.279922e+06 -1.016573e+02 5.495018e+03
3.283194e+06 2.654838e+01 5.388556e+03
3.340490e+06 -1.447019e+03 -6.738527e+02
3.278619e+06 -1.531729e+02 5.468062e+03
3.281919e+06 -1.080479e+01 5.385754e+03
3.340015e+06 -2.371038e+03 2.099855e+02
3.340369e+06 -1.463051e+03 -3.011639e+02
3.277325e+06 -2.036964e+02 5.431915e+03
3.280645e+06 -4.792889e+01 5.373312e+03
3.339989e+06 -2.369154e+03 -4.330763e+01
3.340342e+06 -1.466388e+03 7.030621e+01
3.279377e+06 -8.470736e+01 5.351420e+03
3.340057e+06 -2.346943e+03 -2.934455e+02
3.340406e+06 -1.454136e+03 4.384915e+02
3.276043e+06 -2.528353e+02 5.387000e+03
3.278115e+06 -1.209817e+02 5.320336e+03
3.276042e+06 -2.529042e+02 -5.387233e+03
3.340562e+06 -1.425374e+03 8.017169e+02
3.274393e+06 -2.242527e+02 5.175742e+03
3.276862e+06 -1.565390e+02 5.280394e+03
3.273905e+06 -3.299946e+02 3.538651e+03
3.275621e+06 -1.910917e+02 5.232023e+03
3.340807e+06 -1.381949e+03 1.158205e+03
3.340815e+06 -2.160726e+03 -1.021587e+03
3.341140e+06 -1.327015e+03 1.505716e+03
3.269884e+06 -4.558530e+02 5.052104e+03
3.273180e+06 -2.555041e+02 5.112157e+03
3.341245e+06 -2.065523e+03 -1.253705e+03
3.341557e+06 -1.263497e+03 1.841727e+03
3.268718e+06 -4.829731e+02 4.967171e+03
3.271984e+06 -2.841754e+02 5.041916e+03
3.341758e+06 -1.958420e+03 -1.477776e+03
3.342055e+06 -1.193694e+03 2.163787e+03
3.267577e+06 -5.050476e+02 4.876981e+03
3.270806e+06 -3.094747e+02 4.965630e+03
3.342350e+06 -1.842044e+03 -1.692027e+03
3.342630e+06 -1.119328e+03 2.469740e+03
3.266462e+06 -5.227402e+02 4.781969e+03
3.269649e+06 -3.307404e+02 4.883805e+03
3.343015e+06 -1.718638e+03 -1.894890e+03
3.343277e+06 -1.041674e+03 2.757812e+03
3.265373e+06 -5.368969e+02 4.682807e+03
3.268512e+06 -3.478731e+02 4.796862e+03
3.343749e+06 -1.590036e+03 -2.085061e+03
3.343992e+06 -9.616723e+02 3.026609e+03
3.264311e+06 -5.483165e+02 4.580207e+03
3.267398e+06 -3.614198e+02 4.705272e+03
3.345402e+06 -1.322709e+03 -2.423456e+03
3.344769e+06 -8.800174e+02 3.275077e+03
3.263275e+06 -5.576709e+02 4.474817e+03
3.266307e+06 -3.721718e+02 4.609617e+03
3.345603e+06 -7.972225e+02 3.502439e+03
3.262265e+06 -5.654972e+02 4.367180e+03
3.265240e+06 -3.808343e+02 4.510539e+03
3.346310e+06 -1.185942e+03 -2.570311e+03
3.346490e+06 -7.136643e+02 3.708142e+03
3.264197e+06 -3.879591e+02 4.408646e+03
3.347265e+06 -1.048003e+03 -2.701656e+03
3.347423e+06 -6.296169e+02 3.891800e+03
3.261281e+06 -5.722130e+02 4.257731e+03
3.263179e+06 -3.939596e+02 4.304472e+03
3.348261e+06 -9.093330e+02 -2.817199e+03
3.348398e+06 -5.452766e+02 4.053150e+03
3.260276e+06 -4.079029e+02 3.982170e+03
3.262186e+06 -3.991422e+02 4.198453e+03
3.260870e+06 -7.254216e+02 1.706225e+03
3.349294e+06 -7.702434e+02 -2.916737e+03
3.349409e+06 -4.607820e+02 4.192021e+03
3.350451e+06 -3.762292e+02 4.308300e+03
3.256752e+06 -5.978264e+02 3.692317e+03
3.259360e+06 -4.117721e+02 3.872355e+03
3.351518e+06 -2.916815e+02 4.401918e+03
3.255925e+06 -6.023153e+02 3.576557e+03
3.258470e+06 -4.154332e+02 3.761621e+03
3.259255e+06 -6.863597e+02 -2.777525e+03
3.352555e+06 -3.522020e+02 -3.118212e+03
3.352605e+06 -2.071795e+02 4.472830e+03
3.255124e+06 -6.067524e+02 3.460048e+03
3.257606e+06 -4.189519e+02 3.650063e+03
3.258364e+06 -6.920805e+02 -2.698209e+03
3.353678e+06 -2.128862e+02 -3.152792e+03
3.353707e+06 -1.227477e+02 4.521007e+03
3.254350e+06 -6.111660e+02 3.342810e+03
3.256768e+06 -4.223760e+02 3.537740e+03
3.257499e+06 -6.974931e+02 -2.618216e+03
3.354811e+06 -7.364259e+01 -3.171032e+03
3.354817e+06 -3.839733e+01 4.546427e+03
3.253603e+06 -6.155747e+02 3.224851e+03
3.255957e+06 -4.257391e+02 3.424690e+03
3.355947e+06 6.552843e+01 -3.172915e+03
3.355932e+06 4.586768e+01 4.549070e+03
3.252882e+06 -6.199887e+02 3.106173e+03
3.255172e+06 -4.290641e+02 3.310935e+03
3.358208e+06 3.436996e+02 -3.127542e+03
3.357045e+06 1.300497e+02 4.528917e+03
3.252189e+06 -6.244144e+02 2.986773e+03
3.254414e+06 -4.323670e+02 3.196485e+03
3.359323e+06 4.827385e+02 -3.080253e+03
3.358151e+06 2.141552e+02 4.485946e+03
3.251523e+06 -6.288548e+02 2.866645e+03
3.253683e+06 -4.356578e+02 3.081342e+03
3.360419e+06 6.217771e+02 -3.016534e+03
3.359244e+06 2.981935e+02 4.420130e+03
3.250884e+06 -6.333107e+02 2.745783e+03
3.252979e+06 -4.389431e+02 2.965503e+03
3.361492e+06 7.608390e+02 -2.936365e+03
3.360318e+06 3.821757e+02 4.331439e+03
3.252302e+06 -4.422266e+02 2.848964e+03
3.361370e+06 4.661137e+02 4.219840e+03
3.250272e+06 -6.377834e+02 2.624177e+03
3.250272e+06 -6.377976e+02 -2.624235e+03
3.251652e+06 -4.455105e+02 2.731717e+03
3.362535e+06 8.999440e+02 -2.839720e+03
3.362391e+06 5.500187e+02 4.085297e+03
3.363544e+06 1.039105e+03 -2.726578e+03
3.363379e+06 6.339002e+02 3.927771e+03
3.248105e+06 -6.558319e+02 2.130136e+03
3.249868e+06 -4.553730e+02 2.375641e+03
3.364326e+06 7.177629e+02 3.747227e+03
3.247633e+06 -6.603812e+02 2.004677e+03
3.249329e+06 -4.586641e+02 2.255473e+03
3.249752e+06 -7.532788e+02 -1.702929e+03
3.365227e+06 8.016053e+02 3.543635e+03
3.247190e+06 -6.649426e+02 1.878422e+03
3.248818e+06 -4.619561e+02 2.134552e+03
3.366306e+06 1.456833e+03 -2.288046e+03
3.366077e+06 8.854132e+02 3.316982e+03
3.246776e+06 -6.695123e+02 1.751366e+03
3.248335e+06 -4.652481e+02 2.012870e+03
3.367120e+06 1.595981e+03 -2.108873e+03
3.366869e+06 9.691553e+02 3.067274e+03
3.246390e+06 -6.740824e+02 1.623507e+03
3.247881e+06 -4.685384e+02 1.890416e+03
3.367872e+06 1.734871e+03 -1.913302e+03
3.367600e+06 1.052775e+03 2.794556e+03
3.246033e+06 -6.786404e+02 1.494847e+03
3.247455e+06 -4.718240e+02 1.767185e+03
3.368555e+06 1.873255e+03 -1.701476e+03
3.368262e+06 1.136176e+03 2.498930e+03
3.245706e+06 -6.831658e+02 1.365396e+03
3.247059e+06 -4.751002e+02 1.643172e+03
3.369164e+06 2.010757e+03 -1.473628e+03
3.368850e+06 1.219214e+03 2.180585e+03
3.245407e+06 -6.876269e+02 1.235176e+03
3.246690e+06 -4.783589e+02 1.518373e+03
3.369694e+06 2.146832e+03 -1.230116e+03
3.369359e+06 1.301671e+03 1.839826e+03
3.246352e+06 -4.815888e+02 1.392793e+03
3.370139e+06 2.280709e+03 -9.714640e+02
3.369783e+06 1.383231e+03 1.477131e+03
3.246042e+06 -4.847719e+02 1.266443e+03
3.245138e+06 -6.919776e+02 1.104224e+03
3.370749e+06 2.537268e+03 -4.119916e+02
3.370117e+06 1.463450e+03 1.093202e+03
3.245290e+06 -4.937326e+02 8.831022e+02
3.245413e+06 -6.741994e+02 5.636674e+02
3.245762e+06 -4.878834e+02 1.139347e+03
3.245539e+06 -8.693959e+02 3.984191e+02
3.370355e+06 1.541706e+03 6.890405e+02
3.370904e+06 2.656660e+03 -1.135395e+02
3.370493e+06 1.617144e+03 2.660267e+02
3.245099e+06 -4.963497e+02 7.541133e+02
3.370952e+06 2.767127e+03 1.952172e+02
3.370526e+06 1.688583e+03 -1.739981e+02
3.244158e+06 -7.094352e+02 -3.092737e+02
3.244938e+06 -4.986435e+02 6.247190e+02
3.370887e+06 2.865731e+03 5.121801e+02
3.370448e+06 1.754411e+03 -6.286692e+02
3.244103e+06 -7.087305e+02 1.773905e+02
3.244807e+06 -5.004853e+02 4.951135e+02
3.244812e+06 -8.215580e+02 -4.463771e+02
3.370256e+06 1.812417e+03 -1.095087e+03
3.244080e+06 -7.059395e+02 4.680975e+01
3.244707e+06 -5.017020e+02 3.655585e+02
3.244681e+06 -8.238039e+02 -3.540024e+02
3.369947e+06 1.859619e+03 -1.569917e+03
3.244089e+06 -7.003711e+02 -8.186646e+01
3.244636e+06 -5.020600e+02 2.363966e+02
3.244580e+06 -8.246996e+02 -2.619544e+02
3.369979e+06 3.054139e+03 1.488218e+03
3.369519e+06 1.892165e+03 -2.049676e+03
3.244131e+06 -6.912595e+02 -2.079818e+02
3.244597e+06 -5.012457e+02 1.080572e+02
3.244511e+06 -8.237974e+02 -1.705499e+02
3.369431e+06 3.069093e+03 1.815088e+03
3.368970e+06 1.905759e+03 -2.531212e+03
3.244205e+06 -6.778396e+02 -3.309639e+02
3.244587e+06 -4.988381e+02 -1.894482e+01
3.368759e+06 3.056442e+03 2.141072e+03
3.368299e+06 1.897632e+03 -3.012005e+03
3.244311e+06 -6.595934e+02 -4.504950e+02
3.244607e+06 -4.942825e+02 -1.440350e+02
3.367964e+06 3.016639e+03 2.465842e+03
3.367508e+06 1.868690e+03 -3.489742e+03
3.244657e+06 -4.868892e+02 -2.666336e+02
3.367048e+06 2.951995e+03 2.788477e+03
3.366598e+06 1.822714e+03 -3.961620e+03
3.244448e+06 -6.364734e+02 -5.664479e+02
3.244736e+06 -4.759463e+02 -3.862348e+02
3.366011e+06 2.866039e+03 3.107158e+03
3.365571e+06 1.763915e+03 -4.424290e+03
3.245139e+06 -4.210842e+02 -7.229793e+02
3.244843e+06 -4.610841e+02 -5.024364e+02
3.245185e+06 -7.481871e+02 -2.638458e+02
3.363595e+06 2.645645e+03 3.723045e+03
3.364432e+06 1.695740e+03 -4.874313e+03
3.362226e+06 2.518147e+03 4.015529e+03
3.363184e+06 1.620783e+03 -5.308561e+03
3.245554e+06 -4.691787e+02 -1.076745e+03
3.245325e+06 -3.973398e+02 -8.262613e+02
3.360757e+06 2.382865e+03 4.295051e+03
3.361832e+06 1.540946e+03 -5.724415e+03
3.245847e+06 -4.299390e+02 -1.160844e+03
3.245536e+06 -3.719185e+02 -9.241082e+02
3.359194e+06 2.241926e+03 4.560092e+03
3.360383e+06 1.457617e+03 -6.119793e+03
3.246158e+06 -3.898213e+02 -1.237905e+03
3.245769e+06 -3.452660e+02 -1.015990e+03
3.358841e+06 1.371804e+03 -6.493117e+03
3.246486e+06 -3.490841e+02 -1.307658e+03
3.246023e+06 -3.177153e+02 -1.101456e+03
3.245682e+06 -5.670931e+02 7.004849e+02
3.357544e+06 2.096978e+03 4.809488e+03
3.357212e+06 1.284240e+03 -6.843234e+03
3.246830e+06 -3.079200e+02 -1.369900e+03
3.246296e+06 -2.895138e+02 -1.180144e+03
3.355503e+06 1.195455e+03 -7.169331e+03
3.247187e+06 -2.664715e+02 -1.424486e+03
3.246586e+06 -2.608464e+02 -1.251775e+03
3.353720e+06 1.105824e+03 -7.470858e+03
3.247556e+06 -2.248400e+02 -1.471313e+03
3.246893e+06 -2.318494e+02 -1.316138e+03
3.352132e+06 1.648951e+03 5.456435e+03
3.351868e+06 1.015612e+03 -7.747468e+03
3.247934e+06 -1.830976e+02 -1.510309e+03
3.247214e+06 -2.026248e+02 -1.373077e+03
3.350195e+06 1.497461e+03 5.636907e+03
3.349954e+06 9.249993e+02 -7.998953e+03
3.247547e+06 -1.732463e+02 -1.422485e+03
3.348202e+06 1.345551e+03 5.799430e+03
3.347984e+06 8.341066e+02 -8.225211e+03
3.247891e+06 -1.437679e+02 -1.464285e+03
3.248320e+06 -1.412938e+02 -1.541426e+03
3.346159e+06 1.193421e+03 5.943918e+03
3.345965e+06 7.430094e+02 -8.426208e+03
3.248968e+06 -5.506155e+01 -1.543606e+03
3.249171e+06 -5.572240e+01 -1.056979e+03
3.248243e+06 -1.142282e+02 -1.498425e+03
3.248806e+06 -1.251204e+02 -6.209718e+02
3.344073e+06 1.041197e+03 6.070340e+03
3.343902e+06 6.517532e+02 -8.601959e+03
3.341949e+06 8.889483e+02 6.178701e+03
3.341801e+06 5.603609e+02 -8.752508e+03
3.250308e+06 6.790242e+01 -1.578017e+03
3.249336e+06 -2.546340e+01 -1.554610e+03
3.337612e+06 5.844823e+02 6.341354e+03
3.339669e+06 4.688417e+02 -8.877915e+03
3.250704e+06 1.097392e+02 -1.561454e+03
3.249707e+06 4.135173e+00 -1.557876e+03
3.337511e+06 3.771954e+02 -8.978253e+03
3.250077e+06 3.373127e+01 -1.553396e+03
3.335412e+06 4.322639e+02 6.395730e+03
3.335334e+06 2.854158e+02 -9.053593e+03
3.251481e+06 1.934135e+02 1.504530e+03
3.250445e+06 6.332443e+01 -1.541165e+03
3.333198e+06 2.800338e+02 6.432200e+03
3.333144e+06 1.934938e+02 -9.104011e+03
3.251859e+06 2.353383e+02 -1.463842e+03
3.250809e+06 9.291764e+01 -1.521175e+03
3.250460e+06 1.031346e+02 1.074462e+03
3.330976e+06 1.277707e+02 6.450812e+03
3.330946e+06 1.014195e+02 -9.129574e+03
3.252226e+06 2.772668e+02 -1.415290e+03
3.251168e+06 1.225137e+02 -1.493417e+03
3.250832e+06 1.520048e+02 1.060085e+03
3.328746e+06 9.183396e+00 -9.130350e+03
3.252581e+06 3.192434e+02 -1.358705e+03
3.251520e+06 1.521171e+02 -1.457880e+03
3.251199e+06 2.008993e+02 1.040117e+03
3.326551e+06 -8.322237e+01 -9.106397e+03
3.252923e+06 3.612758e+02 -1.294073e+03
3.251862e+06 1.817320e+02 -1.414553e+03
3.251558e+06 2.498291e+02 1.014549e+03
3.324325e+06 -3.294600e+02 6.399924e+03
3.324366e+06 -1.758037e+02 -9.057772e+03
3.252194e+06 2.113624e+02 -1.363418e+03
3.322132e+06 -4.820807e+02 6.347514e+03
3.322196e+06 -2.685607e+02 -8.984525e+03
3.252513e+06 2.410115e+02 -1.304461e+03
3.253250e+06 4.033671e+02 -1.221379e+03
3.319960e+06 -6.348162e+02 6.277443e+03
3.320049e+06 -3.614891e+02 -8.886706e+03
3.253375e+06 3.300451e+02 -1.080494e+03
3.253348e+06 4.698780e+02 -7.017238e+02
3.252817e+06 2.706789e+02 -1.237663e+03
3.253152e+06 5.568556e+02 -4.456402e+02
3.317816e+06 -7.876506e+02 6.189756e+03
3.317928e+06 -4.545737e+02 -8.764364e+03
3.315705e+06 -9.405382e+02 6.084507e+03
3.315842e+06 -5.477875e+02 -8.617555e+03
3.254590e+06 6.139468e+02 -7.371401e+02
3.253624e+06 3.597111e+02 -9.901125e+02
3.313633e+06 -1.093394e+03 5.961770e+03
3.313793e+06 -6.410850e+02 -8.446350e+03
3.254786e+06 6.555398e+02 6.166418e+02
3.253852e+06 3.893219e+02 -8.918855e+02
3.311606e+06 -1.246075e+03 5.821652e+03
3.311790e+06 -7.343958e+02 -8.250845e+03
3.254955e+06 6.965949e+02 -4.883220e+02
3.254057e+06 4.188194e+02 -7.858597e+02
3.309629e+06 -1.398362e+03 5.664307e+03
3.309837e+06 -8.276154e+02 -8.031176e+03
3.255093e+06 7.366995e+02 -3.529060e+02
3.254235e+06 4.481158e+02 -6.721248e+02
3.305848e+06 -1.700296e+03 5.298942e+03
3.307940e+06 -9.205918e+02 -7.787544e+03
3.255199e+06 7.753783e+02 -2.107631e+02
3.254387e+06 4.770825e+02 -5.508341e+02
3.304056e+06 -1.848810e+03 5.091702e+03
3.306104e+06 -1.013112e+03 -7.520242e+03
3.255270e+06 8.119477e+02 -6.259864e+01
3.254509e+06 5.055361e+02 -4.222298e+02
3.254508e+06 7.882244e+02 3.629592e+02
3.302337e+06 -1.994562e+03 4.868877e+03
3.304335e+06 -1.104877e+03 -7.229693e+03
3.255304e+06 8.454791e+02 9.061549e+01
3.254601e+06 5.332194e+02 -2.866767e+02
3.302337e+06 -1.994682e+03 -4.869600e+03
3.302639e+06 -1.195480e+03 -6.916497e+03
3.255299e+06 8.747335e+02 2.475752e+02
3.254660e+06 5.597786e+02 -1.447053e+02
3.301020e+06 -1.284369e+03 -6.581492e+03
3.254685e+06 5.847298e+02 2.940007e+00
3.299485e+06 -1.370796e+03 -6.225817e+03
3.254675e+06 6.074175e+02 1.552435e+02
3.255251e+06 8.980836e+02 4.065804e+02
3.297674e+06 -2.401289e+03 4.116849e+03
3.298037e+06 -1.453759e+03 -5.850987e+03
3.254417e+06 6.514116e+02 6.247932e+02
3.254041e+06 8.668731e+02 4.837025e+02
3.254627e+06 6.269583e+02 3.108615e+02
3.254278e+06 1.102223e+03 2.359714e+02
3.296302e+06 -2.519942e+03 3.843128e+03
3.296682e+06 -1.531910e+03 -5.458945e+03
3.295030e+06 -2.625583e+03 3.561060e+03
3.295425e+06 -1.603436e+03 -5.052097e+03
3.254298e+06 8.362241e+02 1.147133e+03
3.254253e+06 6.525720e+02 7.785787e+02
3.293862e+06 -2.714841e+03 3.272853e+03
3.294268e+06 -1.665908e+03 -4.633265e+03
3.253958e+06 7.683775e+02 1.268272e+03
3.254051e+06 6.428747e+02 9.268554e+02
3.292800e+06 -2.784194e+03 2.980604e+03
3.293215e+06 -1.716160e+03 -4.205508e+03
3.253573e+06 6.801933e+02 1.377619e+03
3.253812e+06 6.191137e+02 1.067217e+03
3.291848e+06 -2.830501e+03 2.685882e+03
3.292268e+06 -1.750395e+03 -3.771763e+03
3.253146e+06 5.744741e+02 1.473331e+03
3.253537e+06 5.787587e+02 1.197711e+03
3.291005e+06 -2.851720e+03 2.389451e+03
3.291429e+06 -1.765256e+03 -3.334464e+03
3.252684e+06 4.546621e+02 1.552686e+03
3.253229e+06 5.216794e+02 1.316671e+03
3.289652e+06 -2.819032e+03 1.792651e+03
3.290698e+06 -1.759946e+03 -2.895609e+03
3.252195e+06 3.239631e+02 1.612837e+03
3.252891e+06 4.502530e+02 1.422190e+03
3.290074e+06 -1.736906e+03 -2.457374e+03
3.252526e+06 3.676907e+02 1.511906e+03
3.289140e+06 -2.769204e+03 1.493938e+03
3.289558e+06 -1.699955e+03 -2.022489e+03
3.251163e+06 4.019354e+01 -1.666282e+03
3.252140e+06 2.768074e+02 1.583260e+03
3.288736e+06 -2.701400e+03 1.197315e+03
3.289147e+06 -1.652573e+03 -1.593990e+03
3.250332e+06 -3.339287e+02 5.786784e+02
3.250638e+06 -1.092230e+02 1.654459e+03
3.251738e+06 1.797984e+02 1.633824e+03
3.252202e+06 4.349049e+02 -1.037779e+03
3.288438e+06 -2.619099e+03 9.049625e+02
3.288838e+06 -1.597491e+03 -1.174802e+03
3.251325e+06 7.830836e+01 1.661491e+03
3.251779e+06 2.826008e+02 -1.067101e+03
3.288628e+06 -1.536766e+03 -7.674881e+02
3.250085e+06 -2.423458e+02 1.591728e+03
3.250010e+06 -4.050124e+02 1.025341e+03
3.250908e+06 -2.644053e+01 1.664541e+03
3.251343e+06 1.211239e+02 -1.081753e+03
3.288514e+06 -1.471920e+03 -3.741536e+02
3.288134e+06 -2.314542e+03 7.341870e+01
3.288491e+06 -1.404087e+03 3.550280e+00
3.248194e+06 -8.876166e+02 1.178062e+03
3.249692e+06 -3.523562e+02 1.514093e+03
3.288216e+06 -2.201205e+03 -1.834237e+02
3.288555e+06 -1.334108e+03 3.643768e+02
3.247794e+06 -1.046097e+03 -9.953791e+02
3.249320e+06 -4.632369e+02 1.408172e+03
3.288381e+06 -2.084566e+03 -4.282878e+02
3.288703e+06 -1.262607e+03 7.074137e+02
3.247436e+06 -1.205374e+03 7.809053e+02
3.248977e+06 -5.747606e+02 1.273560e+03
3.288626e+06 -1.965650e+03 -6.604830e+02
3.288929e+06 -1.190046e+03 1.032015e+03
3.247131e+06 -1.365325e+03 5.366047e+02
3.248668e+06 -6.867946e+02 1.109944e+03
3.288945e+06 -1.845216e+03 -8.795145e+02
3.289229e+06 -1.116763e+03 1.337737e+03
3.246885e+06 -1.526322e+03 2.612744e+02
3.248401e+06 -7.992903e+02 9.170491e+02
3.289333e+06 -1.723814e+03 -1.085039e+03
3.289599e+06 -1.043005e+03 1.624287e+03
3.246703e+06 -1.688804e+03 -4.565584e+01
3.248182e+06 -9.122779e+02 6.945921e+02
3.248201e+06 -1.313881e+03 -5.363113e+02
3.289787e+06 -1.601832e+03 -1.276827e+03
3.290034e+06 -9.689470e+02 1.891480e+03
3.246592e+06 -1.853399e+03 -3.849533e+02
3.248019e+06 -1.025866e+03 4.422356e+02
3.290302e+06 -1.479534e+03 -1.454730e+03
3.290529e+06 -8.947146e+02 2.139207e+03
3.246557e+06 -2.020947e+03 -7.576504e+02
3.247917e+06 -1.140244e+03 1.595356e+02
3.291494e+06 -1.234632e+03 -1.768563e+03
3.291080e+06 -8.203930e+02 2.367409e+03
3.247884e+06 -1.255697e+03 -1.541107e+02
3.292163e+06 -1.112200e+03 -1.904415e+03
3.291683e+06 -7.460394e+02 2.576058e+03
3.247928e+06 -1.372609e+03 -4.995281e+02
3.246606e+06 -2.192540e+03 -1.165117e+03
3.292162e+06 -1.112238e+03 1.904957e+03
3.292332e+06 -6.716918e+02 2.765146e+03
3.248583e+06 -1.737749e+03 -1.739469e+03
3.249585e+06 -2.476771e+03 -1.431047e+03
3.248054e+06 -1.491482e+03 -8.778299e+02
3.248883e+06 -2.997992e+03 -7.733205e+02
3.292873e+06 -9.898778e+02 2.026746e+03
3.293024e+06 -5.973736e+02 2.934674e+03
3.293753e+06 -5.230976e+02 3.084646e+03
3.248279e+06 -3.170536e+03 -3.805631e+03
3.249002e+06 -1.866788e+03 -2.227214e+03
3.294404e+06 -7.453511e+02 -2.227585e+03
3.294516e+06 -4.488705e+02 3.215065e+03
3.248932e+06 -3.406147e+03 -4.479081e+03
3.249534e+06 -2.001056e+03 -2.756827e+03
3.295214e+06 -6.232099e+02 -2.307174e+03
3.295307e+06 -3.746946e+02 3.325931e+03
3.249700e+06 -3.661108e+03 -5.212077e+03
3.250187e+06 -2.141608e+03 -3.332090e+03
3.296048e+06 -5.011189e+02 -2.372694e+03
3.296123e+06 -3.005688e+02 3.417238e+03
3.250588e+06 -3.937414e+03 -6.010136e+03
3.250971e+06 -2.289472e+03 -3.957502e+03
3.296902e+06 -3.790589e+02 -2.424138e+03
3.296957e+06 -2.264905e+02 3.488977e+03
3.251599e+06 -4.235820e+03 -6.878414e+03
3.251895e+06 -2.445491e+03 -4.638232e+03
3.297770e+06 -2.570130e+02 -2.461498e+03
3.297807e+06 -1.524568e+02 3.541132e+03
3.252737e+06 -4.554824e+03 -7.820798e+03
3.252969e+06 -2.610086e+03 -5.379966e+03
3.298649e+06 -1.349672e+02 -2.484763e+03
3.298666e+06 -7.846572e+01 3.573683e+03
3.254011e+06 -4.889184e+03 -8.838471e+03
3.254205e+06 -2.782894e+03 -6.188567e+03
3.299533e+06 -1.291291e+01 -2.493921e+03
3.299532e+06 -4.516179e+00 3.586607e+03
3.255430e+06 -5.227784e+03 -9.927764e+03
3.255614e+06 -2.962236e+03 -7.069469e+03
3.300418e+06 1.091486e+02 -2.488962e+03
3.300398e+06 6.938934e+01 3.579879e+03
3.257022e+06 -5.558620e+03 1.108044e+04
3.257011e+06 -5.550607e+03 -1.107702e+04
3.257210e+06 -3.144357e+03 -8.026670e+03
3.302174e+06 3.532100e+02 -2.436686e+03
3.301261e+06 1.432424e+02 3.553480e+03
3.259007e+06 -3.322342e+03 -9.061184e+03
3.302116e+06 2.170266e+02 3.507396e+03
3.265755e+06 -3.678146e+03 -1.253811e+04
3.261020e+06 -3.484602e+03 -1.016872e+04
3.257950e+06 -6.085911e+03 6.940858e+03
3.303034e+06 4.751029e+02 -2.389400e+03
3.302958e+06 2.907134e+02 3.441627e+03
3.303782e+06 3.642559e+02 3.356200e+03
3.268696e+06 -4.869223e+03 -1.603654e+04
3.268505e+06 -3.637704e+03 -1.372850e+04
3.264530e+06 -6.947922e+03 9.419231e+03
3.304584e+06 4.375826e+02 3.251176e+03
3.272346e+06 -3.158143e+03 -1.598272e+04
3.271523e+06 -3.425966e+03 -1.483495e+04
3.305492e+06 8.386352e+02 -2.163745e+03
3.305359e+06 5.105873e+02 3.126673e+03
3.274808e+06 -2.940479e+03 -1.575066e+04
3.276876e+06 -6.823098e+02 -1.503569e+04
3.306253e+06 9.582081e+02 -2.061124e+03
3.306102e+06 5.831174e+02 2.982888e+03
3.278362e+06 -1.981134e+03 -1.634930e+04
3.306979e+06 1.076237e+03 -1.945285e+03
3.306810e+06 6.549571e+02 2.820125e+03
3.281243e+06 -7.596690e+02 -1.603998e+04
3.282216e+06 3.694382e+03 -1.278935e+04
3.290467e+06 1.463772e+04 1.816150e+03
3.307663e+06 1.192024e+03 -1.816707e+03
3.307477e+06 7.258066e+02 2.638834e+03
3.285927e+06 2.072805e+03 -1.504712e+04
3.308301e+06 1.304640e+03 -1.676042e+03
3.308098e+06 7.952532e+02 2.439654e+03
3.288328e+06 1.600878e+04 -8.499085e+03
3.297832e+06 1.752143e+04 -2.214268e+03
3.308889e+06 1.412881e+03 -1.524148e+03
3.308670e+06 8.627338e+02 2.223462e+03
3.309421e+06 1.515229e+03 -1.362109e+03
3.309188e+06 9.274808e+02 1.991420e+03
3.309894e+06 1.609826e+03 -1.191231e+03
3.309648e+06 9.884506e+02 1.745009e+03
3.310304e+06 1.694501e+03 -1.012987e+03
3.310046e+06 1.044226e+03 1.486028e+03
3.310646e+06 1.766877e+03 -8.288804e+02
3.310379e+06 1.092914e+03 1.216520e+03
3.311120e+06 1.865978e+03 -4.477467e+02
3.310645e+06 1.132108e+03 9.385866e+02
3.311117e+06 1.866048e+03 4.478495e+02
3.310841e+06 1.159219e+03 6.540965e+02
3.311246e+06 1.890162e+03 2.518549e+02
3.310965e+06 1.172738e+03 3.645420e+02
3.311284e+06 1.889286e+03 1.492973e+02
3.311018e+06 1.173422e+03 7.133244e+01
3.310997e+06 1.163657e+03 -2.237991e+02
3.311190e+06 1.868034e+03 3.527383e+02
3.310905e+06 1.145999e+03 -5.187963e+02
3.311022e+06 1.836015e+03 5.562585e+02
3.310740e+06 1.122541e+03 -8.115572e+02
3.310782e+06 1.795496e+03 7.583456e+02
3.310505e+06 1.094868e+03 -1.100169e+03
3.310472e+06 1.748456e+03 9.576138e+02
3.310202e+06 1.064154e+03 -1.383018e+03
3.310095e+06 1.696540e+03 1.152886e+03
3.309831e+06 1.031262e+03 -1.658814e+03
3.309651e+06 1.641064e+03 1.343212e+03
3.309396e+06 9.968286e+02 -1.926564e+03
3.309145e+06 1.583053e+03 1.527859e+03
3.308898e+06 9.613183e+02 -2.185532e+03
3.308577e+06 1.523287e+03 1.706275e+03
3.308340e+06 9.250717e+02 -2.435185e+03
3.307271e+06 1.400643e+03 2.042940e+03
3.307724e+06 8.883336e+02 -2.675155e+03
3.307052e+06 8.512795e+02 -2.905190e+03
3.306328e+06 8.140308e+02 -3.125131e+03
3.305553e+06 7.766706e+02 -3.334881e+03
3.304920e+06 1.213524e+03 2.494531e+03
3.304730e+06 7.392529e+02 -3.534386e+03
3.304042e+06 1.150946e+03 2.630448e+03
3.303861e+06 7.018114e+02 -3.723624e+03
3.303120e+06 1.088383e+03 2.759005e+03
3.302949e+06 6.643652e+02 -3.902591e+03
3.302158e+06 1.025859e+03 2.880199e+03
3.301997e+06 6.269230e+02 -4.071295e+03
3.301158e+06 9.633847e+02 2.994034e+03
3.301006e+06 5.894876e+02 -4.229750e+03
3.300121e+06 9.009602e+02 3.100520e+03
3.299979e+06 5.520574e+02 -4.377975e+03
3.299051e+06 8.385792e+02 3.199669e+03
3.298919e+06 5.146277e+02 -4.515989e+03
3.297951e+06 7.762315e+02 3.291494e+03
3.297827e+06 4.771931e+02 -4.643810e+03
3.296821e+06 7.139069e+02 3.376009e+03
3.296708e+06 4.397473e+02 -4.761457e+03
3.295666e+06 6.515930e+02 3.453226e+03
3.295562e+06 4.022841e+02 -4.868945e+03
3.294487e+06 5.892816e+02 3.523157e+03
3.294392e+06 3.647980e+02 -4.966290e+03
3.293201e+06 3.272851e+02 -5.053507e+03
3.292065e+06 4.645653e+02 -3.641553e+03
3.291991e+06 2.897422e+02 -5.130608e+03
3.289581e+06 3.399643e+02 3.730256e+03
3.290765e+06 2.521688e+02 -5.197609e+03
3.288319e+06 2.776401e+02 3.763948e+03
3.289524e+06 2.145672e+02 -5.254525e+03
3.288272e+06 1.769438e+02 -5.301377e+03
3.287048e+06 2.153586e+02 3.790452e+03
3.287010e+06 1.393102e+02 -5.338189e+03
3.285769e+06 1.531662e+02 3.809808e+03
3.285742e+06 1.016867e+02 -5.364999e+03
3.284487e+06 9.113367e+01 3.822068e+03
3.284469e+06 6.410257e+01 -5.381856e+03
3.283201e+06 2.936252e+01 3.827310e+03
3.283193e+06 2.660151e+01 -5.388831e+03
3.281916e+06 -3.200542e+01 3.825637e+03
3.281918e+06 -1.075539e+01 -5.386026e+03
3.280634e+06 -9.277619e+01 3.817195e+03
3.280644e+06 -4.788288e+01 -5.373579e+03
3.279356e+06 -1.526912e+02 3.802174e+03
3.279376e+06 -8.466429e+01 -5.351682e+03
3.278086e+06 -2.114147e+02 3.780822e+03
3.278114e+06 -1.209419e+02 -5.320590e+03
3.276825e+06 -2.685183e+02 3.753454e+03
3.276862e+06 -1.565027e+02 -5.280640e+03
3.275620e+06 -1.910588e+02 -5.232258e+03
3.274392e+06 -2.242228e+02 -5.175965e+03
3.273119e+06 -4.243692e+02 3.639329e+03
3.273179e+06 -2.554774e+02 -5.112367e+03
3.271917e+06 -4.688756e+02 3.592108e+03
3.271983e+06 -2.841517e+02 -5.042113e+03
3.270734e+06 -5.085460e+02 3.540910e+03
3.270806e+06 -3.094540e+02 -4.965813e+03
3.269571e+06 -5.429891e+02 3.485887e+03
3.269648e+06 -3.307215e+02 -4.883973e+03
3.268429e+06 -5.721546e+02 3.427094e+03
3.268512e+06 -3.478551e+02 -4.797015e+03
3.267311e+06 -5.963496e+02 3.364641e+03
3.267398e+06 -3.614023e+02 -4.705410e+03
3.266216e+06 -6.161577e+02 3.298799e+03
3.266307e+06 -3.721542e+02 -4.609743e+03
3.265146e+06 -6.322936e+02 3.229976e+03
3.265239e+06 -3.808169e+02 -4.510652e+03
3.264100e+06 -6.454740e+02 3.158630e+03
3.264197e+06 -3.879418e+02 -4.408749e+03
3.263080e+06 -6.563473e+02 3.085202e+03
3.263178e+06 -3.939427e+02 -4.304565e+03
3.262085e+06 -6.654632e+02 3.010080e+03
3.262185e+06 -3.991259e+02 -4.198539e+03
3.261218e+06 -4.037178e+02 -4.091012e+03
3.260276e+06 -4.078866e+02 -3.982243e+03
3.258365e+06 -6.920499e+02 2.698133e+03
3.259360e+06 -4.117557e+02 -3.872424e+03
3.257500e+06 -6.974654e+02 2.618142e+03
3.258470e+06 -4.154163e+02 -3.761687e+03
3.256661e+06 -7.026838e+02 2.537544e+03
3.257606e+06 -4.189350e+02 -3.650126e+03
3.256768e+06 -4.223591e+02 -3.537802e+03
3.255849e+06 -7.077840e+02 2.456387e+03
3.255956e+06 -4.257221e+02 -3.424751e+03
3.255063e+06 -7.128200e+02 2.374700e+03
3.255172e+06 -4.290474e+02 -3.310995e+03
3.254304e+06 -7.178286e+02 2.292499e+03
3.254414e+06 -4.323503e+02 -3.196544e+03
3.253572e+06 -7.228328e+02 2.209793e+03
3.253682e+06 -4.356414e+02 -3.081401e+03
3.252867e+06 -7.278477e+02 2.126583e+03
3.252978e+06 -4.389270e+02 -2.965563e+03
3.252190e+06 -7.328818e+02 2.042869e+03
3.252301e+06 -4.422111e+02 -2.849024e+03
3.251539e+06 -7.379384e+02 1.958645e+03
3.251652e+06 -4.454956e+02 -2.731777e+03
3.251029e+06 -4.487816e+02 -2.613813e+03
3.250435e+06 -4.520699e+02 -2.495124e+03
3.249213e+06 -7.584297e+02 1.616529e+03
3.249868e+06 -4.553596e+02 -2.375701e+03
3.249329e+06 -4.586511e+02 -2.255533e+03
3.248701e+06 -7.636178e+02 1.529660e+03
3.248818e+06 -4.619441e+02 -2.134613e+03
3.248217e+06 -7.688303e+02 1.442240e+03
3.248335e+06 -4.652367e+02 -2.012930e+03
3.247762e+06 -7.740640e+02 1.354264e+03
3.247881e+06 -4.685278e+02 -1.890476e+03
3.247336e+06 -7.793133e+02 1.265729e+03
3.247455e+06 -4.718143e+02 -1.767245e+03
3.246938e+06 -7.845678e+02 1.176633e+03
3.247058e+06 -4.750913e+02 -1.643231e+03
3.246569e+06 -7.898113e+02 1.086979e+03
3.246690e+06 -4.783510e+02 -1.518432e+03
3.246229e+06 -7.950176e+02 9.967766e+02
3.246351e+06 -4.815818e+02 -1.392851e+03
3.245919e+06 -8.001469e+02 9.060444e+02
3.246042e+06 -4.847663e+02 -1.266500e+03
3.245638e+06 -8.051400e+02 8.148143e+02
3.245761e+06 -4.878793e+02 -1.139403e+03
3.245511e+06 -4.908840e+02 -1.011598e+03
3.245290e+06 -4.937305e+02 -8.831513e+02
3.244973e+06 -8.182955e+02 5.387632e+02
3.245099e+06 -4.963491e+02 -7.541583e+02
3.244681e+06 -8.237659e+02 3.539548e+02
3.244938e+06 -4.986436e+02 -6.247588e+02
3.244580e+06 -8.246555e+02 2.619168e+02
3.244807e+06 -5.004868e+02 -4.951465e+02
3.244511e+06 -8.237471e+02 1.705244e+02
3.244707e+06 -5.017042e+02 -3.655834e+02
3.244472e+06 -8.205003e+02 8.015236e+01
3.244636e+06 -5.020633e+02 -2.364121e+02
3.244597e+06 -5.012498e+02 -1.080624e+02
3.244464e+06 -8.142909e+02 -8.783234e+00
3.244587e+06 -4.988433e+02 1.895135e+01
3.244486e+06 -8.044467e+02 -9.586791e+01
3.244607e+06 -4.942886e+02 1.440542e+02
3.244538e+06 -7.903271e+02 -1.807581e+02
3.244657e+06 -4.868962e+02 2.666661e+02
3.244620e+06 -7.714521e+02 -2.632530e+02
3.244736e+06 -4.759533e+02 3.862816e+02
3.244731e+06 -7.476259e+02 -3.432842e+02
3.244843e+06 -4.610903e+02 5.024973e+02
3.244978e+06 -4.425735e+02 6.149215e+02
3.245139e+06 -4.210866e+02 7.230670e+02
3.245227e+06 -6.491960e+02 -5.674190e+02
3.245325e+06 -3.973401e+02 8.263603e+02
3.245443e+06 -6.093412e+02 -6.357985e+02
3.245536e+06 -3.719170e+02 9.242179e+02
3.245943e+06 -5.228582e+02 -7.606336e+02
3.245769e+06 -3.452629e+02 1.016109e+03
3.246022e+06 -3.177102e+02 1.101583e+03
3.246223e+06 -4.772522e+02 -8.163715e+02
3.246295e+06 -2.895068e+02 1.180279e+03
3.246520e+06 -4.306003e+02 -8.672775e+02
3.246586e+06 -2.608371e+02 1.251915e+03
3.246834e+06 -3.831958e+02 -9.131423e+02
3.246893e+06 -2.318384e+02 1.316282e+03
3.247162e+06 -3.352648e+02 -9.538065e+02
3.247213e+06 -2.026115e+02 1.373225e+03
3.247503e+06 -2.869753e+02 -9.891535e+02
3.247547e+06 -1.732310e+02 1.422635e+03
3.247854e+06 -2.384506e+02 -1.019099e+03
3.247890e+06 -1.437508e+02 1.464437e+03
3.248214e+06 -1.897783e+02 -1.043583e+03
3.248243e+06 -1.142088e+02 1.498579e+03
3.248603e+06 -8.463220e+01 1.525027e+03
3.248968e+06 -5.503824e+01 1.543760e+03
3.249330e+06 -4.338164e+01 -1.083933e+03
3.249336e+06 -2.543792e+01 1.554765e+03
3.249708e+06 5.460058e+00 -1.086283e+03
3.249706e+06 4.161922e+00 1.558031e+03
3.250085e+06 5.430826e+01 -1.083066e+03
3.250076e+06 3.375935e+01 1.553552e+03
3.250833e+06 1.520369e+02 -1.059895e+03
3.250444e+06 6.335466e+01 1.541321e+03
3.251199e+06 2.009330e+02 -1.039927e+03
3.250808e+06 9.294924e+01 1.521331e+03
3.251558e+06 2.498647e+02 -1.014358e+03
3.251167e+06 1.225472e+02 1.493573e+03
3.251908e+06 2.988435e+02 -9.831780e+02
3.251519e+06 1.521519e+02 1.458037e+03
3.251861e+06 1.817686e+02 1.414709e+03
3.252248e+06 3.478806e+02 -9.463756e+02
3.252193e+06 2.114008e+02 1.363575e+03
3.252574e+06 3.969845e+02 -9.039392e+02
3.252512e+06 2.410518e+02 1.304618e+03
3.252886e+06 4.461565e+02 -8.558590e+02
3.252816e+06 2.707212e+02 1.237820e+03
3.253104e+06 3.004050e+02 1.163167e+03
3.253374e+06 3.300923e+02 1.080649e+03
3.253716e+06 5.939152e+02 -6.777478e+02
3.253624e+06 3.597615e+02 9.902661e+02
3.253952e+06 6.430742e+02 -6.071498e+02
3.253851e+06 3.893752e+02 8.920362e+02
3.254164e+06 6.920004e+02 -5.310318e+02
3.254056e+06 4.188766e+02 7.860059e+02
3.254350e+06 7.404870e+02 -4.495130e+02
3.254234e+06 4.481771e+02 6.722647e+02
3.254638e+06 8.347973e+02 -2.711161e+02
3.254386e+06 4.771481e+02 5.509649e+02
3.254508e+06 5.056061e+02 4.223481e+02
3.254737e+06 8.795895e+02 -1.749207e+02
3.254600e+06 5.332938e+02 2.867789e+02
3.254802e+06 9.217937e+02 -7.475762e+01
3.254659e+06 5.598567e+02 1.447865e+02
3.254832e+06 9.603316e+02 2.861234e+01
3.254684e+06 5.848112e+02 -2.884775e+00
3.254826e+06 9.938046e+02 1.341906e+02
3.254673e+06 6.075026e+02 -1.552198e+02
3.254781e+06 1.020445e+03 2.407112e+02
3.254626e+06 6.270463e+02 -3.108752e+02
3.254540e+06 6.422496e+02 -4.681349e+02
3.254415e+06 6.515055e+02 -6.248976e+02
3.254403e+06 1.035784e+03 5.495747e+02
3.254252e+06 6.526695e+02 -7.787352e+02
3.254195e+06 1.010058e+03 6.430314e+02
3.254050e+06 6.429756e+02 -9.270688e+02
3.253947e+06 9.644877e+02 7.293905e+02
3.253811e+06 6.192155e+02 -1.067491e+03
3.253662e+06 8.976049e+02 8.081267e+02
3.253536e+06 5.788583e+02 -1.198046e+03
3.253342e+06 8.093492e+02 8.790490e+02
3.253228e+06 5.217725e+02 -1.317066e+03
3.252989e+06 7.010813e+02 9.416867e+02
3.252890e+06 4.503375e+02 -1.422642e+03
3.252608e+06 5.752349e+02 9.949157e+02
3.252525e+06 3.677657e+02 -1.512411e+03
3.251779e+06 2.824383e+02 1.066346e+03
3.252140e+06 2.768737e+02 -1.583813e+03
3.251343e+06 1.209813e+02 1.080949e+03
3.251738e+06 1.798559e+02 -1.634421e+03
3.250901e+06 -4.744152e+01 1.079349e+03
3.251325e+06 7.835821e+01 -1.662126e+03
3.250900e+06 -4.731797e+01 -1.080193e+03
3.250908e+06 -2.639901e+01 -1.665209e+03
3.250492e+06 -1.335136e+02 -1.642322e+03
3.250085e+06 -2.423219e+02 -1.592446e+03
3.249604e+06 -5.784595e+02 9.658431e+02
3.249692e+06 -3.523407e+02 -1.514830e+03
3.249205e+06 -7.604516e+02 8.891103e+02
3.249320e+06 -4.632295e+02 -1.408925e+03
3.248833e+06 -9.438622e+02 7.920313e+02
3.248977e+06 -5.747603e+02 -1.274328e+03
3.248496e+06 -1.128402e+03 6.742260e+02
3.248668e+06 -6.868010e+02 -1.110726e+03
3.247952e+06 -1.500726e+03 3.750694e+02
3.248402e+06 -7.993021e+02 -9.178449e+02
3.248183e+06 -9.122936e+02 -6.954053e+02
3.247759e+06 -1.688932e+03 1.929714e+02
3.248019e+06 -1.025883e+03 -4.430694e+02
3.247628e+06 -1.879130e+03 -1.144083e+01
3.247918e+06 -1.140264e+03 -1.603958e+02
3.247565e+06 -2.072086e+03 -2.388201e+02
3.247885e+06 -1.255717e+03 1.532169e+02
3.247577e+06 -2.268842e+03 -4.900290e+02
3.247929e+06 -1.372632e+03 4.985915e+02
3.247671e+06 -2.470750e+03 -7.661974e+02
3.248055e+06 -1.491507e+03 8.768407e+02
3.248271e+06 -1.612974e+03 1.289445e+03
3.248585e+06 -1.737793e+03 1.738338e+03
3.248510e+06 -3.126423e+03 -1.761160e+03
3.249004e+06 -1.866858e+03 2.225993e+03
3.249000e+06 -3.369887e+03 -2.156076e+03
3.249536e+06 -2.001170e+03 2.755509e+03
3.249606e+06 -3.630784e+03 -2.587757e+03
3.250189e+06 -2.141798e+03 3.330672e+03
3.250339e+06 -3.912330e+03 -3.060011e+03
3.250974e+06 -2.289779e+03 3.955993e+03
3.251205e+06 -4.217486e+03 -3.576978e+03
3.251898e+06 -2.445976e+03 4.636658e+03
3.252215e+06 -4.548399e+03 -4.142858e+03
3.252973e+06 -2.610833e+03 5.378380e+03
3.253380e+06 -4.905526e+03 -4.761415e+03
3.254209e+06 -2.784018e+03 6.187061e+03
3.254712e+06 -5.286333e+03 -5.435182e+03
3.255620e+06 -2.963883e+03 7.068190e+03
3.256226e+06 -5.683416e+03 -6.164230e+03
3.257218e+06 -3.146703e+03 8.025844e+03
3.259872e+06 -6.455410e+03 -7.764416e+03
3.259018e+06 -3.325579e+03 9.061143e+03
3.259887e+06 -6.461631e+03 7.760766e+03
3.261036e+06 -3.488880e+03 1.016996e+04
3.262070e+06 -6.770700e+03 8.599140e+03
3.263286e+06 -3.617990e+03 1.133966e+04
3.267264e+06 -6.879389e+03 -1.016548e+04
3.265785e+06 -3.683935e+03 1.254472e+04
3.268547e+06 -3.642008e+03 1.374112e+04
3.270373e+06 -6.452000e+03 -1.074374e+04
3.271583e+06 -3.422502e+03 1.485994e+04
3.273865e+06 -5.458466e+03 -1.103445e+04
3.274896e+06 -2.912344e+03 1.580155e+04
3.276875e+06 -6.216018e+02 1.515931e+04
3.278463e+06 -1.916339e+03 1.642627e+04
3.277754e+06 -3.669571e+03 -1.089566e+04
3.281353e+06 -6.531719e+02 1.615177e+04
3.289501e+06 5.616929e+03 1.294819e+04
3.283152e+06 3.161692e+02 -9.797390e+03
3.286041e+06 2.183959e+03 1.518802e+04
3.287124e+06 5.464030e+03 8.083918e+03
3.288663e+06 1.612832e+04 8.601009e+03
3.290207e+06 1.229995e+04 6.044014e+03
3.299242e+06 1.556744e+04 5.043418e+03
3.286827e+06 5.426108e+03 -8.112390e+03
3.297834e+06 1.755048e+04 2.253058e+03
3.297467e+06 1.074433e+04 -2.225041e+03
3.290002e+06 1.223042e+04 -6.056077e+03
3.298308e+06 1.928663e+04 3.346659e+01
3.297514e+06 1.065066e+04 2.186071e+03
3.290371e+06 1.457876e+04 -1.853367e+03
3.298812e+06 1.539303e+04 -4.979382e+03
3.293465e+06 7.846493e+03 8.079644e+03
3.283293e+06 4.001160e+02 9.820919e+03
3.293492e+06 4.972942e+03 3.171591e+03
3.293275e+06 7.844940e+03 -8.075818e+03
3.271026e+06 -1.548176e+03 6.698689e+00
3.270245e+06 -9.220757e+02 -1.690954e+01
3.270739e+06 -1.083989e+03 -2.754988e+01
3.270806e+06 -9.680966e+01 -6.420085e+01
3.270594e+06 -8.466657e+02 -1.532599e+02
3.287462e+06 1.504376e+04 5.562364e+01
3.293431e+06 4.992092e+03 -3.324687e+03
3.277835e+06 -3.656003e+03 1.093052e+04
3.287404e+06 2.063825e+03 1.034591e+04
3.284332e+06 -1.425030e+03 1.140076e+04
3.273928e+06 -5.496086e+03 1.105186e+04
3.280617e+06 -3.397449e+03 1.135671e+04
3.270422e+06 -6.477954e+03 1.074639e+04
3.276994e+06 -4.548023e+03 1.092615e+04
3.267301e+06 -6.896652e+03 1.016330e+04
3.273550e+06 -5.127791e+03 1.027367e+04
3.270331e+06 -5.344966e+03 9.485553e+03
3.264503e+06 -6.935543e+03 -9.422668e+03
3.267367e+06 -5.331252e+03 8.636953e+03
3.262050e+06 -6.761769e+03 -8.602834e+03
3.264671e+06 -5.176264e+03 7.780667e+03
3.267256e+06 -6.476810e+03 -4.916068e+03
3.257939e+06 -6.081831e+03 -6.944345e+03
3.262244e+06 -4.940839e+03 6.950381e+03
3.256234e+06 -5.685874e+03 6.160973e+03
3.260075e+06 -4.665433e+03 6.165522e+03
3.254718e+06 -5.287620e+03 5.432190e+03
3.258150e+06 -4.376074e+03 5.435584e+03
3.253385e+06 -4.906009e+03 4.758704e+03
3.256453e+06 -4.088696e+03 4.763535e+03
3.252219e+06 -4.548364e+03 4.140424e+03
3.254966e+06 -3.812299e+03 4.148346e+03
3.251208e+06 -4.217143e+03 3.574806e+03
3.253673e+06 -3.551257e+03 3.586749e+03
3.250341e+06 -3.911825e+03 3.058075e+03
3.252556e+06 -3.306967e+03 3.074426e+03
3.249609e+06 -3.630219e+03 2.586027e+03
3.251602e+06 -3.079009e+03 2.606772e+03
3.249002e+06 -3.369323e+03 2.154520e+03
3.250797e+06 -2.865949e+03 2.179351e+03
3.248512e+06 -3.125895e+03 1.759748e+03
3.250129e+06 -2.665870e+03 1.788152e+03
3.248132e+06 -2.896781e+03 1.398378e+03
3.249586e+06 -2.476714e+03 1.429700e+03
3.248130e+06 -2.897255e+03 -1.399671e+03
3.247854e+06 -2.679118e+03 1.067590e+03
3.249158e+06 -2.296496e+03 1.101083e+03
3.247853e+06 -2.679524e+03 -1.068791e+03
3.247672e+06 -2.470408e+03 7.650677e+02
3.248835e+06 -2.123412e+03 7.999261e+02
3.247578e+06 -2.268556e+03 4.889532e+02
3.248610e+06 -1.955901e+03 5.243355e+02
3.247566e+06 -2.071852e+03 2.377848e+02
3.248473e+06 -1.792650e+03 2.728359e+02
3.247629e+06 -1.878939e+03 1.043493e+01
3.248417e+06 -1.632600e+03 4.429775e+01
3.247760e+06 -1.688777e+03 -1.939557e+02
3.248434e+06 -1.474913e+03 -1.621283e+02
3.247953e+06 -1.500600e+03 -3.760383e+02
3.248517e+06 -1.318957e+03 -3.470733e+02
3.248200e+06 -1.313986e+03 5.353546e+02
3.248659e+06 -1.164279e+03 -5.110051e+02
3.248496e+06 -1.128310e+03 -6.751736e+02
3.248853e+06 -1.010587e+03 -6.542767e+02
3.248833e+06 -9.437781e+02 -7.929697e+02
3.249092e+06 -8.577371e+02 -7.771727e+02
3.249205e+06 -7.603691e+02 -8.900384e+02
3.249369e+06 -7.057284e+02 -8.799487e+02
3.249604e+06 -5.783735e+02 -9.667582e+02
3.249677e+06 -5.547044e+02 -9.628733e+02
3.250024e+06 -3.983047e+02 -1.023593e+03
3.250010e+06 -4.049666e+02 -1.026269e+03
3.250024e+06 -3.983980e+02 1.022696e+03
3.250459e+06 -2.209304e+02 -1.061144e+03
3.250362e+06 -2.569916e+02 -1.070552e+03
3.250459e+06 -2.210365e+02 1.060269e+03
3.250725e+06 -1.114672e+02 -1.096277e+03
3.250565e+06 -2.197510e+02 6.269729e+02
3.251095e+06 3.067085e+01 -1.104181e+03
3.251464e+06 1.681916e+02 -1.095219e+03
3.252203e+06 4.347230e+02 1.037081e+03
3.251828e+06 2.995142e+02 -1.070586e+03
3.252607e+06 5.754335e+02 -9.955470e+02
3.252181e+06 4.226623e+02 -1.031710e+03
3.252988e+06 7.012922e+02 -9.422460e+02
3.252520e+06 5.352434e+02 -9.801904e+02
3.253341e+06 8.095669e+02 -8.795331e+02
3.252839e+06 6.345157e+02 -9.176634e+02
3.253661e+06 8.978241e+02 -8.085347e+02
3.253135e+06 7.176641e+02 -8.456146e+02
3.253946e+06 9.647034e+02 -7.297222e+02
3.253406e+06 7.824599e+02 -7.652326e+02
3.254194e+06 1.010266e+03 -6.432871e+02
3.253648e+06 8.280902e+02 -6.774603e+02
3.254402e+06 1.035977e+03 -5.497553e+02
3.253860e+06 8.555121e+02 -5.832554e+02
3.254569e+06 1.044326e+03 -4.503207e+02
3.254039e+06 8.670347e+02 -4.838401e+02
3.254570e+06 1.044152e+03 4.502112e+02
3.254695e+06 1.038235e+03 -3.466829e+02
3.254184e+06 8.654819e+02 -3.807319e+02
3.254696e+06 1.038083e+03 3.466385e+02
3.254780e+06 1.020571e+03 -2.406983e+02
3.254294e+06 8.535678e+02 -2.755846e+02
3.254825e+06 9.939032e+02 -1.341295e+02
3.254369e+06 8.336485e+02 -1.700029e+02
3.254831e+06 9.604034e+02 -2.851285e+01
3.254408e+06 8.076658e+02 -6.541378e+01
3.254801e+06 9.218417e+02 7.488673e+01
3.254412e+06 7.771748e+02 3.699062e+01
3.254736e+06 8.796165e+02 1.750721e+02
3.254383e+06 7.433923e+02 1.362614e+02
3.254637e+06 8.348063e+02 2.712832e+02
3.254321e+06 7.072552e+02 2.316720e+02
3.254509e+06 7.882299e+02 -3.627811e+02
3.254227e+06 6.694712e+02 3.226851e+02
3.254349e+06 7.404701e+02 4.496982e+02
3.254104e+06 6.305666e+02 4.089165e+02
3.254163e+06 6.919752e+02 5.312213e+02
3.253953e+06 5.909252e+02 4.901011e+02
3.253951e+06 6.430423e+02 6.073418e+02
3.253775e+06 5.508213e+02 5.660630e+02
3.253715e+06 5.938790e+02 6.779409e+02
3.253573e+06 5.104462e+02 6.366911e+02
3.253458e+06 5.446200e+02 7.429474e+02
3.253347e+06 4.699293e+02 7.019218e+02
3.253459e+06 5.446582e+02 -7.427542e+02
3.253181e+06 4.953499e+02 8.023231e+02
3.253101e+06 4.293546e+02 7.617220e+02
3.253181e+06 4.953886e+02 -8.021298e+02
3.252885e+06 4.461167e+02 8.560519e+02
3.252836e+06 3.887742e+02 8.160798e+02
3.252573e+06 3.969450e+02 9.041312e+02
3.252553e+06 3.482175e+02 8.649955e+02
3.252247e+06 3.478423e+02 9.465670e+02
3.252254e+06 3.076983e+02 9.084779e+02
3.251908e+06 2.988065e+02 9.833690e+02
3.251942e+06 2.672211e+02 9.465388e+02
3.251618e+06 2.267833e+02 9.791908e+02
3.251284e+06 1.863797e+02 1.006446e+03
3.250942e+06 1.460024e+02 1.028317e+03
3.250461e+06 1.031651e+02 -1.074272e+03
3.250593e+06 1.056441e+02 1.044812e+03
3.250085e+06 5.427899e+01 1.083255e+03
3.250240e+06 6.529842e+01 1.055939e+03
3.249707e+06 5.431869e+00 1.086473e+03
3.249884e+06 2.496020e+01 1.061704e+03
3.249329e+06 -4.340862e+01 1.084123e+03
3.249527e+06 -1.537263e+01 1.062113e+03
3.248954e+06 -9.223845e+01 1.076213e+03
3.249171e+06 -5.569858e+01 1.057172e+03
3.248954e+06 -9.221298e+01 -1.076024e+03
3.248581e+06 -1.410449e+02 1.062757e+03
3.248817e+06 -9.600998e+01 1.046888e+03
3.248582e+06 -1.410198e+02 -1.062568e+03
3.248214e+06 -1.898046e+02 1.043773e+03
3.248468e+06 -1.362927e+02 1.031272e+03
3.247854e+06 -2.384772e+02 1.019287e+03
3.248125e+06 -1.765222e+02 1.010339e+03
3.247503e+06 -2.870028e+02 9.893406e+02
3.247790e+06 -2.166605e+02 9.841144e+02
3.247162e+06 -3.352940e+02 9.539914e+02
3.247464e+06 -2.566517e+02 9.526351e+02
3.246834e+06 -3.832280e+02 9.133240e+02
3.247150e+06 -2.964179e+02 9.159568e+02
3.246520e+06 -4.306357e+02 8.674547e+02
3.246850e+06 -3.358492e+02 8.741587e+02
3.246222e+06 -4.772924e+02 8.165425e+02
3.246564e+06 -3.747986e+02 8.273527e+02
3.245942e+06 -5.229032e+02 7.607964e+02
3.246294e+06 -4.130693e+02 7.756899e+02
3.245682e+06 -5.670430e+02 -7.003324e+02
3.246043e+06 -4.504059e+02 7.193699e+02
3.245443e+06 -6.093966e+02 6.359384e+02
3.245812e+06 -4.864796e+02 6.586461e+02
3.245227e+06 -6.492554e+02 5.675444e+02
3.245602e+06 -5.208773e+02 5.938268e+02
3.245036e+06 -6.860322e+02 4.957242e+02
3.245414e+06 -5.530918e+02 5.252671e+02
3.245036e+06 -6.859695e+02 -4.956146e+02
3.244870e+06 -7.190525e+02 4.208879e+02
3.245249e+06 -5.825279e+02 4.533457e+02
3.244870e+06 -7.189865e+02 -4.207955e+02
3.244731e+06 -7.476938e+02 3.433589e+02
3.245110e+06 -6.085368e+02 3.784253e+02
3.245237e+06 -7.782099e+02 -8.918384e+01
3.244620e+06 -7.715194e+02 2.633101e+02
3.244996e+06 -6.305246e+02 3.008119e+02
3.244538e+06 -7.903932e+02 1.807972e+02
3.244908e+06 -6.481394e+02 2.207424e+02
3.244486e+06 -8.045104e+02 9.588972e+01
3.244848e+06 -6.614189e+02 1.384253e+02
3.244464e+06 -8.143512e+02 8.787956e+00
3.244816e+06 -6.707719e+02 5.410815e+01
3.244472e+06 -8.205559e+02 -8.016373e+01
3.244813e+06 -6.768143e+02 -3.189179e+01
3.244838e+06 -6.801897e+02 -1.192061e+02
3.244893e+06 -6.814778e+02 -2.074601e+02
3.244978e+06 -6.811669e+02 -2.963083e+02
3.244812e+06 -8.215262e+02 4.463215e+02
3.245093e+06 -6.796533e+02 -3.854548e+02
3.244973e+06 -8.183221e+02 -5.388247e+02
3.245238e+06 -6.772510e+02 -4.746589e+02
3.245165e+06 -8.143762e+02 -6.311496e+02
3.245412e+06 -6.742034e+02 -5.637342e+02
3.245165e+06 -8.143531e+02 6.310838e+02
3.245386e+06 -8.099346e+02 -7.232050e+02
3.245617e+06 -6.706967e+02 -6.525408e+02
3.245386e+06 -8.099138e+02 7.231360e+02
3.245638e+06 -8.051568e+02 -8.148854e+02
3.245851e+06 -6.668701e+02 -7.409775e+02
3.245919e+06 -8.001611e+02 -9.061170e+02
3.246115e+06 -6.628275e+02 -8.289736e+02
3.246229e+06 -7.950305e+02 -9.968499e+02
3.246409e+06 -6.586443e+02 -9.164829e+02
3.246569e+06 -7.898232e+02 -1.087053e+03
3.246732e+06 -6.543734e+02 -1.003476e+03
3.246938e+06 -7.845794e+02 -1.176707e+03
3.247084e+06 -6.500521e+02 -1.089935e+03
3.247336e+06 -7.793243e+02 -1.265803e+03
3.247465e+06 -6.457053e+02 -1.175853e+03
3.247762e+06 -7.740752e+02 -1.354338e+03
3.247875e+06 -6.413494e+02 -1.261228e+03
3.248217e+06 -7.688416e+02 -1.442313e+03
3.248314e+06 -6.369954e+02 -1.346061e+03
3.248701e+06 -7.636295e+02 -1.529733e+03
3.248781e+06 -6.326494e+02 -1.430356e+03
3.249213e+06 -7.584411e+02 -1.616603e+03
3.249276e+06 -6.283151e+02 -1.514121e+03
3.249753e+06 -7.532675e+02 1.702856e+03
3.249800e+06 -6.239944e+02 -1.597360e+03
3.250320e+06 -7.481441e+02 -1.788718e+03
3.250352e+06 -6.196893e+02 -1.680081e+03
3.250320e+06 -7.481303e+02 1.788646e+03
3.250916e+06 -7.430353e+02 -1.873979e+03
3.250932e+06 -6.153997e+02 -1.762293e+03
3.250916e+06 -7.430198e+02 1.873906e+03
3.251539e+06 -7.379523e+02 -1.958717e+03
3.251539e+06 -6.111249e+02 -1.844003e+03
3.251324e+06 -7.282419e+02 1.053185e+03
3.252189e+06 -7.328960e+02 -2.042941e+03
3.252174e+06 -6.068650e+02 -1.925215e+03
3.252867e+06 -7.278637e+02 -2.126655e+03
3.252836e+06 -6.026189e+02 -2.005939e+03
3.253572e+06 -7.228501e+02 -2.209864e+03
3.253526e+06 -5.983840e+02 -2.086180e+03
3.254304e+06 -7.178470e+02 -2.292571e+03
3.254242e+06 -5.941539e+02 -2.165943e+03
3.255063e+06 -7.128402e+02 -2.374772e+03
3.254986e+06 -5.899205e+02 -2.245230e+03
3.255849e+06 -7.078060e+02 -2.456460e+03
3.255756e+06 -5.856683e+02 -2.324039e+03
3.256661e+06 -7.027084e+02 -2.537617e+03
3.256553e+06 -5.813752e+02 -2.402365e+03
3.257377e+06 -5.770067e+02 -2.480191e+03
3.258227e+06 -5.725127e+02 -2.557491e+03
3.259256e+06 -6.863247e+02 2.777446e+03
3.259103e+06 -5.678226e+02 -2.634219e+03
3.260173e+06 -6.801771e+02 -2.856062e+03
3.260005e+06 -5.628377e+02 -2.710310e+03
3.260173e+06 -6.801337e+02 2.855979e+03
3.261116e+06 -6.733217e+02 -2.933678e+03
3.260933e+06 -5.574223e+02 -2.785665e+03
3.261116e+06 -6.732712e+02 2.933588e+03
3.262085e+06 -6.655174e+02 -3.010178e+03
3.261887e+06 -5.513950e+02 -2.860148e+03
3.263080e+06 -6.564086e+02 -3.085308e+03
3.262866e+06 -5.445162e+02 -2.933571e+03
3.264100e+06 -6.455441e+02 -3.158749e+03
3.263869e+06 -5.364759e+02 -3.005694e+03
3.265145e+06 -6.323709e+02 -3.230110e+03
3.264898e+06 -5.268778e+02 -3.076215e+03
3.266216e+06 -6.162412e+02 -3.298949e+03
3.265949e+06 -5.152266e+02 -3.144773e+03
3.267310e+06 -5.964385e+02 -3.364809e+03
3.267024e+06 -5.009258e+02 -3.210965e+03
3.268429e+06 -5.722472e+02 -3.427280e+03
3.268122e+06 -4.832943e+02 -3.274383e+03
3.269570e+06 -5.430843e+02 -3.486092e+03
3.269240e+06 -4.616417e+02 -3.334659e+03
3.270733e+06 -5.086423e+02 -3.541134e+03
3.270379e+06 -4.354399e+02 -3.391499e+03
3.271916e+06 -4.689708e+02 -3.592350e+03
3.271537e+06 -4.045260e+02 -3.444667e+03
3.273119e+06 -4.244630e+02 -3.639588e+03
3.272713e+06 -3.691755e+02 -3.493914e+03
3.274339e+06 -3.757527e+02 -3.682532e+03
3.273905e+06 -3.299823e+02 -3.538924e+03
3.274339e+06 -3.756579e+02 3.682255e+03
3.275574e+06 -3.235638e+02 -3.720746e+03
3.275112e+06 -2.876476e+02 -3.579311e+03
3.275575e+06 -3.234723e+02 3.720452e+03
3.276824e+06 -2.686014e+02 -3.753762e+03
3.276332e+06 -2.428369e+02 -3.614655e+03
3.275754e+06 -3.524559e+02 8.319967e+02
3.278085e+06 -2.114938e+02 -3.781140e+03
3.277564e+06 -1.961233e+02 -3.644554e+03
3.279355e+06 -1.527675e+02 -3.802501e+03
3.278805e+06 -1.479785e+02 -3.668654e+03
3.280633e+06 -9.284913e+01 -3.817529e+03
3.280054e+06 -9.877789e+01 -3.686658e+03
3.281915e+06 -3.207560e+01 -3.825977e+03
3.281309e+06 -4.881443e+01 -3.698329e+03
3.283200e+06 2.929429e+01 -3.827652e+03
3.282567e+06 1.686608e+00 -3.703483e+03
3.284485e+06 9.106666e+01 -3.822413e+03
3.283825e+06 5.255617e+01 -3.701984e+03
3.285768e+06 1.530995e+02 -3.810154e+03
3.285083e+06 1.036683e+02 -3.693730e+03
3.287046e+06 2.152912e+02 -3.790799e+03
3.286337e+06 1.549325e+02 -3.678650e+03
3.288318e+06 2.775722e+02 -3.764295e+03
3.287586e+06 2.062847e+02 -3.656692e+03
3.288826e+06 2.576814e+02 -3.627820e+03
3.290056e+06 3.090935e+02 -3.592008e+03
3.291272e+06 3.605036e+02 -3.549239e+03
3.292067e+06 4.646417e+02 3.641206e+03
3.293285e+06 5.268891e+02 -3.586160e+03
3.292474e+06 4.119030e+02 -3.499500e+03
3.293286e+06 5.269678e+02 3.585813e+03
3.294485e+06 5.892042e+02 -3.523504e+03
3.293657e+06 4.632890e+02 -3.442778e+03
3.295664e+06 6.515124e+02 -3.453573e+03
3.294821e+06 5.146626e+02 -3.379062e+03
3.296820e+06 7.138219e+02 -3.376355e+03
3.295962e+06 5.660273e+02 -3.308343e+03
3.297949e+06 7.761436e+02 -3.291841e+03
3.297078e+06 6.173893e+02 -3.230611e+03
3.299050e+06 8.384883e+02 -3.200015e+03
3.298166e+06 6.687568e+02 -3.145853e+03
3.300119e+06 9.008667e+02 -3.100866e+03
3.299225e+06 7.201374e+02 -3.054058e+03
3.301156e+06 9.632888e+02 -2.994381e+03
3.300252e+06 7.715383e+02 -2.955211e+03
3.302156e+06 1.025761e+03 -2.880547e+03
3.301244e+06 8.229651e+02 -2.849298e+03
3.303118e+06 1.088283e+03 -2.759353e+03
3.302198e+06 8.744194e+02 -2.736305e+03
3.304040e+06 1.150846e+03 -2.630795e+03
3.303114e+06 9.258972e+02 -2.616222e+03
3.304918e+06 1.213423e+03 -2.494878e+03
3.303987e+06 9.773837e+02 -2.489042e+03
3.305751e+06 1.275963e+03 -2.351621e+03
3.304815e+06 1.028850e+03 -2.354765e+03
3.305753e+06 1.276066e+03 2.351274e+03
3.306535e+06 1.338384e+03 -2.201064e+03
3.305597e+06 1.080244e+03 -2.213409e+03
3.306537e+06 1.338483e+03 2.200718e+03
3.307269e+06 1.400550e+03 -2.043283e+03
3.306329e+06 1.131486e+03 -2.065010e+03
3.307952e+06 1.462344e+03 1.878063e+03
3.307010e+06 1.182448e+03 -1.909637e+03
3.308575e+06 1.523207e+03 -1.706606e+03
3.307636e+06 1.232945e+03 -1.747407e+03
3.309142e+06 1.582985e+03 -1.528179e+03
3.308206e+06 1.282714e+03 -1.578500e+03
3.309649e+06 1.641009e+03 -1.343518e+03
3.308717e+06 1.331385e+03 -1.403185e+03
3.310092e+06 1.696502e+03 -1.153170e+03
3.309167e+06 1.378453e+03 -1.221844e+03
3.310470e+06 1.748437e+03 -9.578706e+02
3.309554e+06 1.423243e+03 -1.035006e+03
3.310780e+06 1.795496e+03 -7.585676e+02
3.309876e+06 1.464862e+03 -8.433737e+02
3.311019e+06 1.836034e+03 -5.564380e+02
3.310132e+06 1.502158e+03 -6.478475e+02
3.311187e+06 1.868071e+03 -3.528681e+02
3.310320e+06 1.533669e+03 -4.495312e+02
3.311281e+06 1.889336e+03 -1.493723e+02
3.310440e+06 1.557592e+03 -2.496999e+02
3.310492e+06 1.571796e+03 -4.971532e+01
3.311304e+06 1.897370e+03 -5.259984e+01
3.310475e+06 1.573962e+03 1.491204e+02
3.311249e+06 1.890093e+03 -2.518123e+02
3.310391e+06 1.562003e+03 3.457182e+02
3.310204e+06 1.841708e+03 -1.442910e+02
3.310919e+06 1.824636e+03 -6.402018e+02
3.310239e+06 1.534756e+03 5.392348e+02
3.310643e+06 1.766939e+03 8.291023e+02
3.310022e+06 1.492492e+03 7.289075e+02
3.310301e+06 1.694553e+03 1.013266e+03
3.309741e+06 1.436790e+03 9.138147e+02
3.309892e+06 1.609864e+03 1.191564e+03
3.309397e+06 1.369894e+03 1.092780e+03
3.309419e+06 1.515250e+03 1.362489e+03
3.308993e+06 1.294080e+03 1.264465e+03
3.308886e+06 1.412885e+03 1.524568e+03
3.308532e+06 1.211362e+03 1.427533e+03
3.308299e+06 1.304626e+03 1.676495e+03
3.308017e+06 1.123415e+03 1.580772e+03
3.307661e+06 1.191994e+03 1.817185e+03
3.307452e+06 1.031579e+03 1.723162e+03
3.306977e+06 1.076193e+03 1.945782e+03
3.287318e+06 2.040629e+03 -1.036418e+04
3.280293e+06 -4.308599e+03 5.906742e+03
3.306839e+06 9.369029e+02 1.853885e+03
3.306251e+06 9.581520e+02 2.061635e+03
3.284282e+06 -1.472196e+03 -1.132844e+04
3.284574e+06 -1.011660e+03 -5.569565e+03
3.276433e+06 -6.050225e+03 6.069567e+03
3.306185e+06 8.401913e+02 1.972317e+03
3.305489e+06 8.385699e+02 2.164266e+03
3.280497e+06 -3.407699e+03 -1.130972e+04
3.280234e+06 -4.157424e+03 -6.218119e+03
3.272840e+06 -7.000278e+03 5.963212e+03
3.305492e+06 7.420519e+02 2.077997e+03
3.304696e+06 7.179615e+02 2.253334e+03
3.276927e+06 -4.527312e+03 -1.092299e+04
3.276384e+06 -5.978332e+03 -6.373433e+03
3.269549e+06 -7.389120e+03 5.673534e+03
3.304766e+06 6.429343e+02 2.170600e+03
3.304698e+06 7.180307e+02 -2.252807e+03
3.303875e+06 5.966942e+02 2.328607e+03
3.304010e+06 5.431641e+02 2.249903e+03
3.303877e+06 5.967663e+02 -2.328076e+03
3.303032e+06 4.750261e+02 2.389934e+03
3.261506e+06 -6.849658e+03 4.352897e+03
3.272810e+06 -6.937497e+03 -6.229124e+03
3.303230e+06 4.429732e+02 2.315763e+03
3.302172e+06 3.531326e+02 2.437222e+03
3.264655e+06 -5.168362e+03 -7.786190e+03
3.263898e+06 -7.132475e+03 -4.988974e+03
3.259388e+06 -6.439193e+03 3.889712e+03
3.302430e+06 3.425221e+02 2.368093e+03
3.301300e+06 2.312021e+02 -2.469882e+03
3.262233e+06 -4.935102e+03 -6.955372e+03
3.261515e+06 -6.791560e+03 -4.495390e+03
3.257518e+06 -6.006425e+03 3.447263e+03
3.301614e+06 2.419186e+02 2.406846e+03
3.300417e+06 1.090757e+02 2.489499e+03
3.260068e+06 -4.661398e+03 -6.169956e+03
3.259400e+06 -6.385863e+03 -4.012004e+03
3.255875e+06 -5.577895e+03 3.033084e+03
3.300788e+06 1.412316e+02 2.432005e+03
3.299532e+06 -1.298292e+01 2.494458e+03
3.258146e+06 -4.373335e+03 -5.439473e+03
3.257531e+06 -5.958025e+03 -3.552299e+03
3.254439e+06 -5.168566e+03 2.650321e+03
3.299956e+06 4.050163e+01 2.443566e+03
3.298647e+06 -1.350337e+02 2.485300e+03
3.256450e+06 -4.086908e+03 -4.766917e+03
3.255888e+06 -5.534224e+03 -3.123225e+03
3.253192e+06 -4.785642e+03 2.299362e+03
3.299123e+06 -6.024954e+01 2.441538e+03
3.297769e+06 -2.570756e+02 2.462035e+03
3.254965e+06 -3.811187e+03 -4.151271e+03
3.254452e+06 -5.129239e+03 -2.727450e+03
3.252118e+06 -4.431335e+03 1.978976e+03
3.298292e+06 -1.610136e+02 2.425934e+03
3.296900e+06 -3.791173e+02 2.424676e+03
3.253672e+06 -3.550609e+03 -3.589275e+03
3.253205e+06 -4.750205e+03 -2.364983e+03
3.251202e+06 -4.104825e+03 1.687098e+03
3.297470e+06 -2.617907e+02 2.396770e+03
3.296047e+06 -5.011731e+02 2.373232e+03
3.252556e+06 -3.306625e+03 -3.076612e+03
3.252130e+06 -4.399330e+03 -2.034296e+03
3.250431e+06 -3.803606e+03 1.421331e+03
3.296660e+06 -3.625870e+02 2.354058e+03
3.295213e+06 -6.232606e+02 2.307712e+03
3.251602e+06 -3.078861e+03 -2.608674e+03
3.251213e+06 -4.075831e+03 -1.733098e+03
3.249794e+06 -3.524384e+03 1.179265e+03
3.295867e+06 -4.634113e+02 2.297810e+03
3.294403e+06 -7.453973e+02 2.228123e+03
3.250797e+06 -2.865915e+03 -2.181023e+03
3.250442e+06 -3.777253e+03 -1.458824e+03
3.249278e+06 -3.263650e+03 9.586571e+02
3.295096e+06 -5.642736e+02 2.228034e+03
3.293621e+06 -8.675988e+02 2.134468e+03
3.294352e+06 -6.651830e+02 2.144732e+03
3.293622e+06 -8.675585e+02 -2.133928e+03
3.248373e+06 -2.560304e+03 4.072490e+02
3.249287e+06 -3.241723e+03 -9.811239e+02
3.293638e+06 -7.661462e+02 2.047906e+03
3.292873e+06 -9.898401e+02 -2.026204e+03
3.248835e+06 -2.123468e+03 -8.010767e+02
3.249310e+06 -2.631114e+03 -5.616914e+02
3.248258e+06 -2.343345e+03 2.555808e+02
3.292960e+06 -8.671642e+02 1.937552e+03
3.248609e+06 -1.955947e+03 -5.254266e+02
3.248380e+06 -2.543543e+03 -4.111342e+02
3.248222e+06 -2.131788e+03 1.182944e+02
3.292321e+06 -9.682296e+02 1.813666e+03
3.290872e+06 -1.357098e+03 -1.618660e+03
3.248473e+06 -1.792686e+03 -2.738824e+02
3.248263e+06 -2.328078e+03 -2.541969e+02
3.248259e+06 -1.924220e+03 -5.303554e+00
3.291728e+06 -1.069320e+03 1.676247e+03
3.290301e+06 -1.479568e+03 1.455273e+03
3.248417e+06 -1.632626e+03 -4.531301e+01
3.248227e+06 -2.117953e+03 -1.120841e+02
3.248361e+06 -1.719570e+03 -1.157485e+02
3.291183e+06 -1.170395e+03 1.525300e+03
3.289787e+06 -1.601869e+03 1.277369e+03
3.248434e+06 -1.474930e+03 1.611347e+02
3.248263e+06 -1.911769e+03 1.590373e+01
3.248522e+06 -1.517068e+03 -2.134557e+02
3.290693e+06 -1.271383e+03 1.360844e+03
3.289333e+06 -1.723857e+03 1.085578e+03
3.248517e+06 -1.318969e+03 3.460943e+02
3.248365e+06 -1.708470e+03 1.303035e+02
3.248734e+06 -1.316215e+03 -2.987550e+02
3.290260e+06 -1.372173e+03 1.182921e+03
3.288945e+06 -1.845267e+03 8.800474e+02
3.248659e+06 -1.164288e+03 5.100358e+02
3.248525e+06 -1.507295e+03 2.315295e+02
3.248991e+06 -1.116755e+03 -3.719253e+02
3.289891e+06 -1.472593e+03 9.916111e+02
3.288626e+06 -1.965713e+03 6.610069e+02
3.248853e+06 -1.010598e+03 6.533146e+02
3.249286e+06 -9.186694e+02 -4.332238e+02
3.289589e+06 -1.572398e+03 7.870489e+02
3.288381e+06 -2.084645e+03 4.287977e+02
3.249092e+06 -8.577534e+02 7.762161e+02
3.249612e+06 -7.221723e+02 -4.829189e+02
3.289359e+06 -1.671235e+03 5.694487e+02
3.288216e+06 -2.201304e+03 1.839134e+02
3.249369e+06 -7.057527e+02 8.789987e+02
3.249288e+06 -9.127806e+02 4.592113e+02
3.249963e+06 -5.277322e+02 -5.213208e+02
3.289205e+06 -1.768613e+03 3.391345e+02
3.288134e+06 -2.314663e+03 -7.295680e+01
3.289131e+06 -1.863865e+03 9.657679e+01
3.288141e+06 -2.423364e+03 -3.408783e+02
3.251097e+06 3.426203e+01 -5.731066e+02
3.249964e+06 -5.243557e+02 5.503470e+02
3.289142e+06 -1.956093e+03 -1.575651e+02
3.288141e+06 -2.423216e+03 3.413033e+02
3.288241e+06 -2.525651e+03 -6.186252e+02
3.250726e+06 -1.115405e+02 1.095392e+03
3.251481e+06 2.098021e+02 -5.712711e+02
3.250711e+06 -1.482923e+02 -5.658699e+02
3.289241e+06 -2.044116e+03 -4.223985e+02
3.288241e+06 -2.525470e+03 6.190018e+02
3.288438e+06 -2.619309e+03 -9.046462e+02
3.251095e+06 3.058260e+01 1.103331e+03
3.251858e+06 3.761792e+02 -5.612518e+02
3.289432e+06 -2.126403e+03 -6.967585e+02
3.288737e+06 -2.701636e+03 -1.197069e+03
3.251465e+06 1.680886e+02 1.094413e+03
3.251481e+06 2.086085e+02 6.009880e+02
3.252224e+06 5.309013e+02 -5.440417e+02
3.289717e+06 -2.201002e+03 -9.791861e+02
3.289140e+06 -2.769464e+03 -1.493771e+03
3.251829e+06 2.993971e+02 1.069835e+03
3.251858e+06 3.740102e+02 5.900608e+02
3.252573e+06 6.712572e+02 -5.206528e+02
3.290100e+06 -2.265482e+03 -1.267948e+03
3.289652e+06 -2.819311e+03 -1.792572e+03
3.252182e+06 4.225305e+02 1.031025e+03
3.252224e+06 5.278510e+02 5.715503e+02
3.252902e+06 7.945477e+02 -4.919789e+02
3.290581e+06 -2.316918e+03 -1.561123e+03
3.290273e+06 -2.847449e+03 2.091557e+03
3.252521e+06 5.350967e+02 9.795775e+02
3.252573e+06 6.674263e+02 5.465042e+02
3.253206e+06 8.984412e+02 -4.586307e+02
3.291163e+06 -2.351991e+03 -1.856770e+03
3.291006e+06 -2.852015e+03 -2.389552e+03
3.252840e+06 6.343546e+02 9.171285e+02
3.252901e+06 7.900361e+02 5.158610e+02
3.253484e+06 9.813628e+02 -4.208672e+02
3.291846e+06 -2.367382e+03 -2.153171e+03
3.291849e+06 -2.830795e+03 -2.686074e+03
3.253136e+06 7.174908e+02 8.451595e+02
3.253205e+06 8.933392e+02 4.802813e+02
3.253733e+06 1.042785e+03 -3.787120e+02
3.292630e+06 -2.360651e+03 -2.448973e+03
3.292801e+06 -2.784482e+03 -2.980887e+03
3.253407e+06 7.822807e+02 7.648577e+02
3.253483e+06 9.757515e+02 4.400757e+02
3.253949e+06 1.083321e+03 -3.322009e+02
3.293515e+06 -2.331202e+03 -2.743077e+03
3.293862e+06 -2.715115e+03 -3.273225e+03
3.253650e+06 8.279121e+02 6.771653e+02
3.253732e+06 1.036741e+03 3.953171e+02
3.254132e+06 1.104612e+03 -2.816257e+02
3.294500e+06 -2.280554e+03 -3.034301e+03
3.295031e+06 -2.625837e+03 -3.561514e+03
3.295584e+06 -2.211674e+03 -3.321115e+03
3.296303e+06 -2.520168e+03 -3.843658e+03
3.254464e+06 1.078033e+03 -1.131737e+02
3.254131e+06 1.097960e+03 2.927455e+02
3.296765e+06 -2.127965e+03 -3.601657e+03
3.297674e+06 -2.401486e+03 -4.117443e+03
3.254295e+06 8.534242e+02 2.755827e+02
3.254109e+06 1.009104e+03 1.928680e+02
3.254502e+06 1.047782e+03 -5.472354e+01
3.298040e+06 -2.032603e+03 -3.873949e+03
3.299141e+06 -2.272766e+03 -4.380816e+03
3.254370e+06 8.335144e+02 1.700555e+02
3.254463e+06 1.071209e+03 1.160803e+02
3.254504e+06 1.010645e+03 3.325430e+00
3.299408e+06 -1.928305e+03 -4.136111e+03
3.299140e+06 -2.272593e+03 4.380169e+03
3.300697e+06 -2.136495e+03 -4.632015e+03
3.254409e+06 8.075419e+02 6.551016e+01
3.254500e+06 1.041077e+03 5.504586e+01
3.254471e+06 9.683802e+02 6.023458e+01
3.300863e+06 -1.817290e+03 -4.386499e+03
3.300697e+06 -2.136346e+03 4.631324e+03
3.254413e+06 7.770611e+02 -3.686080e+01
3.254502e+06 1.004129e+03 -5.474255e+00
3.254405e+06 9.223945e+02 1.154138e+02
3.302402e+06 -1.701323e+03 -4.623753e+03
3.301898e+06 -2.090370e+03 2.628036e+03
3.254384e+06 7.432889e+02 -1.361066e+02
3.254469e+06 9.621044e+02 -6.473074e+01
3.254307e+06 8.737793e+02 1.684088e+02
3.304021e+06 -1.581780e+03 -4.846798e+03
3.254322e+06 7.071613e+02 -2.314996e+02
3.254404e+06 9.163977e+02 -1.221282e+02
3.254180e+06 8.233637e+02 2.188806e+02
3.305714e+06 -1.459716e+03 -5.054820e+03
3.307708e+06 -1.549926e+03 5.489962e+03
3.254228e+06 6.693867e+02 -3.225010e+02
3.254306e+06 8.680903e+02 -1.772098e+02
3.254024e+06 7.717584e+02 2.665845e+02
3.307476e+06 -1.335923e+03 -5.247213e+03
3.309628e+06 -1.398426e+03 -5.665085e+03
3.254105e+06 6.304906e+02 -4.087250e+02
3.253841e+06 7.194050e+02 3.113491e+02
3.309303e+06 -1.210988e+03 -5.423542e+03
3.311605e+06 -1.246134e+03 -5.822433e+03
3.253953e+06 5.908567e+02 -4.899054e+02
3.253634e+06 6.666133e+02 3.530585e+02
3.311188e+06 -1.085337e+03 -5.583499e+03
3.313632e+06 -1.093450e+03 -5.962553e+03
3.253776e+06 5.507597e+02 -5.658649e+02
3.253840e+06 7.147261e+02 -3.256226e+02
3.253404e+06 6.135942e+02 3.916385e+02
3.313126e+06 -9.592722e+02 -5.726874e+03
3.315704e+06 -9.405948e+02 -6.085290e+03
3.315111e+06 -8.330034e+02 -5.853524e+03
3.317815e+06 -7.877094e+02 -6.190538e+03
3.252594e+06 4.543027e+02 4.882412e+02
3.253403e+06 6.096140e+02 -4.089184e+02
3.317138e+06 -7.066710e+02 -5.963350e+03
3.319959e+06 -6.348780e+02 -6.278224e+03
3.252836e+06 3.887296e+02 -8.158824e+02
3.252910e+06 4.851632e+02 -4.592987e+02
3.252291e+06 4.013006e+02 5.140201e+02
3.319202e+06 -5.803644e+02 -6.056287e+03
3.322130e+06 -4.821448e+02 -6.348293e+03
3.252553e+06 3.481759e+02 -8.647996e+02
3.252594e+06 4.513798e+02 -5.091088e+02
3.251974e+06 3.483720e+02 5.365871e+02
3.321296e+06 -4.541368e+02 -6.132287e+03
3.324323e+06 -3.295289e+02 -6.400700e+03
3.252255e+06 3.076592e+02 -9.082832e+02
3.252291e+06 3.987261e+02 -5.358418e+02
3.251646e+06 2.955141e+02 5.559473e+02
3.323414e+06 -3.280173e+02 -6.191311e+03
3.326532e+06 -1.770308e+02 -6.435410e+03
3.251943e+06 2.671838e+02 -9.463446e+02
3.251974e+06 3.461452e+02 -5.592431e+02
3.251307e+06 2.427175e+02 5.721070e+02
3.325551e+06 -2.020169e+02 -6.233326e+03
3.326534e+06 -1.769498e+02 6.434635e+03
3.328751e+06 -2.463346e+01 -6.452385e+03
3.251619e+06 2.267480e+02 -9.789973e+02
3.250960e+06 1.899705e+02 5.850727e+02
3.327701e+06 -7.613305e+01 -6.258301e+03
3.328753e+06 -2.454560e+01 6.451610e+03
3.330974e+06 1.276836e+02 -6.451586e+03
3.251285e+06 1.863458e+02 -1.006253e+03
3.250606e+06 1.372610e+02 5.948504e+02
3.329858e+06 4.964368e+01 -6.266199e+03
3.333196e+06 2.799399e+02 -6.432972e+03
3.250942e+06 1.459699e+02 -1.028124e+03
3.250960e+06 1.887804e+02 -6.095213e+02
3.250248e+06 8.457736e+01 6.014458e+02
3.332017e+06 1.753267e+02 -6.256980e+03
3.335410e+06 4.321616e+02 -6.396501e+03
3.250594e+06 1.056134e+02 -1.044619e+03
3.250606e+06 1.364147e+02 -6.196607e+02
3.249887e+06 3.191188e+01 6.048642e+02
3.334171e+06 3.009307e+02 -6.230603e+03
3.337610e+06 5.843736e+02 -6.342124e+03
3.250241e+06 6.526937e+01 -1.055746e+03
3.250248e+06 8.407470e+01 -6.265002e+02
3.249525e+06 -2.073965e+01 6.051111e+02
3.336314e+06 4.264718e+02 -6.187024e+03
3.339793e+06 7.367076e+02 6.269026e+03
3.249884e+06 2.493288e+01 -1.061511e+03
3.249887e+06 3.175168e+01 -6.300451e+02
3.249164e+06 -7.337367e+01 6.021929e+02
3.338440e+06 5.519644e+02 -6.126192e+03
3.341946e+06 8.888293e+02 -6.179471e+03
3.340544e+06 6.774168e+02 -6.048056e+03
3.344070e+06 1.041074e+03 -6.071109e+03
3.248104e+06 -2.309980e+02 5.745513e+02
3.249165e+06 -7.285268e+01 -6.272734e+02
3.342619e+06 8.028282e+02 -5.952569e+03
3.346157e+06 1.193296e+03 -5.944686e+03
3.248468e+06 -1.363118e+02 -1.031078e+03
3.248660e+06 -1.382188e+02 -6.055290e+02
3.247764e+06 -2.833103e+02 5.591019e+02
3.344660e+06 9.281828e+02 -5.839688e+03
3.348199e+06 1.345425e+03 -5.800196e+03
3.248125e+06 -1.765387e+02 -1.010146e+03
3.248105e+06 -2.294476e+02 -5.985944e+02
3.247434e+06 -3.353831e+02 5.405867e+02
3.346660e+06 1.053442e+03 -5.709381e+03
3.350192e+06 1.497337e+03 -5.637671e+03
3.247790e+06 -2.166741e+02 -9.839226e+02
3.247765e+06 -2.814200e+02 -5.825607e+02
3.247115e+06 -3.870910e+02 5.190571e+02
3.348612e+06 1.178534e+03 -5.561640e+03
3.352129e+06 1.648830e+03 -5.457192e+03
3.247464e+06 -2.566627e+02 -9.524446e+02
3.247435e+06 -3.331559e+02 -5.633416e+02
3.246810e+06 -4.382624e+02 4.945837e+02
3.350512e+06 1.303339e+03 -5.396488e+03
3.354003e+06 1.799591e+03 -5.258921e+03
3.247150e+06 -2.964256e+02 -9.157683e+02
3.247116e+06 -3.845307e+02 -5.409881e+02
3.246519e+06 -4.886699e+02 4.672623e+02
3.352353e+06 1.427666e+03 -5.214001e+03
3.354007e+06 1.799710e+03 5.258171e+03
3.355809e+06 1.949165e+03 -5.043124e+03
3.246850e+06 -3.358535e+02 -8.739740e+02
3.246811e+06 -4.353750e+02 -5.155713e+02
3.246246e+06 -5.380161e+02 4.372171e+02
3.354128e+06 1.551237e+03 -5.014330e+03
3.355813e+06 1.949270e+03 5.042383e+03
3.357540e+06 2.096893e+03 -4.810211e+03
3.246564e+06 -3.747993e+02 -8.271728e+02
3.246521e+06 -4.854632e+02 -4.871863e+02
3.245990e+06 -5.859274e+02 4.046060e+02
3.355832e+06 1.673640e+03 -4.797729e+03
3.359191e+06 2.241859e+03 -4.560790e+03
3.246295e+06 -4.130663e+02 -7.755172e+02
3.246247e+06 -5.345014e+02 -4.559594e+02
3.245755e+06 -6.319454e+02 3.696201e+02
3.357459e+06 1.794301e+03 -4.564593e+03
3.246043e+06 -4.503993e+02 -7.192064e+02
3.245992e+06 -5.821189e+02 -4.220498e+02
3.245541e+06 -6.755307e+02 3.324796e+02
3.359003e+06 1.912423e+03 -4.315509e+03
3.245812e+06 -4.864697e+02 -6.584943e+02
3.245350e+06 -7.160797e+02 2.934193e+02
3.360459e+06 2.026928e+03 -4.051304e+03
3.361821e+06 2.136389e+03 -3.773094e+03
3.364859e+06 2.762686e+03 3.419503e+03
3.244924e+06 -8.135655e+02 1.666741e+02
3.363084e+06 2.238944e+03 -3.482328e+03
3.366007e+06 2.866102e+03 -3.107577e+03
3.245110e+06 -6.085137e+02 -3.783393e+02
3.245267e+06 -7.017107e+02 -2.419909e+02
3.244835e+06 -8.365973e+02 1.215636e+02
3.364245e+06 2.332214e+03 -3.180796e+03
3.367043e+06 2.952078e+03 -2.788809e+03
3.244996e+06 -6.304995e+02 -3.007451e+02
3.244926e+06 -8.084293e+02 -1.742035e+02
3.244773e+06 -8.547309e+02 7.504958e+01
3.365300e+06 2.413253e+03 -2.870577e+03
3.367960e+06 3.016736e+03 -2.466082e+03
3.244908e+06 -6.481145e+02 -2.206940e+02
3.244837e+06 -8.313101e+02 -1.271752e+02
3.244739e+06 -8.682421e+02 2.716650e+01
3.366246e+06 2.478565e+03 -2.553896e+03
3.368754e+06 3.056544e+03 -2.141218e+03
3.244848e+06 -6.613949e+02 -1.383955e+02
3.244775e+06 -8.493111e+02 -7.869853e+01
3.244734e+06 -8.776089e+02 -2.197539e+01
3.367081e+06 2.524352e+03 -2.232872e+03
3.369426e+06 3.069196e+03 -1.815139e+03
3.244816e+06 -6.707503e+02 -5.409653e+01
3.244741e+06 -8.627102e+02 -2.881900e+01
3.244759e+06 -8.834268e+02 -7.219076e+01
3.367804e+06 2.547256e+03 -1.909266e+03
3.369974e+06 3.054234e+03 -1.488175e+03
3.244813e+06 -6.767951e+02 3.188594e+01
3.244736e+06 -8.719867e+02 2.234142e+01
3.244813e+06 -8.863212e+02 -1.232531e+02
3.368413e+06 2.545539e+03 -1.584447e+03
3.370399e+06 3.013168e+03 -1.160895e+03
3.244838e+06 -6.801725e+02 1.191845e+02
3.244898e+06 -8.868861e+02 -1.749303e+02
3.368910e+06 2.519873e+03 -1.259686e+03
3.370404e+06 3.013086e+03 1.161030e+03
3.370701e+06 2.949069e+03 -8.347250e+02
3.244893e+06 -6.814630e+02 2.074246e+02
3.245013e+06 -8.856468e+02 -2.270081e+02
3.369293e+06 2.473018e+03 -9.365509e+02
3.370706e+06 2.949003e+03 8.349489e+02
3.370883e+06 2.865774e+03 -5.118734e+02
3.244978e+06 -6.811546e+02 2.962615e+02
3.244900e+06 -8.811295e+02 1.813851e+02
3.245157e+06 -8.830457e+02 -2.793026e+02
3.369564e+06 2.408709e+03 -6.170313e+02
3.370948e+06 2.767139e+03 -1.948380e+02
3.245093e+06 -6.796442e+02 3.853988e+02
3.245015e+06 -8.798823e+02 2.354803e+02
3.245332e+06 -8.794426e+02 -3.316645e+02
3.369725e+06 2.330637e+03 -3.033535e+02
3.370900e+06 2.656642e+03 1.139791e+02
3.369777e+06 2.242020e+03 2.291440e+00
3.370745e+06 2.537221e+03 4.124794e+02
3.246036e+06 -8.651396e+02 -4.881248e+02
3.245335e+06 -8.736957e+02 3.441312e+02
3.369725e+06 2.145499e+03 2.979458e+02
3.370492e+06 2.411329e+03 -6.984162e+02
3.245851e+06 -6.668698e+02 7.409040e+02
3.245831e+06 -7.932051e+02 4.067114e+02
3.246331e+06 -8.597626e+02 -5.398504e+02
3.369572e+06 2.043174e+03 5.819767e+02
3.370135e+06 2.280613e+03 9.720163e+02
3.246115e+06 -6.628301e+02 8.288989e+02
3.246039e+06 -8.594845e+02 5.064769e+02
3.246654e+06 -8.542533e+02 -5.912981e+02
3.369322e+06 1.936668e+03 8.530913e+02
3.369690e+06 2.146717e+03 1.230688e+03
3.246409e+06 -6.586490e+02 9.164078e+02
3.246333e+06 -8.541412e+02 5.601341e+02
3.247007e+06 -8.486715e+02 -6.424477e+02
3.368980e+06 1.827217e+03 1.110308e+03
3.369161e+06 2.010628e+03 1.474213e+03
3.246732e+06 -6.543798e+02 1.003400e+03
3.246656e+06 -8.486672e+02 6.134984e+02
3.247388e+06 -8.430578e+02 -6.932879e+02
3.368551e+06 1.715743e+03 1.352909e+03
3.368551e+06 1.873116e+03 1.702070e+03
3.247084e+06 -6.500597e+02 1.089860e+03
3.247009e+06 -8.431211e+02 6.665508e+02
3.247799e+06 -8.374390e+02 -7.438122e+02
3.368041e+06 1.602918e+03 1.580389e+03
3.367868e+06 1.734725e+03 1.913901e+03
3.247465e+06 -6.457140e+02 1.175778e+03
3.247391e+06 -8.375430e+02 7.192803e+02
3.248238e+06 -8.318318e+02 -7.940186e+02
3.367454e+06 1.489226e+03 1.792404e+03
3.367117e+06 1.595830e+03 2.109475e+03
3.247875e+06 -6.413595e+02 1.261152e+03
3.247801e+06 -8.319596e+02 7.716811e+02
3.248706e+06 -8.262464e+02 -8.439077e+02
3.366795e+06 1.375004e+03 1.988733e+03
3.366303e+06 1.456680e+03 2.288649e+03
3.248314e+06 -6.370063e+02 1.345986e+03
3.248240e+06 -8.263870e+02 8.237512e+02
3.249202e+06 -8.206886e+02 -8.934820e+02
3.366072e+06 1.260479e+03 2.169240e+03
3.365432e+06 1.317431e+03 2.451345e+03
3.248781e+06 -6.326612e+02 1.430281e+03
3.248708e+06 -8.208354e+02 8.754917e+02
3.249726e+06 -8.151607e+02 -9.427443e+02
3.365288e+06 1.145802e+03 2.333854e+03
3.365435e+06 1.317581e+03 -2.450741e+03
3.364509e+06 1.178175e+03 2.597526e+03
3.249277e+06 -6.283279e+02 1.514046e+03
3.249204e+06 -8.153103e+02 9.269047e+02
3.250278e+06 -8.096662e+02 -9.916986e+02
3.364451e+06 1.031063e+03 2.482544e+03
3.364512e+06 1.178321e+03 -2.596921e+03
3.363541e+06 1.038959e+03 2.727183e+03
3.363564e+06 9.163144e+02 2.615305e+03
3.362532e+06 8.998020e+02 2.840325e+03
3.252102e+06 -7.933789e+02 -1.136759e+03
3.250731e+06 -7.332201e+02 1.005293e+03
3.362634e+06 8.015811e+02 2.732147e+03
3.361489e+06 7.607024e+02 2.936969e+03
3.251539e+06 -6.111392e+02 1.843928e+03
3.251469e+06 -7.935152e+02 1.129367e+03
3.252765e+06 -7.880127e+02 -1.184524e+03
3.361667e+06 6.868700e+02 2.833093e+03
3.252174e+06 -6.068804e+02 1.925141e+03
3.252104e+06 -7.881609e+02 1.179208e+03
3.253455e+06 -7.826706e+02 -1.232001e+03
3.360667e+06 5.721761e+02 2.918168e+03
3.252836e+06 -6.026352e+02 2.005866e+03
3.252767e+06 -7.828253e+02 1.228745e+03
3.254172e+06 -7.773443e+02 -1.279190e+03
3.359641e+06 4.574876e+02 2.987398e+03
3.253526e+06 -5.983999e+02 2.086107e+03
3.253457e+06 -7.775130e+02 1.277983e+03
3.254916e+06 -7.720200e+02 -1.326089e+03
3.358594e+06 3.427890e+02 3.040806e+03
3.357081e+06 2.046369e+02 -3.158424e+03
3.254242e+06 -5.941700e+02 2.165870e+03
3.254174e+06 -7.722162e+02 1.326922e+03
3.255687e+06 -7.666727e+02 -1.372693e+03
3.357532e+06 2.280642e+02 3.078415e+03
3.355944e+06 6.541716e+01 3.173522e+03
3.254986e+06 -5.899365e+02 2.245157e+03
3.254918e+06 -7.669206e+02 1.375562e+03
3.256485e+06 -7.612658e+02 -1.418991e+03
3.356460e+06 1.132977e+02 3.100242e+03
3.354808e+06 -7.374953e+01 3.171641e+03
3.255756e+06 -5.856840e+02 2.323967e+03
3.255689e+06 -7.616017e+02 1.423898e+03
3.257309e+06 -7.557435e+02 -1.464966e+03
3.355383e+06 -1.523512e+00 3.106304e+03
3.353676e+06 -2.129901e+02 3.153401e+03
3.256554e+06 -5.813905e+02 2.402292e+03
3.256487e+06 -7.562238e+02 1.471920e+03
3.258159e+06 -7.500250e+02 -1.510589e+03
3.354307e+06 -1.164078e+02 3.096615e+03
3.352553e+06 -3.523025e+02 3.118822e+03
3.257377e+06 -5.770212e+02 2.480118e+03
3.259036e+06 -7.439946e+02 -1.555815e+03
3.353238e+06 -2.313555e+02 3.071186e+03
3.351444e+06 -4.916669e+02 3.067926e+03
3.258227e+06 -5.725268e+02 2.557416e+03
3.259939e+06 -7.374979e+02 -1.600582e+03
3.352180e+06 -3.463560e+02 3.030030e+03
3.351446e+06 -4.915718e+02 -3.067316e+03
3.350355e+06 -6.310408e+02 3.000750e+03
3.351140e+06 -4.613826e+02 2.973169e+03
3.350357e+06 -6.309461e+02 -3.000138e+03
3.349292e+06 -7.703420e+02 2.917348e+03
3.262802e+06 -7.127243e+02 -1.731121e+03
3.259038e+06 -7.390433e+02 1.613860e+03
3.350122e+06 -5.763845e+02 2.900633e+03
3.348259e+06 -9.094334e+02 2.817808e+03
3.261887e+06 -5.514022e+02 2.860055e+03
3.261494e+06 -6.595815e+02 1.649151e+03
3.263807e+06 -7.015024e+02 -1.772876e+03
3.349133e+06 -6.912777e+02 2.812468e+03
3.347263e+06 -1.048107e+03 2.702261e+03
3.262866e+06 -5.445227e+02 2.933471e+03
3.262804e+06 -7.079880e+02 1.795887e+03
3.264837e+06 -6.879739e+02 -1.813411e+03
3.348177e+06 -8.059295e+02 2.708755e+03
3.346308e+06 -1.186054e+03 2.570909e+03
3.263870e+06 -5.364813e+02 3.005584e+03
3.263809e+06 -6.968534e+02 1.839295e+03
3.265891e+06 -6.715198e+02 -1.852478e+03
3.347261e+06 -9.201449e+02 2.589618e+03
3.345401e+06 -1.322833e+03 2.424045e+03
3.264898e+06 -5.268813e+02 3.076091e+03
3.264839e+06 -6.834326e+02 1.881466e+03
3.266968e+06 -6.514690e+02 -1.889823e+03
3.346388e+06 -1.033642e+03 2.455247e+03
3.344547e+06 -1.457687e+03 -2.261513e+03
3.265950e+06 -5.152290e+02 3.144632e+03
3.265893e+06 -6.671093e+02 1.922145e+03
3.268068e+06 -6.271590e+02 -1.925228e+03
3.345564e+06 -1.146026e+03 2.305920e+03
3.343748e+06 -1.590191e+03 2.085613e+03
3.267025e+06 -5.009269e+02 3.210806e+03
3.266970e+06 -6.472143e+02 1.961070e+03
3.269190e+06 -5.980257e+02 -1.958545e+03
3.344795e+06 -1.256751e+03 2.142038e+03
3.343014e+06 -1.718814e+03 1.895412e+03
3.268122e+06 -4.832943e+02 3.274205e+03
3.268070e+06 -6.230842e+02 1.998011e+03
3.270332e+06 -5.636998e+02 -1.989713e+03
3.344085e+06 -1.365084e+03 1.964160e+03
3.342349e+06 -1.842241e+03 1.692511e+03
3.269241e+06 -4.616414e+02 3.334461e+03
3.269192e+06 -5.941535e+02 2.032806e+03
3.271494e+06 -5.240764e+02 -2.018724e+03
3.343439e+06 -1.470050e+03 1.773037e+03
3.341757e+06 -1.958641e+03 1.478212e+03
3.270379e+06 -4.354409e+02 3.391282e+03
3.270334e+06 -5.600494e+02 2.065383e+03
3.272673e+06 -4.793313e+02 -2.045563e+03
3.342861e+06 -1.570381e+03 1.569651e+03
3.341244e+06 -2.065766e+03 1.254085e+03
3.271537e+06 -4.045301e+02 3.444429e+03
3.271495e+06 -5.206658e+02 2.095720e+03
3.273869e+06 -4.298960e+02 -2.070143e+03
3.342356e+06 -1.664457e+03 1.355227e+03
3.340814e+06 -2.160985e+03 1.021902e+03
3.341926e+06 -1.750252e+03 1.131222e+03
3.340471e+06 -2.241411e+03 7.834803e+02
3.277543e+06 -2.597049e+02 -2.128343e+03
3.273871e+06 -4.270097e+02 2.149496e+03
3.341575e+06 -1.825323e+03 8.992426e+02
3.340472e+06 -2.241139e+03 -7.832335e+02
3.340218e+06 -2.304223e+03 5.403765e+02
3.276332e+06 -2.428587e+02 3.614344e+03
3.278790e+06 -1.978422e+02 -2.141733e+03
3.276306e+06 -3.194152e+02 -2.111781e+03
3.341305e+06 -1.886908e+03 6.609014e+02
3.340218e+06 -2.303940e+03 -5.402017e+02
3.340057e+06 -2.347229e+03 2.935468e+02
3.277564e+06 -1.961508e+02 3.644232e+03
3.280044e+06 -1.343385e+02 -2.151730e+03
3.341119e+06 -1.932273e+03 4.176119e+02
3.339988e+06 -2.369436e+03 4.333588e+01
3.278806e+06 -1.480108e+02 3.668323e+03
3.278790e+06 -1.963710e+02 2.224296e+03
3.281305e+06 -6.962111e+01 -2.158153e+03
3.341018e+06 -1.959490e+03 1.704753e+02
3.340014e+06 -2.371313e+03 -2.100297e+02
3.280055e+06 -9.881463e+01 3.686319e+03
3.280045e+06 -1.332657e+02 2.234734e+03
3.282568e+06 -4.028783e+00 -2.160853e+03
3.341003e+06 -1.968229e+03 -7.960235e+01
3.340135e+06 -2.354670e+03 -4.658454e+02
3.281309e+06 -4.885611e+01 3.697984e+03
3.281305e+06 -6.895873e+01 2.241444e+03
3.283833e+06 6.217786e+01 -2.159717e+03
3.341074e+06 -1.959903e+03 -3.316185e+02
3.282567e+06 1.640457e+00 3.703135e+03
3.282569e+06 -3.785591e+00 2.244279e+03
3.285097e+06 1.288010e+02 -2.154659e+03
3.341233e+06 -1.937057e+03 -5.842720e+02
3.283826e+06 5.250508e+01 3.701633e+03
3.283834e+06 6.199445e+01 2.243123e+03
3.286357e+06 1.956970e+02 -2.145616e+03
3.341479e+06 -1.902499e+03 -8.360060e+02
3.285084e+06 1.036129e+02 3.693378e+03
3.285097e+06 1.281865e+02 2.237891e+03
3.287612e+06 2.627622e+02 -2.132541e+03
3.341811e+06 -1.858807e+03 -1.085197e+03
3.341545e+06 -2.157456e+03 1.481992e+03
3.286338e+06 1.548729e+02 3.678297e+03
3.286357e+06 1.946482e+02 2.228519e+03
3.288858e+06 3.299259e+02 -2.115402e+03
3.342229e+06 -1.808154e+03 -1.330329e+03
3.342117e+06 -2.088349e+03 -1.726425e+03
3.287586e+06 2.062211e+02 3.656338e+03
3.287612e+06 2.612773e+02 2.214960e+03
3.290094e+06 3.971428e+02 -2.094174e+03
3.342731e+06 -1.752300e+03 -1.570100e+03
3.342773e+06 -2.014819e+03 -1.963893e+03
3.288827e+06 2.576137e+02 3.627466e+03
3.291316e+06 4.643799e+02 -2.068842e+03
3.343314e+06 -1.692630e+03 -1.803450e+03
3.343508e+06 -1.938271e+03 -2.193872e+03
3.343977e+06 -1.630218e+03 -2.029560e+03
3.344320e+06 -1.859640e+03 -2.415726e+03
3.294883e+06 6.661205e+02 -1.968107e+03
3.344717e+06 -1.565874e+03 -2.247818e+03
3.345204e+06 -1.779616e+03 -2.628995e+03
3.293658e+06 4.632096e+02 3.442423e+03
3.293008e+06 5.148806e+02 2.026190e+03
3.296030e+06 7.333741e+02 -1.926255e+03
3.345531e+06 -1.500207e+03 -2.457783e+03
3.345206e+06 -1.779523e+03 2.628565e+03
3.346159e+06 -1.698700e+03 -2.833361e+03
3.294822e+06 5.145794e+02 3.378710e+03
3.294882e+06 6.620025e+02 2.044409e+03
3.297152e+06 8.006459e+02 -1.880255e+03
3.346417e+06 -1.433661e+03 -2.659153e+03
3.346160e+06 -1.698611e+03 2.832925e+03
3.347181e+06 -1.617245e+03 -3.028606e+03
3.295963e+06 5.659417e+02 3.307992e+03
3.296029e+06 7.288130e+02 2.000999e+03
3.298247e+06 8.679442e+02 -1.830098e+03
3.347371e+06 -1.366555e+03 -2.851720e+03
3.348267e+06 -1.535496e+03 -3.214590e+03
3.297079e+06 6.173015e+02 3.230260e+03
3.297151e+06 7.956414e+02 1.953289e+03
3.299312e+06 9.352805e+02 -1.775778e+03
3.348390e+06 -1.299115e+03 -3.035352e+03
3.349413e+06 -1.453614e+03 -3.391228e+03
3.298167e+06 6.686663e+02 3.145502e+03
3.298246e+06 8.624972e+02 1.901270e+03
3.300345e+06 1.002664e+03 -1.717287e+03
3.349472e+06 -1.231494e+03 -3.209974e+03
3.350617e+06 -1.371701e+03 -3.558468e+03
3.299226e+06 7.200441e+02 3.053706e+03
3.299311e+06 9.293901e+02 1.844933e+03
3.301343e+06 1.070103e+03 -1.654619e+03
3.350613e+06 -1.163795e+03 -3.375540e+03
3.351876e+06 -1.289819e+03 -3.716285e+03
3.300253e+06 7.714420e+02 2.954859e+03
3.300343e+06 9.963301e+02 1.784272e+03
3.302304e+06 1.137597e+03 -1.587767e+03
3.351810e+06 -1.096083e+03 -3.532030e+03
3.353186e+06 -1.208000e+03 -3.864666e+03
3.301245e+06 8.228655e+02 2.848945e+03
3.301341e+06 1.063324e+03 1.719279e+03
3.303225e+06 1.205137e+03 -1.516731e+03
3.353061e+06 -1.028397e+03 -3.679434e+03
3.354547e+06 -1.126174e+03 4.003169e+03
3.302200e+06 8.743165e+02 2.735952e+03
3.302302e+06 1.130373e+03 1.649948e+03
3.304104e+06 1.272698e+03 -1.441514e+03
3.354361e+06 -9.607591e+02 -3.817755e+03
3.355949e+06 -1.044595e+03 -4.133110e+03
3.303115e+06 9.257902e+02 2.615869e+03
3.303223e+06 1.197466e+03 1.576277e+03
3.304939e+06 1.340227e+03 -1.362128e+03
3.355709e+06 -8.931779e+02 -3.946993e+03
3.357396e+06 -9.630056e+02 -4.253173e+03
3.357100e+06 -8.256557e+02 -4.067151e+03
3.358881e+06 -8.814809e+02 -4.363796e+03
3.307151e+06 1.541492e+03 -1.099339e+03
3.304937e+06 1.331672e+03 1.415935e+03
3.358532e+06 -7.581907e+02 -4.178231e+03
3.360403e+06 -8.000090e+02 -4.464974e+03
3.306331e+06 1.131358e+03 2.064655e+03
3.305807e+06 1.310038e+03 1.247774e+03
3.307784e+06 1.607421e+03 -1.003796e+03
3.360002e+06 -6.907772e+02 -4.280231e+03
3.361958e+06 -7.185800e+02 -4.556704e+03
3.307011e+06 1.182313e+03 1.909287e+03
3.307149e+06 1.531597e+03 1.143333e+03
3.308359e+06 1.672159e+03 -9.045208e+02
3.361507e+06 -6.234102e+02 -4.373145e+03
3.363542e+06 -6.371848e+02 -4.638975e+03
3.307638e+06 1.232803e+03 1.747061e+03
3.308875e+06 1.735117e+03 -8.017532e+02
3.363042e+06 -5.560841e+02 -4.456967e+03
3.363544e+06 -6.370788e+02 4.638541e+03
3.365154e+06 -5.558116e+02 -4.711779e+03
3.308207e+06 1.282564e+03 1.578162e+03
3.309330e+06 1.795503e+03 -6.958217e+02
3.364607e+06 -4.887932e+02 -4.531687e+03
3.365156e+06 -5.557013e+02 4.711343e+03
3.366789e+06 -4.744555e+02 -4.775101e+03
3.308718e+06 1.331225e+03 1.402859e+03
3.308872e+06 1.723965e+03 8.344629e+02
3.309722e+06 1.852285e+03 -5.871608e+02
3.366196e+06 -4.215339e+02 -4.597291e+03
3.368444e+06 -3.931186e+02 -4.828929e+03
3.309168e+06 1.378284e+03 1.221535e+03
3.309327e+06 1.783978e+03 7.244419e+02
3.310048e+06 1.904149e+03 -4.763260e+02
3.367807e+06 -3.543059e+02 -4.653762e+03
3.370117e+06 -3.118061e+02 -4.873252e+03
3.309555e+06 1.423064e+03 1.034721e+03
3.309719e+06 1.840423e+03 6.115313e+02
3.310307e+06 1.949475e+03 -3.639966e+02
3.369438e+06 -2.871133e+02 -4.701089e+03
3.371804e+06 -2.305313e+02 -4.908063e+03
3.309878e+06 1.464674e+03 8.431194e+02
3.310045e+06 1.891998e+03 4.962932e+02
3.310497e+06 1.986348e+03 -2.509588e+02
3.371084e+06 -2.199653e+02 -4.739257e+03
3.310134e+06 1.501961e+03 6.476327e+02
3.310304e+06 1.937097e+03 3.794190e+02
3.310618e+06 2.012619e+03 -1.380533e+02
3.372743e+06 -1.528782e+02 -4.768257e+03
3.310322e+06 1.533463e+03 4.493644e+02
3.310494e+06 1.973815e+03 2.617132e+02
3.310670e+06 2.026061e+03 -2.607782e+01
3.374411e+06 -8.588129e+01 -4.788084e+03
3.376085e+06 -1.901954e+01 -4.798746e+03
3.378634e+06 9.341006e+01 4.951928e+03
3.310410e+06 1.971655e+03 2.994901e+02
3.310616e+06 2.000011e+03 1.440439e+02
3.377762e+06 4.763985e+01 -4.800267e+03
3.380341e+06 1.734536e+02 -4.939900e+03
3.310393e+06 1.561768e+03 -3.456452e+02
3.310562e+06 1.994385e+03 -2.014233e+02
3.310190e+06 1.919550e+03 4.041092e+02
3.379439e+06 1.140003e+02 -4.792693e+03
3.382046e+06 2.529537e+02 -4.918231e+03
3.310242e+06 1.534523e+03 -5.390983e+02
3.310408e+06 1.959526e+03 -3.127922e+02
3.309903e+06 1.851494e+03 5.066014e+02
3.381113e+06 1.799256e+02 -4.776106e+03
3.383743e+06 3.314984e+02 -4.887533e+03
3.310024e+06 1.492266e+03 -7.287088e+02
3.310187e+06 1.907703e+03 -4.220878e+02
3.309554e+06 1.769263e+03 6.065282e+02
3.382780e+06 2.452285e+02 -4.750628e+03
3.385428e+06 4.086990e+02 -4.848064e+03
3.309743e+06 1.436574e+03 -9.135543e+02
3.309901e+06 1.840005e+03 -5.291130e+02
3.309143e+06 1.675009e+03 7.031927e+02
3.384438e+06 3.096548e+02 -4.716438e+03
3.387097e+06 4.840530e+02 -4.800166e+03
3.309399e+06 1.369688e+03 -1.092461e+03
3.309551e+06 1.758211e+03 -6.333886e+02
3.308674e+06 1.570957e+03 7.957708e+02
3.386083e+06 3.728676e+02 -4.673783e+03
3.387101e+06 4.841598e+02 4.799781e+03
3.388749e+06 5.569347e+02 -4.744270e+03
3.308995e+06 1.293884e+03 -1.264093e+03
3.309141e+06 1.664478e+03 -7.341800e+02
3.308149e+06 1.459180e+03 8.834371e+02
3.387712e+06 4.344289e+02 -4.622990e+03
3.388752e+06 5.570369e+02 4.743900e+03
3.390380e+06 6.265844e+02 -4.680888e+03
3.308534e+06 1.211176e+03 -1.427116e+03
3.308671e+06 1.561025e+03 -8.306326e+02
3.307574e+06 1.341487e+03 9.654457e+02
3.389323e+06 4.937796e+02 -4.564462e+03
3.391986e+06 6.921291e+02 -4.610581e+03
3.308019e+06 1.123239e+03 -1.580318e+03
3.308147e+06 1.449914e+03 -9.218977e+02
3.306951e+06 1.219385e+03 1.041167e+03
3.390913e+06 5.502252e+02 -4.498669e+03
3.393565e+06 7.526582e+02 -4.533884e+03
3.307453e+06 1.031414e+03 -1.722679e+03
3.307572e+06 1.332945e+03 -1.007214e+03
3.306285e+06 1.094079e+03 1.110098e+03
3.392480e+06 6.029435e+02 -4.426116e+03
3.395115e+06 8.073654e+02 -4.451191e+03
3.306841e+06 9.367482e+02 -1.853381e+03
3.306949e+06 1.211609e+03 -1.085942e+03
3.305581e+06 9.665065e+02 1.171849e+03
3.394021e+06 6.510496e+02 -4.347277e+03
3.396634e+06 8.557440e+02 -4.362689e+03
3.306186e+06 8.400479e+02 -1.971797e+03
3.306284e+06 1.087101e+03 -1.157572e+03
3.304843e+06 8.373800e+02 1.226132e+03
3.395533e+06 6.937814e+02 -4.262540e+03
3.398119e+06 8.977293e+02 -4.268438e+03
3.397016e+06 7.307779e+02 -4.172205e+03
3.399572e+06 9.338188e+02 4.168354e+03
3.302472e+06 4.452016e+02 1.342417e+03
3.304842e+06 8.320513e+02 -1.278080e+03
3.398466e+06 7.622472e+02 -4.076560e+03
3.400981e+06 9.644407e+02 -4.063443e+03
3.303231e+06 4.428655e+02 -2.315218e+03
3.303551e+06 5.834277e+02 -1.330131e+03
3.301644e+06 3.137814e+02 1.365328e+03
3.399883e+06 7.888688e+02 -3.975968e+03
3.402356e+06 9.908108e+02 -3.953559e+03
3.302431e+06 3.424230e+02 -2.367548e+03
3.302472e+06 4.424422e+02 -1.398775e+03
3.300806e+06 1.822583e+02 1.380234e+03
3.401264e+06 8.115222e+02 -3.870892e+03
3.403690e+06 1.013718e+03 -3.839499e+03
3.301615e+06 2.418263e+02 -2.406302e+03
3.301645e+06 3.118786e+02 -1.422546e+03
3.299962e+06 5.070146e+01 1.387116e+03
3.402608e+06 8.310612e+02 -3.761842e+03
3.404985e+06 1.033961e+03 -3.721808e+03
3.300789e+06 1.411447e+02 -2.431460e+03
3.299116e+06 -8.085365e+01 1.385970e+03
3.403913e+06 8.482237e+02 -3.649317e+03
3.406238e+06 1.052209e+03 -3.600959e+03
3.299957e+06 4.042002e+01 -2.443021e+03
3.298274e+06 -2.123937e+02 1.376795e+03
3.405178e+06 8.636123e+02 -3.533760e+03
3.407449e+06 1.069003e+03 -3.477337e+03
3.299124e+06 -6.032593e+01 -2.440993e+03
3.299118e+06 -8.018831e+01 -1.443965e+03
3.297440e+06 -3.439209e+02 1.359594e+03
3.406403e+06 8.777032e+02 -3.415533e+03
3.408618e+06 1.084764e+03 -3.351241e+03
3.298293e+06 -1.610851e+02 -2.425390e+03
3.298275e+06 -2.108754e+02 -1.434452e+03
3.296618e+06 -4.754468e+02 1.334372e+03
3.407586e+06 8.908651e+02 -3.294926e+03
3.408621e+06 1.084929e+03 3.351116e+03
3.409743e+06 1.099815e+03 -3.222898e+03
3.297471e+06 -2.618576e+02 -2.396225e+03
3.297441e+06 -3.415505e+02 -1.416615e+03
3.295813e+06 -6.069885e+02 1.301134e+03
3.408727e+06 9.033781e+02 -3.172155e+03
3.409747e+06 1.099985e+03 3.222775e+03
3.410825e+06 1.114393e+03 -3.092468e+03
3.296661e+06 -3.626494e+02 -2.353513e+03
3.296620e+06 -4.722252e+02 -1.390461e+03
3.295030e+06 -7.385669e+02 1.259881e+03
3.409825e+06 9.154510e+02 -3.047378e+03
3.411862e+06 1.128669e+03 -2.960069e+03
3.295868e+06 -4.634691e+02 -2.297264e+03
3.295815e+06 -6.029169e+02 -1.355993e+03
3.294273e+06 -8.701988e+02 1.210617e+03
3.410878e+06 9.272357e+02 -2.920704e+03
3.412854e+06 1.142765e+03 -2.825778e+03
3.411887e+06 9.388408e+02 -2.792210e+03
3.292206e+06 -1.265532e+03 1.014770e+03
3.295032e+06 -7.336441e+02 -1.313216e+03
3.412850e+06 9.503430e+02 -2.661946e+03
3.292960e+06 -8.672026e+02 -1.937001e+03
3.291600e+06 -1.397424e+03 9.334826e+02
3.292856e+06 -1.133681e+03 1.088059e+03
3.413767e+06 9.617948e+02 -2.529942e+03
3.292322e+06 -9.682616e+02 -1.813115e+03
3.292210e+06 -1.257205e+03 -1.059037e+03
3.291044e+06 -1.529298e+03 8.442160e+02
3.414638e+06 9.732303e+02 -2.396217e+03
3.416363e+06 1.198845e+03 2.270378e+03
3.291728e+06 -1.069347e+03 -1.675695e+03
3.291604e+06 -1.388242e+03 -9.747367e+02
3.290541e+06 -1.661046e+03 7.470035e+02
3.415461e+06 9.846718e+02 -2.260780e+03
3.417116e+06 1.212656e+03 -2.127226e+03
3.291184e+06 -1.170414e+03 -1.524746e+03
3.291048e+06 -1.519260e+03 -8.821564e+02
3.290097e+06 -1.792494e+03 6.419022e+02
3.416236e+06 9.961332e+02 -2.123636e+03
3.417824e+06 1.226694e+03 -1.982192e+03
3.290693e+06 -1.271394e+03 -1.360290e+03
3.290545e+06 -1.650154e+03 -7.813277e+02
3.289715e+06 -1.923375e+03 5.290050e+02
3.416962e+06 1.007622e+03 -1.984787e+03
3.418482e+06 1.240769e+03 -1.835391e+03
3.290261e+06 -1.372174e+03 -1.182368e+03
3.290101e+06 -1.780749e+03 -6.723058e+02
3.289401e+06 -2.053299e+03 4.084545e+02
3.417640e+06 1.019142e+03 -1.844233e+03
3.419091e+06 1.254883e+03 -1.686822e+03
3.289891e+06 -1.472584e+03 -9.910606e+02
3.289720e+06 -1.910782e+03 -5.551809e+02
3.289159e+06 -2.181708e+03 2.804610e+02
3.418267e+06 1.030695e+03 -1.701973e+03
3.419648e+06 1.269036e+03 -1.536485e+03
3.289589e+06 -1.572377e+03 -7.865040e+02
3.289406e+06 -2.039866e+03 -4.300934e+02
3.288994e+06 -2.307835e+03 1.453258e+02
3.418844e+06 1.042283e+03 -1.558007e+03
3.420154e+06 1.283227e+03 -1.384379e+03
3.289359e+06 -1.671200e+03 -5.689132e+02
3.289165e+06 -2.167451e+03 -2.972517e+02
3.288910e+06 -2.430637e+03 3.465511e+00
3.419369e+06 1.053906e+03 -1.412333e+03
3.420158e+06 1.283426e+03 1.384263e+03
3.420608e+06 1.297458e+03 -1.230504e+03
3.289205e+06 -1.768565e+03 -3.386145e+02
3.289000e+06 -2.292773e+03 -1.569561e+02
3.288910e+06 -2.548748e+03 -1.445610e+02
3.419843e+06 1.065564e+03 -1.264952e+03
3.420612e+06 1.297656e+03 1.230387e+03
3.421009e+06 1.311728e+03 -1.074859e+03
3.420264e+06 1.077257e+03 -1.115864e+03
3.421357e+06 1.326036e+03 -9.174451e+02
3.289462e+06 -2.855180e+03 -6.175028e+02
3.288916e+06 -2.532181e+03 1.441794e+02
3.420633e+06 1.088987e+03 -9.650677e+02
3.421650e+06 1.340383e+03 -7.582636e+02
3.289431e+06 -2.126295e+03 6.971271e+02
3.289643e+06 -2.467580e+03 3.309730e+02
3.289839e+06 -2.932635e+03 -7.812438e+02
3.420947e+06 1.100751e+03 -8.125650e+02
3.421890e+06 1.354766e+03 -5.973176e+02
3.289716e+06 -2.200880e+03 9.794865e+02
3.289468e+06 -2.836907e+03 6.362248e+02
3.290318e+06 -2.992537e+03 -9.460587e+02
3.421208e+06 1.112551e+03 -6.583576e+02
3.422074e+06 1.369179e+03 -4.346120e+02
3.290099e+06 -2.265348e+03 1.268171e+03
3.289846e+06 -2.913990e+03 8.068406e+02
3.290898e+06 -3.031704e+03 -1.110921e+03
3.421413e+06 1.124380e+03 -5.024481e+02
3.422202e+06 1.383609e+03 -2.701567e+02
3.290580e+06 -2.316771e+03 1.561257e+03
3.290324e+06 -2.973640e+03 9.787180e+02
3.291581e+06 -3.047465e+03 -1.275169e+03
3.421563e+06 1.136235e+03 -3.448417e+02
3.291162e+06 -2.351831e+03 1.856812e+03
3.290905e+06 -3.012671e+03 1.150777e+03
3.292367e+06 -3.038137e+03 -1.438558e+03
3.421657e+06 1.148100e+03 -1.855472e+02
3.422293e+06 1.412623e+03 -6.404983e+01
3.291845e+06 -2.367213e+03 2.153117e+03
3.293254e+06 -3.003335e+03 -1.601081e+03
3.421694e+06 1.159956e+03 -2.457916e+01
3.422246e+06 1.426719e+03 2.335066e+02
3.292629e+06 -2.360481e+03 2.448823e+03
3.294243e+06 -2.944048e+03 -1.762657e+03
3.421674e+06 1.171770e+03 1.380391e+02
3.422145e+06 1.440841e+03 4.046946e+02
3.293514e+06 -2.331040e+03 2.742831e+03
3.293261e+06 -2.984488e+03 1.662731e+03
3.295332e+06 -2.862447e+03 -1.922858e+03
3.421596e+06 1.183492e+03 3.022713e+02
3.421985e+06 1.454671e+03 5.774143e+02
3.294499e+06 -2.280405e+03 3.033961e+03
3.294249e+06 -2.925453e+03 1.831438e+03
3.296521e+06 -2.761489e+03 -2.080831e+03
3.421459e+06 1.195047e+03 4.680624e+02
3.421765e+06 1.468042e+03 7.515460e+02
3.295583e+06 -2.211541e+03 3.320684e+03
3.295338e+06 -2.844216e+03 1.998601e+03
3.297805e+06 -2.644438e+03 -2.235435e+03
3.421264e+06 1.206332e+03 6.353312e+02
3.421486e+06 1.480724e+03 9.269235e+02
3.296764e+06 -2.127849e+03 3.601142e+03
3.296527e+06 -2.743740e+03 2.163308e+03
3.299183e+06 -2.514480e+03 -2.385442e+03
3.421009e+06 1.217199e+03 8.039620e+02
3.421490e+06 1.480908e+03 -9.270240e+02
3.421146e+06 1.492407e+03 1.103320e+03
3.420694e+06 1.227448e+03 9.737932e+02
3.421151e+06 1.492583e+03 -1.103413e+03
3.420746e+06 1.502684e+03 1.280439e+03
3.303835e+06 -2.073675e+03 -2.796999e+03
3.299189e+06 -2.498018e+03 2.480508e+03
3.420319e+06 1.236809e+03 1.144606e+03
3.420283e+06 1.511039e+03 1.457902e+03
3.302402e+06 -1.701271e+03 4.623017e+03
3.305543e+06 -1.916455e+03 -2.918552e+03
3.302203e+06 -2.226879e+03 -2.667155e+03
3.419883e+06 1.244927e+03 1.316115e+03
3.419759e+06 1.516833e+03 1.635252e+03
3.304021e+06 -1.581747e+03 4.846039e+03
3.307320e+06 -1.756432e+03 -3.031305e+03
3.419387e+06 1.251345e+03 1.487960e+03
3.419172e+06 1.519315e+03 1.811970e+03
3.305714e+06 -1.459700e+03 5.054044e+03
3.305547e+06 -1.903616e+03 3.034586e+03
3.309161e+06 -1.594522e+03 -3.134875e+03
3.418830e+06 1.255486e+03 1.659717e+03
3.307476e+06 -1.335922e+03 5.246426e+03
3.307324e+06 -1.744599e+03 3.151630e+03
3.311061e+06 -1.431394e+03 -3.228985e+03
3.418212e+06 1.256650e+03 1.830913e+03
3.309303e+06 -1.211001e+03 5.422748e+03
3.309165e+06 -1.583716e+03 3.259109e+03
3.313015e+06 -1.267525e+03 -3.313436e+03
3.417534e+06 1.254042e+03 2.001075e+03
3.311188e+06 -1.085363e+03 5.582702e+03
3.311065e+06 -1.421628e+03 3.356747e+03
3.315015e+06 -1.103244e+03 -3.388092e+03
3.416797e+06 1.246882e+03 2.169792e+03
3.416208e+06 1.481145e+03 -2.503552e+03
3.313126e+06 -9.593109e+02 5.726076e+03
3.313018e+06 -1.258806e+03 3.444346e+03
3.317058e+06 -9.387719e+02 -3.452857e+03
3.416000e+06 1.234645e+03 2.336744e+03
3.415310e+06 1.457446e+03 2.671590e+03
3.315112e+06 -8.330527e+02 5.852726e+03
3.315019e+06 -1.095578e+03 3.521771e+03
3.319137e+06 -7.742468e+02 -3.507666e+03
3.415144e+06 1.217282e+03 2.501660e+03
3.414356e+06 1.428827e+03 2.837280e+03
3.317139e+06 -7.067299e+02 5.962554e+03
3.317061e+06 -9.321614e+02 3.588928e+03
3.321246e+06 -6.097498e+02 -3.552473e+03
3.414231e+06 1.195247e+03 2.664238e+03
3.413344e+06 1.395920e+03 3.000241e+03
3.319203e+06 -5.804318e+02 6.055493e+03
3.319139e+06 -7.686921e+02 3.645753e+03
3.323379e+06 -4.453189e+02 -3.587245e+03
3.413261e+06 1.169292e+03 2.824082e+03
3.412276e+06 1.359556e+03 3.159955e+03
3.321296e+06 -4.542132e+02 6.131495e+03
3.321248e+06 -6.052504e+02 3.692202e+03
3.325532e+06 -2.809739e+02 -3.611954e+03
3.412236e+06 1.140219e+03 2.980731e+03
3.411152e+06 1.320502e+03 3.315906e+03
3.411156e+06 1.108745e+03 3.133718e+03
3.411156e+06 1.320667e+03 -3.315779e+03
3.409976e+06 1.279412e+03 3.467631e+03
3.332043e+06 2.116817e+02 -3.625496e+03
3.325533e+06 -2.785545e+02 3.753847e+03
3.410023e+06 1.075466e+03 3.282614e+03
3.409980e+06 1.279582e+03 -3.467492e+03
3.408748e+06 1.236824e+03 3.614749e+03
3.329860e+06 4.954217e+01 6.265410e+03
3.328797e+06 -2.805487e+01 3.655484e+03
3.334211e+06 3.758427e+02 -3.609739e+03
3.408839e+06 1.040856e+03 3.427056e+03
3.407471e+06 1.193161e+03 3.756957e+03
3.332018e+06 1.752171e+02 6.256195e+03
3.332043e+06 2.108755e+02 3.767843e+03
3.336369e+06 5.400228e+02 -3.583807e+03
3.407605e+06 1.005284e+03 3.566756e+03
3.406146e+06 1.148748e+03 3.894032e+03
3.334172e+06 3.008151e+02 6.229821e+03
3.334211e+06 3.739676e+02 3.751485e+03
3.338511e+06 7.042388e+02 -3.547675e+03
3.406324e+06 9.690302e+02 3.701495e+03
3.404776e+06 1.103823e+03 4.025808e+03
3.336315e+06 4.263507e+02 6.186242e+03
3.336369e+06 5.370756e+02 3.724577e+03
3.340630e+06 8.685012e+02 -3.501320e+03
3.404996e+06 9.323050e+02 3.831116e+03
3.403363e+06 1.058564e+03 4.152170e+03
3.338442e+06 5.518371e+02 6.125410e+03
3.338510e+06 7.002184e+02 3.687094e+03
3.342720e+06 1.032805e+03 -3.444723e+03
3.403624e+06 8.952611e+02 3.955505e+03
3.401912e+06 1.013287e+03 -4.272876e+03
3.340546e+06 6.772827e+02 6.047275e+03
3.344775e+06 1.197118e+03 -3.377872e+03
3.402210e+06 8.580081e+02 4.074590e+03
3.400414e+06 9.675020e+02 4.388374e+03
3.342621e+06 8.026865e+02 5.951788e+03
3.346790e+06 1.361372e+03 -3.300768e+03
3.400755e+06 8.206234e+02 4.188324e+03
3.398883e+06 9.218433e+02 4.498140e+03
3.344662e+06 9.280330e+02 5.838906e+03
3.344773e+06 1.189862e+03 3.510962e+03
3.348757e+06 1.525441e+03 -3.213435e+03
3.399262e+06 7.831598e+02 4.296680e+03
3.397316e+06 8.761554e+02 4.602326e+03
3.346661e+06 1.053283e+03 5.708600e+03
3.346788e+06 1.353033e+03 3.430983e+03
3.350672e+06 1.689121e+03 -3.115927e+03
3.397732e+06 7.456511e+02 4.399647e+03
3.395715e+06 8.304604e+02 4.700929e+03
3.348614e+06 1.178365e+03 5.560860e+03
3.348755e+06 1.516019e+03 3.340387e+03
3.352527e+06 1.852088e+03 -3.008344e+03
3.396168e+06 7.081197e+02 4.497223e+03
3.394083e+06 7.847708e+02 4.793952e+03
3.394571e+06 6.705779e+02 4.589412e+03
3.392421e+06 7.390914e+02 4.881402e+03
3.357675e+06 2.330993e+03 -2.627262e+03
3.352524e+06 1.840533e+03 3.127606e+03
3.392944e+06 6.330324e+02 4.676221e+03
3.390732e+06 6.934252e+02 4.963290e+03
3.355834e+06 1.673420e+03 4.796973e+03
3.354757e+06 1.904575e+03 2.862164e+03
3.359232e+06 2.484121e+03 -2.482040e+03
3.391288e+06 5.954859e+02 4.757661e+03
3.389016e+06 6.477722e+02 5.039627e+03
3.357461e+06 1.794064e+03 4.563859e+03
3.357672e+06 2.316276e+03 2.732011e+03
3.360700e+06 2.631556e+03 -2.328724e+03
3.389605e+06 5.579393e+02 4.833744e+03
3.389020e+06 6.479563e+02 -5.039460e+03
3.387277e+06 6.021267e+02 5.110426e+03
3.359006e+06 1.912170e+03 4.314803e+03
3.362073e+06 2.771171e+03 -2.168202e+03
3.387897e+06 5.203902e+02 4.904483e+03
3.387281e+06 6.023084e+02 -5.110257e+03
3.385516e+06 5.564857e+02 5.175698e+03
3.360461e+06 2.026661e+03 4.050635e+03
3.363347e+06 2.900335e+03 -2.001571e+03
3.386166e+06 4.828363e+02 4.969891e+03
3.383734e+06 5.108496e+02 5.235457e+03
3.361823e+06 2.136106e+03 3.772475e+03
3.362069e+06 2.753692e+03 2.254879e+03
3.364516e+06 3.015925e+03 -1.830106e+03
3.384413e+06 4.452753e+02 5.029978e+03
3.381934e+06 4.652146e+02 5.289715e+03
3.363087e+06 2.238645e+03 3.481772e+03
3.363342e+06 2.882105e+03 2.081475e+03
3.365577e+06 3.114427e+03 -1.655178e+03
3.382642e+06 4.077058e+02 5.084759e+03
3.364248e+06 2.331900e+03 3.180316e+03
3.364511e+06 2.997059e+03 1.902904e+03
3.366527e+06 3.192200e+03 -1.478081e+03
3.380854e+06 3.701255e+02 5.134247e+03
3.365303e+06 2.412925e+03 2.870184e+03
3.365572e+06 3.095054e+03 1.720579e+03
3.367365e+06 3.245909e+03 -1.299806e+03
3.379049e+06 3.325314e+02 5.178453e+03
3.366249e+06 2.478221e+03 2.553598e+03
3.366523e+06 3.172452e+03 1.535848e+03
3.368089e+06 3.273085e+03 -1.120867e+03
3.377232e+06 2.949226e+02 5.217389e+03
3.374594e+06 2.828027e+02 -5.451814e+03
3.367084e+06 2.523995e+03 2.232672e+03
3.367360e+06 3.225912e+03 1.349768e+03
3.368698e+06 3.272596e+03 -9.413856e+02
3.375402e+06 2.572968e+02 5.251068e+03
3.372728e+06 2.369597e+02 5.478922e+03
3.367807e+06 2.546892e+03 1.909165e+03
3.368084e+06 3.252952e+03 1.162923e+03
3.369194e+06 3.244864e+03 -7.613958e+02
3.373563e+06 2.196529e+02 5.279501e+03
3.370858e+06 1.912807e+02 5.500429e+03
3.371716e+06 1.819892e+02 5.302700e+03
3.368982e+06 1.455872e+02 5.516519e+03
3.369995e+06 3.022170e+03 -2.237873e+02
3.369189e+06 3.224785e+03 7.876100e+02
3.369863e+06 1.443042e+02 5.320677e+03
3.367104e+06 9.987678e+01 5.527201e+03
3.369567e+06 2.408385e+03 6.173135e+02
3.369073e+06 2.876462e+03 4.568853e+02
3.370040e+06 2.912811e+03 -4.912181e+01
3.368005e+06 1.065958e+02 5.333442e+03
3.365224e+06 5.414639e+01 5.532485e+03
3.369728e+06 2.330327e+03 3.037182e+02
3.369991e+06 3.003084e+03 2.271416e+02
3.369978e+06 2.791617e+03 1.210426e+02
3.366145e+06 6.886206e+01 5.341006e+03
3.363344e+06 8.392428e+00 5.532379e+03
3.369780e+06 2.241725e+03 -1.858856e+00
3.370036e+06 2.894307e+03 4.534272e+01
3.369814e+06 2.661459e+03 2.855061e+02
3.364284e+06 3.109986e+01 5.343378e+03
3.363347e+06 8.555126e+00 -5.532208e+03
3.361466e+06 -3.739588e+01 5.526892e+03
3.369728e+06 2.145219e+03 -2.974584e+02
3.369974e+06 2.773807e+03 -1.316388e+02
3.369552e+06 2.524694e+03 4.432697e+02
3.362424e+06 -6.696476e+00 5.340570e+03
3.361469e+06 -3.723493e+01 -5.526718e+03
3.359591e+06 -8.322771e+01 5.516026e+03
3.369575e+06 2.042909e+03 -5.814470e+02
3.369810e+06 2.644429e+03 -3.025812e+02
3.369198e+06 2.383192e+03 5.935409e+02
3.360567e+06 -4.453268e+01 5.332586e+03
3.357723e+06 -1.291123e+02 5.499785e+03
3.369325e+06 1.936418e+03 -8.525306e+02
3.368757e+06 2.238393e+03 7.357161e+02
3.358715e+06 -8.241723e+01 5.319431e+03
3.355862e+06 -1.750664e+02 5.478169e+03
3.368983e+06 1.826982e+03 -1.109726e+03
3.368233e+06 2.091371e+03 8.693509e+02
3.356869e+06 -1.203593e+02 5.301109e+03
3.354013e+06 -2.209552e+02 -5.450999e+03
3.368554e+06 1.715521e+03 -1.352313e+03
3.368753e+06 2.224043e+03 -7.700889e+02
3.367632e+06 1.942911e+03 9.941292e+02
3.355031e+06 -1.583738e+02 5.277621e+03
3.352168e+06 -2.672775e+02 5.418792e+03
3.368043e+06 1.602710e+03 -1.579783e+03
3.368230e+06 2.077977e+03 -9.087644e+02
3.366961e+06 1.793567e+03 1.109834e+03
3.353204e+06 -1.964797e+02 5.248962e+03
3.350340e+06 -3.135903e+02 5.381014e+03
3.367456e+06 1.489030e+03 -1.791793e+03
3.367629e+06 1.930487e+03 -1.038222e+03
3.366223e+06 1.643721e+03 1.216323e+03
3.351388e+06 -2.346993e+02 5.215128e+03
3.348526e+06 -3.600864e+02 5.337826e+03
3.366798e+06 1.374818e+03 -1.988118e+03
3.366958e+06 1.782120e+03 -1.158245e+03
3.365426e+06 1.493628e+03 1.313507e+03
3.349586e+06 -2.730612e+02 5.176109e+03
3.346728e+06 -4.068017e+02 5.289217e+03
3.347800e+06 -3.115979e+02 5.131895e+03
3.344948e+06 -4.537662e+02 5.235185e+03
3.362731e+06 1.043140e+03 1.548848e+03
3.365424e+06 1.484137e+03 -1.369484e+03
3.346030e+06 -3.503440e+02 5.082478e+03
3.343188e+06 -5.009984e+02 5.175730e+03
3.363566e+06 9.161579e+02 -2.614689e+03
3.363872e+06 1.152840e+03 -1.485818e+03
3.361750e+06 8.930827e+02 1.608525e+03
3.344280e+06 -3.893277e+02 5.027852e+03
3.341450e+06 -5.484986e+02 5.110861e+03
3.362636e+06 8.014313e+02 -2.731533e+03
3.362730e+06 1.036611e+03 -1.613545e+03
3.360737e+06 7.430899e+02 1.658827e+03
3.342550e+06 -4.285604e+02 4.968017e+03
3.339735e+06 -5.962498e+02 5.040582e+03
3.361668e+06 6.867259e+02 -2.832480e+03
3.361749e+06 8.875319e+02 -1.675431e+03
3.359697e+06 5.931476e+02 1.699763e+03
3.340843e+06 -4.680313e+02 4.902970e+03
3.338044e+06 -6.442197e+02 4.964885e+03
3.360669e+06 5.720366e+02 -2.917556e+03
3.358637e+06 4.432340e+02 1.731347e+03
3.339160e+06 -5.077108e+02 4.832705e+03
3.336381e+06 -6.923712e+02 4.883761e+03
3.359643e+06 4.573527e+02 -2.986785e+03
3.357560e+06 2.933250e+02 1.753590e+03
3.337503e+06 -5.475632e+02 4.757212e+03
3.336384e+06 -6.922315e+02 -4.883577e+03
3.334746e+06 -7.406714e+02 4.797195e+03
3.358596e+06 3.426590e+02 -3.040192e+03
3.358637e+06 4.406096e+02 -1.802805e+03
3.356474e+06 1.433959e+02 1.766503e+03
3.335874e+06 -5.875549e+02 4.676481e+03
3.334749e+06 -7.405321e+02 -4.797008e+03
3.333142e+06 -7.890885e+02 4.705172e+03
3.357533e+06 2.279390e+02 -3.077800e+03
3.357561e+06 2.916727e+02 -1.825876e+03
3.355384e+06 -6.573316e+00 1.770095e+03
3.334274e+06 -6.276564e+02 4.590501e+03
3.331570e+06 -8.375921e+02 4.607682e+03
3.356461e+06 1.131772e+02 -3.099627e+03
3.356475e+06 1.427152e+02 -1.839273e+03
3.354294e+06 -1.565966e+02 1.764377e+03
3.332706e+06 -6.678426e+02 4.499258e+03
3.355384e+06 -1.639000e+00 -3.105688e+03
3.355385e+06 -6.283306e+00 -1.843005e+03
3.353211e+06 -3.066774e+02 1.749360e+03
3.331171e+06 -7.080930e+02 4.402749e+03
3.328533e+06 -9.346427e+02 -4.396082e+03
3.354308e+06 -1.165175e+02 -3.095997e+03
3.354296e+06 -1.553369e+02 -1.837083e+03
3.352140e+06 -4.567968e+02 1.725058e+03
3.329671e+06 -7.483924e+02 4.300969e+03
3.327065e+06 -9.834354e+02 4.282340e+03
3.328207e+06 -7.887291e+02 4.193915e+03
3.349051e+06 -9.067811e+02 1.596738e+03
3.352142e+06 -4.536101e+02 -1.796322e+03
3.326782e+06 -8.290937e+02 4.081586e+03
3.324258e+06 -1.080682e+03 -4.037836e+03
3.350124e+06 -5.764679e+02 -2.900008e+03
3.350710e+06 -6.186062e+02 -1.712700e+03
3.348082e+06 -1.056181e+03 1.535683e+03
3.325397e+06 -8.694789e+02 3.963983e+03
3.322914e+06 -1.129530e+03 3.907638e+03
3.349134e+06 -6.913514e+02 -2.811845e+03
3.349055e+06 -9.006759e+02 -1.663241e+03
3.347151e+06 -1.204850e+03 1.465659e+03
3.324054e+06 -9.098796e+02 3.841107e+03
3.321617e+06 -1.178256e+03 3.771768e+03
3.348178e+06 -8.059939e+02 -2.708134e+03
3.348085e+06 -1.049113e+03 -1.599897e+03
3.346265e+06 -1.352338e+03 1.386846e+03
3.322755e+06 -9.502919e+02 3.712959e+03
3.320366e+06 -1.226990e+03 3.630412e+03
3.347261e+06 -9.201990e+02 -2.589001e+03
3.347155e+06 -1.196825e+03 -1.527234e+03
3.345428e+06 -1.498021e+03 1.299496e+03
3.321501e+06 -9.907132e+02 3.579539e+03
3.319164e+06 -1.275734e+03 3.483571e+03
3.346388e+06 -1.033685e+03 -2.454637e+03
3.346269e+06 -1.343369e+03 -1.445428e+03
3.344646e+06 -1.641051e+03 1.203959e+03
3.320295e+06 -1.031142e+03 3.440849e+03
3.318012e+06 -1.324490e+03 3.331243e+03
3.345565e+06 -1.146055e+03 -2.305321e+03
3.345433e+06 -1.488128e+03 -1.354731e+03
3.343924e+06 -1.780306e+03 1.100703e+03
3.319137e+06 -1.071578e+03 3.296887e+03
3.316911e+06 -1.373258e+03 3.173425e+03
3.344796e+06 -1.256768e+03 -2.141456e+03
3.343266e+06 -1.914336e+03 9.903328e+02
3.318031e+06 -1.112020e+03 3.147651e+03
3.315863e+06 -1.422041e+03 3.010112e+03
3.344085e+06 -1.365087e+03 -1.963602e+03
3.342678e+06 -2.041331e+03 8.736063e+02
3.316977e+06 -1.152471e+03 2.993138e+03
3.315866e+06 -1.421920e+03 -3.009924e+03
3.314871e+06 -1.470848e+03 2.841298e+03
3.343439e+06 -1.470040e+03 -1.772513e+03
3.343271e+06 -1.901881e+03 -1.033418e+03
3.342163e+06 -2.159106e+03 7.514209e+02
3.315977e+06 -1.192931e+03 2.833345e+03
3.314873e+06 -1.470727e+03 -2.841109e+03
3.313936e+06 -1.519682e+03 2.666974e+03
3.342861e+06 -1.570358e+03 -1.569170e+03
3.342683e+06 -2.028134e+03 -9.119603e+02
3.341725e+06 -2.265153e+03 6.247719e+02
3.315033e+06 -1.233403e+03 2.668263e+03
3.313059e+06 -1.568551e+03 2.487127e+03
3.342356e+06 -1.664421e+03 -1.354801e+03
3.342168e+06 -2.145248e+03 -7.847293e+02
3.341367e+06 -2.356774e+03 4.946557e+02
3.314147e+06 -1.273891e+03 2.497881e+03
3.312245e+06 -1.617343e+03 -2.301557e+03
3.313321e+06 -1.314398e+03 2.322188e+03
3.311489e+06 -1.666420e+03 2.110816e+03
3.340798e+06 -2.521565e+03 9.033002e+01
3.341373e+06 -2.341873e+03 -5.170520e+02
3.312556e+06 -1.354926e+03 2.141172e+03
3.310799e+06 -1.715435e+03 1.914317e+03
3.341119e+06 -1.932191e+03 -4.174698e+02
3.341494e+06 -2.245476e+03 -3.135486e+02
3.340781e+06 -2.535682e+03 -4.832776e+01
3.311854e+06 -1.395479e+03 1.954813e+03
3.310174e+06 -1.764508e+03 1.712234e+03
3.341018e+06 -1.959407e+03 -1.704112e+02
3.340804e+06 -2.505793e+03 -9.493581e+01
3.340851e+06 -2.530000e+03 -1.888050e+02
3.311217e+06 -1.436058e+03 1.763095e+03
3.309617e+06 -1.813635e+03 1.504548e+03
3.341002e+06 -1.968151e+03 7.959063e+01
3.340787e+06 -2.519770e+03 4.982904e+01
3.341010e+06 -2.506413e+03 -3.307068e+02
3.310647e+06 -1.476659e+03 1.565996e+03
3.309130e+06 -1.862803e+03 1.291248e+03
3.341074e+06 -1.959835e+03 3.315311e+02
3.340857e+06 -2.514033e+03 1.964164e+02
3.341258e+06 -2.467420e+03 -4.732915e+02
3.310145e+06 -1.517271e+03 1.363498e+03
3.308714e+06 -1.911980e+03 1.072327e+03
3.341233e+06 -1.936999e+03 5.841120e+02
3.341594e+06 -2.415729e+03 -6.156027e+02
3.309714e+06 -1.557876e+03 1.155586e+03
3.308370e+06 -1.961111e+03 8.477935e+02
3.341479e+06 -1.902453e+03 8.357795e+02
3.342016e+06 -2.353938e+03 -7.566347e+02
3.309355e+06 -1.598436e+03 9.422483e+02
3.308102e+06 -2.010102e+03 6.176773e+02
3.341811e+06 -1.858771e+03 1.084912e+03
3.341600e+06 -2.400166e+03 6.410846e+02
3.342523e+06 -2.284355e+03 -8.954520e+02
3.309070e+06 -1.638892e+03 7.234900e+02
3.307910e+06 -2.058808e+03 3.820416e+02
3.342229e+06 -1.808129e+03 1.329997e+03
3.342022e+06 -2.338689e+03 7.877881e+02
3.343113e+06 -2.208928e+03 -1.031250e+03
3.308861e+06 -1.679151e+03 4.993349e+02
3.307797e+06 -2.107008e+03 1.409978e+02
3.342731e+06 -1.752286e+03 1.569730e+03
3.342529e+06 -2.269492e+03 9.320909e+02
3.343783e+06 -2.129231e+03 -1.163376e+03
3.308730e+06 -1.719076e+03 2.698389e+02
3.307764e+06 -2.154386e+03 -1.052742e+02
3.343315e+06 -1.692629e+03 1.803052e+03
3.343119e+06 -2.194506e+03 1.073175e+03
3.344531e+06 -2.046500e+03 -1.291319e+03
3.308678e+06 -1.758463e+03 3.510492e+01
3.307766e+06 -2.154238e+03 1.054464e+02
3.307814e+06 -2.200491e+03 -3.565003e+02
3.343978e+06 -1.630229e+03 2.029141e+03
3.343789e+06 -2.115292e+03 1.210379e+03
3.345353e+06 -1.961678e+03 -1.414698e+03
3.308707e+06 -1.797026e+03 -2.046977e+02
3.307816e+06 -2.200326e+03 3.566605e+02
3.308819e+06 -1.834365e+03 -4.493083e+02
3.309027e+06 -2.153479e+03 1.929955e+02
3.348236e+06 -1.700731e+03 -1.755064e+03
3.345358e+06 -1.948770e+03 1.471220e+03
3.309016e+06 -1.869938e+03 -6.983450e+02
3.347372e+06 -1.366606e+03 2.851269e+03
3.347099e+06 -1.663525e+03 1.608181e+03
3.349326e+06 -1.612818e+03 -1.858135e+03
3.309298e+06 -1.903014e+03 -9.512716e+02
3.308877e+06 -2.355970e+03 1.400382e+03
3.348391e+06 -1.299174e+03 3.034902e+03
3.348241e+06 -1.689507e+03 1.824303e+03
3.350475e+06 -1.524781e+03 -1.955892e+03
3.309667e+06 -1.932636e+03 -1.207363e+03
3.309365e+06 -2.381557e+03 -1.666584e+03
3.349473e+06 -1.231561e+03 3.209525e+03
3.349331e+06 -1.602155e+03 1.931196e+03
3.351681e+06 -1.436721e+03 -2.048304e+03
3.310125e+06 -1.957558e+03 -1.465674e+03
3.309949e+06 -2.397685e+03 -1.932339e+03
3.350614e+06 -1.163868e+03 3.375091e+03
3.350480e+06 -1.514680e+03 2.032572e+03
3.352939e+06 -1.348697e+03 -2.135353e+03
3.310671e+06 -1.976202e+03 -1.725034e+03
3.310627e+06 -2.402092e+03 -2.195935e+03
3.351811e+06 -1.096161e+03 3.531582e+03
3.351685e+06 -1.427182e+03 2.128399e+03
3.354248e+06 -1.260741e+03 -2.217031e+03
3.311306e+06 -1.986607e+03 -1.984064e+03
3.311400e+06 -2.392075e+03 -2.455715e+03
3.353062e+06 -1.028480e+03 3.678988e+03
3.352944e+06 -1.339719e+03 2.218663e+03
3.355604e+06 -1.172861e+03 -2.293334e+03
3.312029e+06 -1.986437e+03 -2.241267e+03
3.312267e+06 -2.365077e+03 -2.710321e+03
3.354362e+06 -9.608461e+02 3.817309e+03
3.354252e+06 -1.252322e+03 2.303355e+03
3.357003e+06 -1.085058e+03 -2.364262e+03
3.312841e+06 -1.973097e+03 -2.495172e+03
3.313227e+06 -2.319233e+03 -2.958989e+03
3.355710e+06 -8.932690e+02 3.946548e+03
3.358444e+06 -9.973237e+02 -2.429815e+03
3.313739e+06 -1.944131e+03 -2.744519e+03
3.314278e+06 -2.253863e+03 -3.201459e+03
3.357101e+06 -8.257508e+02 4.066707e+03
3.359922e+06 -9.096459e+02 -2.489991e+03
3.314721e+06 -1.897978e+03 -2.988331e+03
3.315418e+06 -2.169646e+03 -3.437475e+03
3.358533e+06 -7.582896e+02 4.177788e+03
3.358447e+06 -9.905783e+02 2.523984e+03
3.361434e+06 -8.220091e+02 -2.544788e+03
3.315787e+06 -1.834638e+03 -3.225765e+03
3.316644e+06 -2.068444e+03 -3.666262e+03
3.360003e+06 -6.908803e+02 4.279788e+03
3.359925e+06 -9.034549e+02 2.586377e+03
3.362978e+06 -7.344056e+02 -2.594204e+03
3.316933e+06 -1.755665e+03 -3.455841e+03
3.316646e+06 -2.068121e+03 3.665740e+03
3.317954e+06 -1.952813e+03 -3.886449e+03
3.318158e+06 -1.663521e+03 -3.677289e+03
3.317956e+06 -1.952502e+03 3.885864e+03
3.319342e+06 -1.825460e+03 -4.096354e+03
3.367768e+06 -4.716818e+02 -2.710116e+03
3.362981e+06 -7.292983e+02 2.694428e+03
3.319457e+06 -1.560811e+03 -3.888619e+03
3.320806e+06 -1.688637e+03 4.293598e+03
3.366197e+06 -4.216494e+02 4.596846e+03
3.365475e+06 -5.462114e+02 2.666123e+03
3.369406e+06 -3.841315e+02 -2.737957e+03
3.320827e+06 -1.449886e+03 -4.088301e+03
3.322334e+06 -1.545328e+03 -4.478706e+03
3.367809e+06 -3.544265e+02 4.653320e+03
3.367770e+06 -4.682820e+02 2.814612e+03
3.371060e+06 -2.966038e+02 -2.760393e+03
3.322264e+06 -1.332722e+03 -4.274925e+03
3.323926e+06 -1.396525e+03 -4.648329e+03
3.369439e+06 -2.872381e+02 4.700648e+03
3.369408e+06 -3.812936e+02 2.843473e+03
3.372727e+06 -2.091287e+02 -2.777426e+03
3.323764e+06 -1.210916e+03 -4.447279e+03
3.325574e+06 -1.243932e+03 -4.802114e+03
3.371085e+06 -2.200934e+02 4.738816e+03
3.371062e+06 -2.943293e+02 2.866729e+03
3.374403e+06 -1.217525e+02 -2.789064e+03
3.325320e+06 -1.085725e+03 -4.604372e+03
3.327274e+06 -1.088664e+03 -4.939252e+03
3.372744e+06 -1.530106e+02 4.767816e+03
3.376085e+06 -3.454809e+01 -2.795325e+03
3.326929e+06 -9.581230e+02 -4.745435e+03
3.329017e+06 -9.315670e+02 -5.059137e+03
3.374412e+06 -8.601843e+01 4.787644e+03
3.377770e+06 5.237611e+01 -2.796241e+03
3.328584e+06 -8.288472e+02 -4.869883e+03
3.330799e+06 -7.732662e+02 -5.161317e+03
3.376086e+06 -1.916185e+01 4.798307e+03
3.376087e+06 -3.396063e+01 2.902906e+03
3.379455e+06 1.388637e+02 -2.791865e+03
3.330280e+06 -6.984497e+02 -4.977284e+03
3.332613e+06 -6.142143e+02 -5.245471e+03
3.377764e+06 4.749260e+01 4.799830e+03
3.377772e+06 5.240365e+01 2.903829e+03
3.381137e+06 2.246976e+02 -2.782274e+03
3.332011e+06 -5.673339e+02 -5.067329e+03
3.334453e+06 -4.547302e+02 -5.311367e+03
3.379441e+06 1.138477e+02 4.792260e+03
3.379456e+06 1.383347e+02 2.899255e+03
3.382811e+06 3.095826e+02 -2.767582e+03
3.333771e+06 -4.357894e+02 -5.139800e+03
3.336312e+06 -2.950311e+02 -5.358843e+03
3.381115e+06 1.797674e+02 4.775677e+03
3.381138e+06 2.236182e+02 2.889260e+03
3.384476e+06 3.931324e+02 -2.747940e+03
3.335553e+06 -3.040183e+02 -5.194542e+03
3.338186e+06 -1.352590e+02 -5.387785e+03
3.382782e+06 2.450638e+02 4.750205e+03
3.382812e+06 3.079632e+02 2.873957e+03
3.386129e+06 4.748426e+02 -2.723549e+03
3.337353e+06 -1.721573e+02 -5.231450e+03
3.340067e+06 2.449725e+01 -5.398111e+03
3.339163e+06 -4.029601e+01 -5.250447e+03
3.341949e+06 1.841876e+02 -5.389764e+03
3.390978e+06 7.022365e+02 -2.624555e+03
3.386129e+06 4.722115e+02 2.828093e+03
3.340977e+06 9.151177e+01 -5.251481e+03
3.341953e+06 1.843876e+02 5.388956e+03
3.389325e+06 4.935938e+02 4.564091e+03
3.388458e+06 5.413004e+02 2.683353e+03
3.392551e+06 7.694415e+02 -2.583944e+03
3.342790e+06 2.232383e+02 -5.234511e+03
3.343831e+06 3.440001e+02 5.361889e+03
3.390915e+06 5.500329e+02 4.498321e+03
3.390979e+06 6.981825e+02 2.724892e+03
3.394096e+06 8.310261e+02 -2.539939e+03
3.344595e+06 3.548729e+02 -5.199501e+03
3.392482e+06 6.027462e+02 4.425791e+03
3.392551e+06 7.649769e+02 2.682521e+03
3.395614e+06 8.864323e+02 -2.492644e+03
3.346386e+06 4.864166e+02 -5.146416e+03
3.349372e+06 8.223612e+02 5.167995e+03
3.394023e+06 6.508481e+02 4.346975e+03
3.394096e+06 8.261801e+02 2.636602e+03
3.397101e+06 9.354249e+02 -2.442075e+03
3.348156e+06 6.178784e+02 -5.075225e+03
3.351162e+06 9.814879e+02 -5.066482e+03
3.395536e+06 6.935769e+02 4.262261e+03
3.395614e+06 8.812316e+02 2.587255e+03
3.398555e+06 9.781354e+02 -2.388236e+03
3.349899e+06 7.492737e+02 -4.985897e+03
3.352921e+06 1.140829e+03 -4.945263e+03
3.397018e+06 7.305723e+02 4.171949e+03
3.397101e+06 9.298938e+02 2.534513e+03
3.399976e+06 1.015035e+03 -2.331204e+03
3.351609e+06 8.806217e+02 -4.878394e+03
3.354638e+06 1.300188e+03 -4.805102e+03
3.398469e+06 7.620421e+02 4.076327e+03
3.398555e+06 9.722988e+02 2.478393e+03
3.401360e+06 1.046842e+03 -2.271168e+03
3.353279e+06 1.011942e+03 -4.752679e+03
3.356305e+06 1.459591e+03 -4.645962e+03
3.399885e+06 7.886652e+02 3.975758e+03
3.402707e+06 1.074394e+03 -2.208408e+03
3.354904e+06 1.143255e+03 -4.608711e+03
3.357916e+06 1.619055e+03 -4.467807e+03
3.401266e+06 8.113200e+02 3.870702e+03
3.404014e+06 1.098529e+03 -2.143242e+03
3.356476e+06 1.274576e+03 -4.446452e+03
3.359466e+06 1.778585e+03 -4.270604e+03
3.402610e+06 8.308606e+02 3.761670e+03
3.402706e+06 1.067815e+03 2.291235e+03
3.405282e+06 1.120014e+03 -2.075978e+03
3.357989e+06 1.405913e+03 -4.265862e+03
3.360948e+06 1.938167e+03 -4.054336e+03
3.403915e+06 8.480243e+02 3.649161e+03
3.404014e+06 1.091762e+03 2.223507e+03
3.406509e+06 1.139503e+03 -2.006885e+03
3.359437e+06 1.537266e+03 -4.066909e+03
3.362354e+06 2.097754e+03 -3.819002e+03
3.405181e+06 8.634141e+02 3.533616e+03
3.405282e+06 1.113082e+03 2.153637e+03
3.407694e+06 1.157527e+03 -1.936188e+03
3.360813e+06 1.668612e+03 -3.849569e+03
3.363680e+06 2.257252e+03 -3.564634e+03
3.362111e+06 1.799900e+03 -3.613841e+03
3.364917e+06 2.416497e+03 -3.291310e+03
3.410990e+06 1.206570e+03 -1.716035e+03
3.407693e+06 1.150341e+03 2.008528e+03
3.363324e+06 1.931036e+03 -3.359749e+03
3.409827e+06 9.152594e+02 3.047256e+03
3.409151e+06 1.075331e+03 1.817937e+03
3.412000e+06 1.222055e+03 -1.640296e+03
3.364446e+06 2.061865e+03 -3.087367e+03
3.410880e+06 9.270448e+02 2.920586e+03
3.410989e+06 1.199021e+03 1.780137e+03
3.412964e+06 1.237361e+03 -1.563480e+03
3.365470e+06 2.192144e+03 -2.796834e+03
3.367108e+06 2.733281e+03 2.687711e+03
3.368036e+06 2.889330e+03 -2.359628e+03
3.411889e+06 9.386511e+02 2.792094e+03
3.411999e+06 1.214396e+03 1.701584e+03
3.413883e+06 1.252569e+03 -1.485617e+03
3.366391e+06 2.321511e+03 -2.488389e+03
3.368042e+06 2.889562e+03 2.358863e+03
3.412852e+06 9.501541e+02 2.661830e+03
3.414754e+06 1.267737e+03 -1.406728e+03
3.367201e+06 2.449446e+03 -2.162404e+03
3.366583e+06 3.149329e+03 5.011820e+02
3.369562e+06 3.193912e+03 1.649203e+03
3.413769e+06 9.616061e+02 2.529826e+03
3.415579e+06 1.282899e+03 -1.326826e+03
3.367895e+06 2.575214e+03 -1.819431e+03
3.370128e+06 3.339091e+03 -1.271005e+03
3.414640e+06 9.730416e+02 2.396100e+03
3.414754e+06 1.259767e+03 1.459367e+03
3.416355e+06 1.298077e+03 -1.245918e+03
3.368466e+06 2.697807e+03 -1.460262e+03
3.370566e+06 3.477316e+03 -8.779337e+02
3.415463e+06 9.844831e+02 2.260663e+03
3.415578e+06 1.274828e+03 1.376512e+03
3.417083e+06 1.313283e+03 -1.164006e+03
3.368910e+06 2.815867e+03 -1.085984e+03
3.370864e+06 3.605750e+03 -4.726308e+02
3.416238e+06 9.959439e+02 2.123519e+03
3.416354e+06 1.289904e+03 1.292614e+03
3.417762e+06 1.328523e+03 -1.081093e+03
3.369221e+06 2.927599e+03 -6.980382e+02
3.371017e+06 3.721098e+03 -5.746981e+01
3.416965e+06 1.007432e+03 1.984670e+03
3.417082e+06 1.305008e+03 1.207677e+03
3.418390e+06 1.343799e+03 -9.971777e+02
3.369395e+06 3.030676e+03 -2.982604e+02
3.371018e+06 3.819429e+03 3.647969e+02
3.417642e+06 1.018951e+03 1.844116e+03
3.417761e+06 1.320145e+03 1.121701e+03
3.418968e+06 1.359113e+03 -9.122600e+02
3.369428e+06 3.122149e+03 1.111263e+02
3.370864e+06 3.896314e+03 7.912449e+02
3.418269e+06 1.030504e+03 1.701856e+03
3.418389e+06 1.335319e+03 1.034686e+03
3.419495e+06 1.374462e+03 -8.263392e+02
3.369316e+06 3.198398e+03 5.275985e+02
3.370552e+06 3.947239e+03 1.219190e+03
3.369059e+06 3.255212e+03 9.485389e+02
3.370080e+06 3.968396e+03 1.646763e+03
3.420763e+06 1.420731e+03 -5.625513e+02
3.419494e+06 1.365786e+03 8.575430e+02
3.368654e+06 3.288193e+03 1.371548e+03
3.369448e+06 3.957648e+03 2.073138e+03
3.420267e+06 1.077062e+03 1.115745e+03
3.419903e+06 1.269879e+03 6.956014e+02
3.421079e+06 1.436224e+03 -4.726129e+02
3.368101e+06 3.293816e+03 1.794698e+03
3.368658e+06 3.915101e+03 2.497943e+03
3.420635e+06 1.088790e+03 9.649497e+02
3.420762e+06 1.411744e+03 5.840136e+02
3.421340e+06 1.451749e+03 -3.816713e+02
3.367401e+06 3.270792e+03 2.216462e+03
3.420950e+06 1.100555e+03 8.124467e+02
3.421078e+06 1.427133e+03 4.907529e+02
3.421547e+06 1.467300e+03 -2.897295e+02
3.366554e+06 3.220667e+03 2.635290e+03
3.421210e+06 1.112353e+03 6.582389e+02
3.421339e+06 1.442555e+03 3.964529e+02
3.421699e+06 1.482863e+03 -1.967927e+02
3.365563e+06 3.147106e+03 3.049213e+03
3.366613e+06 3.745551e+03 -3.337795e+03
3.421416e+06 1.124181e+03 5.023291e+02
3.421546e+06 1.458004e+03 3.011156e+02
3.421794e+06 1.498418e+03 -1.028701e+02
3.364429e+06 3.054517e+03 3.455813e+03
3.365358e+06 3.626989e+03 -3.748452e+03
3.363958e+06 3.491811e+03 -4.149078e+03
3.421566e+06 1.136034e+03 3.447226e+02
3.421832e+06 1.513930e+03 -7.976388e+00
3.363155e+06 2.947059e+03 3.852488e+03
3.363362e+06 3.539787e+03 -2.130394e+03
3.362411e+06 3.343747e+03 4.537597e+03
3.421659e+06 1.147898e+03 1.854282e+02
3.421814e+06 1.529343e+03 8.786567e+01
3.361746e+06 2.828279e+03 4.236760e+03
3.360738e+06 3.186238e+03 4.910528e+03
3.421696e+06 1.159752e+03 2.446033e+01
3.421831e+06 1.504331e+03 8.950336e+00
3.421737e+06 1.544575e+03 1.846217e+02
3.360206e+06 2.701054e+03 4.606472e+03
3.358941e+06 3.021778e+03 5.266566e+03
3.421676e+06 1.171563e+03 -1.381575e+02
3.421812e+06 1.519646e+03 -9.043899e+01
3.421602e+06 1.559506e+03 2.822415e+02
3.358542e+06 2.567645e+03 4.959859e+03
3.357026e+06 2.852372e+03 5.604284e+03
3.421598e+06 1.183283e+03 -3.023883e+02
3.421408e+06 1.573967e+03 3.806531e+02
3.356758e+06 2.429794e+03 5.295548e+03
3.355001e+06 2.679542e+03 5.922625e+03
3.421462e+06 1.194836e+03 -4.681773e+02
3.421601e+06 1.549619e+03 -2.920255e+02
3.421154e+06 1.587726e+03 4.797574e+02
3.354863e+06 2.288814e+03 5.612517e+03
3.352872e+06 2.504409e+03 6.220835e+03
3.352862e+06 2.145679e+03 5.910036e+03
3.350649e+06 2.327783e+03 6.498397e+03
3.420031e+06 1.621195e+03 7.796834e+02
3.421153e+06 1.577662e+03 -4.969054e+02
3.350763e+06 2.001095e+03 6.187607e+03
3.348338e+06 2.150230e+03 6.754976e+03
3.420321e+06 1.236584e+03 -1.144697e+03
3.420332e+06 1.459817e+03 -6.198968e+02
3.419535e+06 1.628041e+03 8.798029e+02
3.348572e+06 1.855565e+03 6.444908e+03
3.345946e+06 1.972138e+03 6.990368e+03
3.419886e+06 1.244700e+03 -1.316194e+03
3.420030e+06 1.610983e+03 -8.081701e+02
3.418978e+06 1.631620e+03 9.795378e+02
3.346297e+06 1.709435e+03 6.681745e+03
3.343482e+06 1.793757e+03 7.204469e+03
3.419390e+06 1.251116e+03 -1.488026e+03
3.419534e+06 1.617816e+03 -9.121313e+02
3.418360e+06 1.631161e+03 1.078597e+03
3.343946e+06 1.562937e+03 6.898023e+03
3.340957e+06 1.615504e+03 -7.396434e+03
3.418833e+06 1.255254e+03 -1.659766e+03
3.418977e+06 1.621409e+03 -1.015727e+03
3.417681e+06 1.625917e+03 1.176735e+03
3.341525e+06 1.416221e+03 7.093707e+03
3.338363e+06 1.436689e+03 7.568676e+03
3.418215e+06 1.256414e+03 -1.830942e+03
3.416942e+06 1.615281e+03 1.273801e+03
3.339041e+06 1.269375e+03 7.268807e+03
3.335723e+06 1.258137e+03 7.718824e+03
3.417537e+06 1.253803e+03 -2.001084e+03
3.416144e+06 1.598899e+03 1.369741e+03
3.336503e+06 1.122448e+03 7.423363e+03
3.335728e+06 1.258380e+03 -7.718021e+03
3.333039e+06 1.079593e+03 7.847732e+03
3.416799e+06 1.246642e+03 -2.169780e+03
3.416941e+06 1.605275e+03 -1.321574e+03
3.415287e+06 1.576743e+03 1.464549e+03
3.333917e+06 9.754592e+02 7.557433e+03
3.333044e+06 1.079829e+03 -7.846925e+03
3.330318e+06 9.010496e+02 7.955460e+03
3.416002e+06 1.234405e+03 -2.336711e+03
3.416143e+06 1.589011e+03 -1.421328e+03
3.414372e+06 1.549111e+03 1.558186e+03
3.331290e+06 8.284086e+02 7.671082e+03
3.327567e+06 7.224925e+02 8.042074e+03
3.415147e+06 1.217044e+03 -2.501607e+03
3.415286e+06 1.566994e+03 -1.519904e+03
3.413399e+06 1.516577e+03 1.650520e+03
3.328630e+06 6.812869e+02 7.764374e+03
3.324794e+06 5.438936e+02 8.107644e+03
3.414234e+06 1.195011e+03 -2.664164e+03
3.414371e+06 1.539527e+03 -1.617246e+03
3.412371e+06 1.479869e+03 1.741324e+03
3.325943e+06 5.340788e+02 7.837383e+03
3.322005e+06 3.652222e+02 8.152232e+03
3.413264e+06 1.169060e+03 -2.823988e+03
3.413398e+06 1.507181e+03 -1.713209e+03
3.411288e+06 1.439764e+03 1.830313e+03
3.323237e+06 3.867648e+02 7.890177e+03
3.319207e+06 1.864511e+02 8.175903e+03
3.320519e+06 2.393240e+02 7.922818e+03
3.316407e+06 7.556692e+00 8.178718e+03
3.407727e+06 1.305873e+03 2.083660e+03
3.411287e+06 1.430809e+03 -1.899976e+03
3.317795e+06 9.173951e+01 7.935367e+03
3.313612e+06 -1.714776e+02 8.160734e+03
3.408842e+06 1.040635e+03 -3.426905e+03
3.409285e+06 1.250387e+03 -1.960108e+03
3.406441e+06 1.258484e+03 2.162836e+03
3.315072e+06 -5.600111e+01 7.927883e+03
3.310828e+06 -3.506562e+02 8.122014e+03
3.407608e+06 1.005067e+03 -3.566599e+03
3.407726e+06 1.297804e+03 -2.162971e+03
3.405109e+06 1.210338e+03 2.239118e+03
3.312358e+06 -2.039022e+02 7.900421e+03
3.308063e+06 -5.299649e+02 8.062622e+03
3.406326e+06 9.688181e+02 -3.701335e+03
3.406440e+06 1.250729e+03 -2.245124e+03
3.403732e+06 1.161680e+03 2.312405e+03
3.309659e+06 -3.519563e+02 7.853037e+03
3.404998e+06 9.320958e+02 -3.830951e+03
3.405108e+06 1.202905e+03 -2.324260e+03
3.402314e+06 1.112688e+03 2.382630e+03
3.306981e+06 -5.001378e+02 7.785791e+03
3.403626e+06 8.950545e+02 -3.955338e+03
3.403732e+06 1.154573e+03 -2.400282e+03
3.400855e+06 1.063491e+03 2.449745e+03
3.304332e+06 -6.483956e+02 7.698753e+03
3.402212e+06 8.578043e+02 -4.074421e+03
3.402314e+06 1.105911e+03 -2.473121e+03
3.399357e+06 1.014175e+03 2.513721e+03
3.301719e+06 -7.966422e+02 7.592011e+03
3.297325e+06 -1.246775e+03 -7.619420e+03
3.400757e+06 8.204223e+02 -4.188154e+03
3.397823e+06 9.647989e+02 2.574541e+03
3.299147e+06 -9.447403e+02 7.465684e+03
3.294750e+06 -1.425226e+03 7.459233e+03
3.399264e+06 7.829606e+02 -4.296510e+03
3.396255e+06 9.154008e+02 2.632195e+03
3.296624e+06 -1.092481e+03 7.319934e+03
3.292236e+06 -1.602344e+03 7.278613e+03
3.397735e+06 7.454543e+02 -4.399477e+03
3.397823e+06 9.590153e+02 -2.672157e+03
3.394654e+06 8.660030e+02 2.686681e+03
3.294156e+06 -1.239566e+03 7.154989e+03
3.292239e+06 -1.602140e+03 -7.277808e+03
3.289787e+06 -1.777676e+03 7.078851e+03
3.396171e+06 7.079246e+02 -4.497053e+03
3.396255e+06 9.099479e+02 -2.731948e+03
3.393022e+06 8.166182e+02 2.738000e+03
3.291749e+06 -1.385572e+03 6.971177e+03
3.289790e+06 -1.777453e+03 -7.078059e+03
3.287410e+06 -1.950326e+03 6.860591e+03
3.394574e+06 6.703845e+02 -4.589241e+03
3.394654e+06 8.608798e+02 -2.788454e+03
3.391361e+06 7.672494e+02 2.786157e+03
3.289410e+06 -1.529919e+03 6.768945e+03
3.285111e+06 -2.119093e+03 6.624697e+03
3.392946e+06 6.328411e+02 -4.676050e+03
3.393022e+06 8.118218e+02 -2.841675e+03
3.389674e+06 7.179045e+02 2.831156e+03
3.287143e+06 -1.671819e+03 6.548905e+03
3.282897e+06 -2.282417e+03 6.372301e+03
3.284957e+06 -1.810225e+03 6.311888e+03
3.280773e+06 -2.438303e+03 6.104849e+03
3.384469e+06 5.699725e+02 2.947280e+03
3.389674e+06 7.137286e+02 -2.938284e+03
3.282854e+06 -1.943772e+03 6.058972e+03
3.278746e+06 -2.584270e+03 5.824114e+03
3.386168e+06 4.826489e+02 -4.969716e+03
3.386970e+06 5.872218e+02 -2.885164e+03
3.382693e+06 5.206919e+02 2.979720e+03
3.280842e+06 -2.070711e+03 5.791524e+03
3.276821e+06 -2.717343e+03 5.532176e+03
3.384416e+06 4.450906e+02 -5.029806e+03
3.384470e+06 5.668122e+02 -3.058729e+03
3.380900e+06 4.714174e+02 3.009039e+03
3.278923e+06 -2.188835e+03 5.511201e+03
3.275004e+06 -2.834120e+03 5.231298e+03
3.382644e+06 4.075225e+02 -5.084588e+03
3.382694e+06 5.178593e+02 -3.092375e+03
3.379092e+06 4.221492e+02 3.035242e+03
3.277102e+06 -2.295440e+03 5.219911e+03
3.273298e+06 -2.930992e+03 4.923682e+03
3.380856e+06 3.699427e+02 -5.134075e+03
3.377270e+06 3.728857e+02 3.058337e+03
3.275383e+06 -2.387339e+03 4.919685e+03
3.271709e+06 -3.004197e+03 -4.610836e+03
3.379052e+06 3.323501e+02 -5.178280e+03
3.375436e+06 3.236242e+02 3.078330e+03
3.273768e+06 -2.461063e+03 4.612473e+03
3.270233e+06 -3.052695e+03 4.294381e+03
3.377234e+06 2.947422e+02 -5.217216e+03
3.377271e+06 3.710268e+02 -3.173920e+03
3.373592e+06 2.743634e+02 3.095229e+03
3.272258e+06 -2.513426e+03 4.299913e+03
3.268875e+06 -3.074459e+03 3.973919e+03
3.375405e+06 2.571176e+02 -5.250895e+03
3.375437e+06 3.220878e+02 -3.194661e+03
3.371741e+06 2.251009e+02 3.109039e+03
3.270856e+06 -2.542546e+03 3.983265e+03
3.267637e+06 -3.070978e+03 3.650046e+03
3.373565e+06 2.194750e+02 -5.279328e+03
3.373594e+06 2.731484e+02 -3.212193e+03
3.369883e+06 1.758349e+02 3.119768e+03
3.269562e+06 -2.548633e+03 3.663639e+03
3.266516e+06 -3.044832e+03 3.323835e+03
3.371718e+06 1.818127e+02 -5.302527e+03
3.371742e+06 2.242065e+02 -3.226523e+03
3.368021e+06 1.265621e+02 3.127419e+03
3.268377e+06 -2.533893e+03 3.342352e+03
3.265514e+06 -2.999458e+03 2.997118e+03
3.369865e+06 1.441290e+02 -5.320503e+03
3.369884e+06 1.752597e+02 -3.237656e+03
3.366156e+06 7.727613e+01 3.132000e+03
3.267301e+06 -2.501627e+03 3.021094e+03
3.265516e+06 -2.999082e+03 -2.997347e+03
3.264627e+06 -2.938447e+03 2.672097e+03
3.368007e+06 1.064224e+02 -5.333268e+03
3.368022e+06 1.263034e+02 -3.245598e+03
3.364290e+06 2.797829e+01 3.133513e+03
3.266334e+06 -2.455269e+03 2.701817e+03
3.264629e+06 -2.938097e+03 -2.672400e+03
3.263852e+06 -2.865123e+03 2.350965e+03
3.265474e+06 -2.397903e+03 2.386500e+03
3.263187e+06 -2.782351e+03 2.035690e+03
3.358708e+06 -1.200995e+02 3.119684e+03
3.364292e+06 2.831761e+01 -3.251935e+03
3.264719e+06 -2.332116e+03 2.076954e+03
3.262626e+06 -2.692500e+03 1.727922e+03
3.360569e+06 -4.470253e+01 -5.332407e+03
3.361511e+06 -3.929337e+01 -3.118346e+03
3.356857e+06 -1.695579e+02 3.108954e+03
3.264068e+06 -2.260001e+03 1.774726e+03
3.262168e+06 -2.597465e+03 1.428975e+03
3.358717e+06 -8.258422e+01 -5.319254e+03
3.358710e+06 -1.187712e+02 -3.237631e+03
3.355015e+06 -2.191023e+02 3.095162e+03
3.263518e+06 -2.183210e+03 1.481060e+03
3.261806e+06 -2.498720e+03 1.139858e+03
3.356871e+06 -1.205253e+02 -5.300933e+03
3.356860e+06 -1.679092e+02 -3.226515e+03
3.353183e+06 -2.687549e+02 3.078303e+03
3.263065e+06 -2.103025e+03 1.196918e+03
3.261538e+06 -2.397388e+03 8.613160e+02
3.355033e+06 -1.585394e+02 -5.277443e+03
3.355018e+06 -2.171338e+02 -3.212224e+03
3.351363e+06 -3.185452e+02 3.058370e+03
3.262707e+06 -2.020422e+03 9.230130e+02
3.261359e+06 -2.294305e+03 5.938873e+02
3.353206e+06 -1.966440e+02 -5.248784e+03
3.349556e+06 -3.685068e+02 3.035358e+03
3.262439e+06 -1.936136e+03 6.598559e+02
3.351390e+06 -2.348626e+02 -5.214949e+03
3.347765e+06 -4.186726e+02 3.009260e+03
3.262258e+06 -1.850708e+03 4.077988e+02
3.261256e+06 -2.084983e+03 -9.429017e+01
3.349588e+06 -2.732231e+02 -5.175928e+03
3.349559e+06 -3.655831e+02 -3.150251e+03
3.345991e+06 -4.690722e+02 2.980074e+03
3.262160e+06 -1.764531e+03 1.670734e+02
3.261319e+06 -1.979814e+03 -1.385910e+02
3.347802e+06 -3.117586e+02 -5.131713e+03
3.347768e+06 -4.154298e+02 -3.123206e+03
3.344236e+06 -5.197260e+02 2.947803e+03
3.262141e+06 -1.677884e+03 -6.217601e+01
3.261457e+06 -1.874274e+03 -3.589307e+02
3.346032e+06 -3.505033e+02 -5.082295e+03
3.345994e+06 -4.655099e+02 -3.092958e+03
3.342501e+06 -5.706418e+02 2.912450e+03
3.262198e+06 -1.590960e+03 -2.798674e+02
3.261665e+06 -1.768659e+03 -5.672388e+02
3.344282e+06 -3.894855e+02 -5.027669e+03
3.344239e+06 -5.158438e+02 -3.059511e+03
3.340789e+06 -6.218126e+02 2.874021e+03
3.262326e+06 -1.503888e+03 -4.859610e+02
3.261938e+06 -1.663048e+03 -7.634952e+02
3.342552e+06 -4.287167e+02 -4.967832e+03
3.342504e+06 -5.664399e+02 -3.022868e+03
3.339102e+06 -6.732207e+02 2.832517e+03
3.262522e+06 -1.416753e+03 -6.804439e+02
3.262273e+06 -1.557485e+03 -9.476971e+02
3.340845e+06 -4.681852e+02 -4.902784e+03
3.340793e+06 -6.172919e+02 -2.983034e+03
3.337440e+06 -7.248314e+02 2.787935e+03
3.262782e+06 -1.329607e+03 -8.633196e+02
3.262666e+06 -1.451988e+03 -1.119851e+03
3.263101e+06 -1.242479e+03 -1.034600e+03
3.262669e+06 -1.451818e+03 1.119290e+03
3.263113e+06 -1.346560e+03 -1.279969e+03
3.332628e+06 -8.805727e+02 2.635655e+03
3.337443e+06 -7.197000e+02 -2.893795e+03
3.263477e+06 -1.155383e+03 -1.194301e+03
3.263116e+06 -1.346384e+03 1.279408e+03
3.263609e+06 -1.241192e+03 -1.428061e+03
3.334276e+06 -6.278052e+02 -4.590308e+03
3.335170e+06 -7.273830e+02 -2.706979e+03
3.331088e+06 -9.326858e+02 2.578691e+03
3.263904e+06 -1.068321e+03 -1.342438e+03
3.264152e+06 -1.135874e+03 -1.564137e+03
3.332708e+06 -6.679887e+02 -4.499068e+03
3.332632e+06 -8.744414e+02 -2.735916e+03
3.329583e+06 -9.848635e+02 2.518616e+03
3.264380e+06 -9.812910e+02 -1.479022e+03
3.264738e+06 -1.030590e+03 -1.688204e+03
3.331173e+06 -7.082379e+02 -4.402559e+03
3.328115e+06 -1.037086e+03 2.455425e+03
3.264900e+06 -8.942880e+02 -1.604063e+03
3.265361e+06 -9.253250e+02 -1.800265e+03
3.329672e+06 -7.485363e+02 -4.300778e+03
3.329587e+06 -9.780766e+02 -2.614555e+03
3.326685e+06 -1.089342e+03 2.389116e+03
3.265461e+06 -8.073047e+02 -1.717566e+03
3.266020e+06 -8.200666e+02 -1.900319e+03
3.328209e+06 -7.888715e+02 -4.193724e+03
3.325295e+06 -1.141621e+03 2.319687e+03
3.266058e+06 -7.203337e+02 -1.819530e+03
3.266709e+06 -7.148067e+02 -1.988365e+03
3.326784e+06 -8.292342e+02 -4.081395e+03
3.326689e+06 -1.081904e+03 -2.480269e+03
3.323947e+06 -1.193918e+03 2.247139e+03
3.266687e+06 -6.333716e+02 -1.909954e+03
3.267429e+06 -6.093431e+02 2.063842e+03
3.325399e+06 -8.696178e+02 -3.963792e+03
3.325300e+06 -1.133858e+03 -2.408274e+03
3.322643e+06 -1.246228e+03 2.171470e+03
3.267346e+06 -5.464184e+02 -1.988832e+03
3.268164e+06 -5.042938e+02 -2.128430e+03
3.324056e+06 -9.100170e+02 -3.840915e+03
3.323952e+06 -1.185830e+03 -2.333043e+03
3.321384e+06 -1.298550e+03 2.092680e+03
3.268030e+06 -4.594814e+02 -2.056160e+03
3.268923e+06 -3.990804e+02 -2.180457e+03
3.322757e+06 -9.504278e+02 -3.712767e+03
3.322648e+06 -1.237815e+03 -2.254574e+03
3.320173e+06 -1.350884e+03 2.010768e+03
3.268734e+06 -3.725783e+02 -2.111934e+03
3.269696e+06 -2.939582e+02 -2.220504e+03
3.321503e+06 -9.908476e+02 -3.579347e+03
3.321389e+06 -1.289812e+03 -2.172869e+03
3.319011e+06 -1.403231e+03 1.925734e+03
3.269456e+06 -2.857425e+02 -2.156159e+03
3.270481e+06 -1.890136e+02 -2.248612e+03
3.320296e+06 -1.031275e+03 -3.440657e+03
3.320178e+06 -1.341821e+03 -2.087926e+03
3.317899e+06 -1.455596e+03 1.837574e+03
3.270191e+06 -1.990281e+02 -2.188850e+03
3.271273e+06 -8.438077e+01 -2.264851e+03
3.319139e+06 -1.071709e+03 -3.296695e+03
3.319016e+06 -1.393844e+03 -1.999744e+03
3.316840e+06 -1.507980e+03 1.746287e+03
3.270935e+06 -1.125194e+02 -2.210044e+03
3.272069e+06 1.974267e+01 -2.269336e+03
3.271684e+06 -2.634104e+01 -2.219804e+03
3.272864e+06 1.230741e+02 -2.262241e+03
3.313996e+06 -1.665325e+03 1.453618e+03
3.316845e+06 -1.497958e+03 -1.813659e+03
3.272436e+06 5.932778e+01 -2.218239e+03
3.273655e+06 2.252199e+02 -2.243820e+03
3.315034e+06 -1.233528e+03 -2.668069e+03
3.315683e+06 -1.441175e+03 -1.606439e+03
3.313164e+06 -1.717863e+03 1.349770e+03
3.273185e+06 1.442358e+02 -2.205512e+03
3.273660e+06 2.254094e+02 2.243291e+03
3.274437e+06 3.256488e+02 -2.214434e+03
3.314148e+06 -1.274014e+03 -2.497689e+03
3.314001e+06 -1.654308e+03 -1.510154e+03
3.312395e+06 -1.770463e+03 1.242764e+03
3.273928e+06 2.280386e+02 -2.181869e+03
3.274442e+06 3.258283e+02 2.213918e+03
3.275207e+06 4.236538e+02 -2.174570e+03
3.313322e+06 -1.314520e+03 -2.321997e+03
3.313170e+06 -1.706513e+03 -1.402460e+03
3.311688e+06 -1.823132e+03 1.132589e+03
3.274662e+06 3.102732e+02 -2.147653e+03
3.275961e+06 5.183163e+02 -2.124874e+03
3.312557e+06 -1.355047e+03 -2.140979e+03
3.311046e+06 -1.875874e+03 1.019236e+03
3.275383e+06 3.903261e+02 -2.103331e+03
3.311855e+06 -1.395598e+03 -1.954620e+03
3.310471e+06 -1.928688e+03 9.026953e+02
3.276087e+06 4.673986e+02 -2.049518e+03
3.311218e+06 -1.436175e+03 -1.762901e+03
3.311052e+06 -1.863525e+03 -1.059687e+03
3.309964e+06 -1.981562e+03 7.829606e+02
3.276772e+06 5.404716e+02 -1.986986e+03
3.310648e+06 -1.476773e+03 -1.565802e+03
3.310477e+06 -1.916003e+03 -9.388310e+02
3.309528e+06 -2.034467e+03 6.600307e+02
3.277434e+06 6.082726e+02 -1.916655e+03
3.278744e+06 8.366963e+02 1.846180e+03
3.310147e+06 -1.517383e+03 -1.363303e+03
3.309971e+06 -1.968540e+03 -8.146612e+02
3.309164e+06 -2.087349e+03 5.339125e+02
3.278072e+06 6.692624e+02 -1.839555e+03
3.279357e+06 8.925169e+02 -1.762500e+03
3.309716e+06 -1.557984e+03 -1.155390e+03
3.309535e+06 -2.021105e+03 -6.871750e+02
3.308874e+06 -2.140114e+03 4.046262e+02
3.278682e+06 7.216829e+02 -1.756731e+03
3.279942e+06 9.356580e+02 -1.674532e+03
3.309357e+06 -1.598540e+03 -9.420528e+02
3.309171e+06 -2.073645e+03 -5.563782e+02
3.308661e+06 -2.192617e+03 2.722133e+02
3.279264e+06 7.637492e+02 -1.669125e+03
3.280490e+06 9.652175e+02 -1.582864e+03
3.309072e+06 -1.638991e+03 -7.232949e+02
3.308881e+06 -2.126069e+03 -4.222896e+02
3.308524e+06 -2.244636e+03 1.367443e+02
3.279815e+06 7.940968e+02 -1.577483e+03
3.281001e+06 9.813241e+02 -1.487630e+03
3.308863e+06 -1.679245e+03 -4.991414e+02
3.308667e+06 -2.178229e+03 -2.849489e+02
3.308468e+06 -2.295847e+03 -1.668556e+00
3.280335e+06 8.123055e+02 -1.482405e+03
3.281474e+06 9.849927e+02 -1.389206e+03
3.280822e+06 8.190900e+02 -1.384516e+03
3.281909e+06 9.778604e+02 -1.288403e+03
3.308793e+06 -2.439169e+03 -4.324930e+02
3.308475e+06 -2.280784e+03 -8.313765e-01
3.281275e+06 8.159853e+02 -1.284622e+03
3.282304e+06 9.617996e+02 -1.186328e+03
3.308820e+06 -1.834427e+03 4.494719e+02
3.309072e+06 -2.480633e+03 -5.801517e+02
3.308600e+06 -2.393854e+03 -2.865773e+02
3.281695e+06 8.048031e+02 -1.183708e+03
3.282663e+06 9.386250e+02 -1.084170e+03
3.309017e+06 -1.869991e+03 6.984890e+02
3.309439e+06 -2.516822e+03 -7.289687e+02
3.282080e+06 7.872561e+02 -1.082836e+03
3.282984e+06 9.099457e+02 -9.830402e+02
3.309299e+06 -1.903059e+03 9.513905e+02
3.309079e+06 -2.464444e+03 5.997190e+02
3.309895e+06 -2.545974e+03 -8.782190e+02
3.282431e+06 7.648170e+02 -9.830227e+02
3.282990e+06 9.101281e+02 9.831161e+02
3.283271e+06 8.771139e+02 -8.838994e+02
3.309668e+06 -1.932671e+03 1.207447e+03
3.309446e+06 -2.500444e+03 7.543692e+02
3.310441e+06 -2.565988e+03 -1.027052e+03
3.282749e+06 7.386922e+02 -8.851622e+02
3.283276e+06 8.773113e+02 8.839985e+02
3.283524e+06 8.412241e+02 -7.875318e+02
3.310126e+06 -1.957585e+03 1.465714e+03
3.309902e+06 -2.529472e+03 9.095635e+02
3.311077e+06 -2.574481e+03 -1.174539e+03
3.283033e+06 7.098424e+02 -7.899964e+02
3.283745e+06 8.031358e+02 -6.945515e+02
3.310672e+06 -1.976220e+03 1.725020e+03
3.310448e+06 -2.549440e+03 1.064432e+03
3.311803e+06 -2.568936e+03 -1.319778e+03
3.283287e+06 6.790157e+02 -6.981108e+02
3.283940e+06 7.637439e+02 6.055637e+02
3.311307e+06 -1.986617e+03 1.983988e+03
3.311084e+06 -2.557974e+03 1.218021e+03
3.312618e+06 -2.546967e+03 -1.462034e+03
3.283509e+06 6.467848e+02 -6.099512e+02
3.284096e+06 7.228365e+02 -5.204892e+02
3.312030e+06 -1.986439e+03 2.241123e+03
3.311810e+06 -2.552561e+03 1.369390e+03
3.313521e+06 -2.506688e+03 -1.600883e+03
3.283703e+06 6.135805e+02 -5.258453e+02
3.284231e+06 6.814816e+02 -4.399914e+02
3.312842e+06 -1.973092e+03 2.494956e+03
3.312625e+06 -2.530811e+03 1.517761e+03
3.314509e+06 -2.447051e+03 -1.736202e+03
3.283868e+06 5.797214e+02 -4.460255e+02
3.284339e+06 6.397025e+02 -3.640977e+02
3.313739e+06 -1.944122e+03 2.744230e+03
3.313528e+06 -2.490828e+03 1.662663e+03
3.315582e+06 -2.368049e+03 -1.867989e+03
3.284007e+06 5.454381e+02 -3.706515e+02
3.284423e+06 5.976790e+02 -2.929199e+02
3.314722e+06 -1.897974e+03 2.987969e+03
3.314516e+06 -2.431556e+03 1.803925e+03
3.316736e+06 -2.270723e+03 -1.996121e+03
3.284122e+06 5.108941e+02 -2.998283e+02
3.284485e+06 5.555326e+02 -2.265285e+02
3.284213e+06 4.762021e+02 -2.336222e+02
3.284526e+06 5.133415e+02 -1.649655e+02
3.320660e+06 -1.889717e+03 -2.352854e+03
3.316742e+06 -2.256164e+03 2.075215e+03
3.284282e+06 4.414378e+02 -1.720707e+02
3.284548e+06 4.711533e+02 -1.082538e+02
3.319458e+06 -1.560854e+03 3.887984e+03
3.319051e+06 -1.906513e+03 2.206978e+03
3.322110e+06 -1.741175e+03 -2.459629e+03
3.284332e+06 4.066493e+02 -1.151935e+02
3.284552e+06 4.289945e+02 -5.640288e+01
3.320828e+06 -1.449944e+03 4.087615e+03
3.320666e+06 -1.877285e+03 2.447058e+03
3.323623e+06 -1.585584e+03 -2.558839e+03
3.284362e+06 3.718654e+02 -6.299796e+01
3.284540e+06 3.868768e+02 -9.414763e+00
3.322265e+06 -1.332796e+03 4.274198e+03
3.325194e+06 -1.424719e+03 -2.649732e+03
3.284376e+06 3.371020e+02 -1.548373e+01
3.284514e+06 3.448026e+02 3.271302e+01
3.323765e+06 -1.211003e+03 4.446517e+03
3.326818e+06 -1.260009e+03 -2.731699e+03
3.284375e+06 3.023655e+02 2.735309e+01
3.284474e+06 3.027687e+02 6.998508e+01
3.325322e+06 -1.085827e+03 4.603586e+03
3.325199e+06 -1.415081e+03 2.755871e+03
3.328488e+06 -1.092577e+03 -2.804260e+03
3.284359e+06 2.676568e+02 6.551825e+01
3.326931e+06 -9.582391e+02 4.744632e+03
3.326822e+06 -1.251401e+03 2.841034e+03
3.330200e+06 -9.232729e+02 -2.867052e+03
3.284332e+06 2.329727e+02 9.901815e+01
3.284428e+06 2.610250e+02 -1.022527e+02
3.328586e+06 -8.289775e+02 4.869068e+03
3.328492e+06 -1.085027e+03 2.916393e+03
3.331946e+06 -7.527318e+02 -2.919804e+03
3.284294e+06 1.983091e+02 1.278582e+02
3.284368e+06 2.190475e+02 -1.298290e+02
3.330282e+06 -6.985930e+02 4.976462e+03
3.330204e+06 -9.168017e+02 2.981581e+03
3.333722e+06 -5.814109e+02 -2.962319e+03
3.284247e+06 1.636599e+02 1.520431e+02
3.284246e+06 2.143457e+02 -8.059043e+01
3.284223e+06 1.351344e+02 -1.704599e+02
3.332013e+06 -5.674895e+02 5.066504e+03
3.331950e+06 -7.473537e+02 3.036329e+03
3.335520e+06 -4.096317e+02 -2.994458e+03
3.284192e+06 1.290200e+02 1.715761e+02
3.284138e+06 9.293209e+01 1.836748e+02
3.333773e+06 -4.359562e+02 5.138973e+03
3.333725e+06 -5.771345e+02 3.080440e+03
3.337335e+06 -2.376125e+02 -3.016123e+03
3.284132e+06 9.438468e+01 1.864592e+02
3.284054e+06 5.098140e+01 1.919023e+02
3.335556e+06 -3.041954e+02 5.193715e+03
3.335523e+06 -4.064626e+02 3.113775e+03
3.339161e+06 -6.549257e+01 -3.027243e+03
3.284067e+06 5.975124e+01 1.966941e+02
3.283968e+06 9.029508e+00 1.952999e+02
3.337355e+06 -1.723446e+02 5.230623e+03
3.337338e+06 -2.355528e+02 3.136237e+03
3.340992e+06 1.066359e+02 -3.027770e+03
3.283999e+06 2.511863e+01 2.022818e+02
3.283881e+06 -3.291735e+01 1.938724e+02
3.283931e+06 -9.509667e+00 2.032240e+02
3.283796e+06 -7.484570e+01 1.876287e+02
3.346447e+06 6.227685e+02 -2.965474e+03
3.339164e+06 -6.454433e+01 3.147758e+03
3.283863e+06 -4.412540e+01 1.995244e+02
3.283714e+06 -1.167300e+02 1.765837e+02
3.344598e+06 3.546565e+02 5.198678e+03
3.348233e+06 7.947188e+02 -2.923337e+03
3.344641e+06 4.507752e+02 -2.996911e+03
3.283797e+06 -7.871356e+01 1.911899e+02
3.283636e+06 -1.585299e+02 1.607615e+02
3.346388e+06 4.861924e+02 5.145598e+03
3.346448e+06 6.192487e+02 3.083649e+03
3.349991e+06 9.666549e+02 -2.870480e+03
3.283734e+06 -1.132487e+02 1.782337e+02
3.283564e+06 -2.001841e+02 1.402003e+02
3.348158e+06 6.176482e+02 5.074410e+03
3.348233e+06 7.900772e+02 3.039937e+03
3.351717e+06 1.138599e+03 -2.806883e+03
3.283677e+06 -1.476928e+02 1.606779e+02
3.283500e+06 -2.416031e+02 1.149573e+02
3.349902e+06 7.490381e+02 4.985082e+03
3.349992e+06 9.608899e+02 2.985111e+03
3.353403e+06 1.310578e+03 -2.732524e+03
3.283627e+06 -1.819891e+02 1.385578e+02
3.283445e+06 -2.826612e+02 8.511571e+01
3.351612e+06 8.803800e+02 4.877580e+03
3.351717e+06 1.131710e+03 2.919149e+03
3.355043e+06 1.482616e+03 -2.647384e+03
3.283584e+06 -2.160572e+02 1.119277e+02
3.283400e+06 -3.231857e+02 5.079301e+01
3.353282e+06 1.011695e+03 4.751865e+03
3.353402e+06 1.302564e+03 2.842029e+03
3.356630e+06 1.654732e+03 -2.551442e+03
3.283552e+06 -2.497862e+02 8.086684e+01
3.283368e+06 -3.629449e+02 1.215059e+01
3.354907e+06 1.143001e+03 4.607898e+03
3.355042e+06 1.473475e+03 2.753730e+03
3.358159e+06 1.826930e+03 -2.444683e+03
3.283531e+06 -2.830249e+02 4.548779e+01
3.283350e+06 -4.016353e+02 -3.059706e+01
3.356479e+06 1.274315e+03 4.445638e+03
3.356629e+06 1.644461e+03 2.654231e+03
3.359623e+06 1.999196e+03 -2.327098e+03
3.283522e+06 -3.155719e+02 5.944990e+00
3.283354e+06 -4.013644e+02 3.072345e+01
3.283347e+06 -4.388684e+02 -7.717391e+01
3.357992e+06 1.405646e+03 4.265048e+03
3.358158e+06 1.815527e+03 2.543515e+03
3.361014e+06 2.171481e+03 -2.198689e+03
3.283528e+06 -3.471628e+02 -3.755693e+01
3.283352e+06 -4.385918e+02 7.728971e+01
3.283361e+06 -4.741625e+02 -1.272387e+02
3.359440e+06 1.536990e+03 4.066094e+03
3.359621e+06 1.986659e+03 2.421572e+03
3.362328e+06 2.343689e+03 -2.059478e+03
3.283549e+06 -3.774580e+02 -8.475629e+01
3.283394e+06 -5.069378e+02 -1.803906e+02
3.360816e+06 1.668327e+03 3.848755e+03
3.361012e+06 2.157809e+03 2.288401e+03
3.363556e+06 2.515651e+03 -1.909516e+03
3.283587e+06 -4.060288e+02 -1.353345e+02
3.283446e+06 -5.365340e+02 -2.361941e+02
3.362114e+06 1.799605e+03 3.613027e+03
3.362325e+06 2.328881e+03 2.144023e+03
3.364694e+06 2.687099e+03 -1.748895e+03
3.283642e+06 -4.323484e+02 -1.889238e+02
3.283519e+06 -5.622541e+02 -2.942290e+02
3.363328e+06 1.930731e+03 3.358936e+03
3.363553e+06 2.499708e+03 1.988485e+03
3.365733e+06 2.857616e+03 -1.577768e+03
3.283716e+06 -4.557966e+02 -2.451333e+02
3.283614e+06 -5.834646e+02 -3.541704e+02
3.283809e+06 -4.757020e+02 -3.035904e+02
3.283731e+06 -5.997361e+02 -4.158512e+02
3.368201e+06 3.356238e+03 -1.004281e+03
3.365730e+06 2.839429e+03 1.644355e+03
3.283923e+06 -4.914621e+02 -3.639842e+02
3.283871e+06 -6.109577e+02 -4.792171e+02
3.367205e+06 2.449082e+03 2.161624e+03
3.368786e+06 3.514118e+03 -7.947486e+02
3.367493e+06 3.193204e+03 -1.205044e+03
3.284058e+06 -5.027416e+02 -4.260741e+02
3.284035e+06 -6.173631e+02 -5.441862e+02
3.367899e+06 2.574832e+03 1.818678e+03
3.368197e+06 3.334827e+03 1.049152e+03
3.369243e+06 3.664772e+03 -5.773291e+02
3.284213e+06 -5.096187e+02 -4.896426e+02
3.284223e+06 -6.194721e+02 -6.105329e+02
3.368470e+06 2.697409e+03 1.459542e+03
3.369565e+06 3.805565e+03 -3.531437e+02
3.284391e+06 -5.125479e+02 -5.544264e+02
3.284434e+06 -6.179562e+02 -6.778871e+02
3.368914e+06 2.815451e+03 1.085310e+03
3.369238e+06 3.641457e+03 6.056460e+02
3.369748e+06 3.933272e+03 -1.235527e+02
3.284591e+06 -5.121779e+02 -6.200887e+02
3.284670e+06 -6.135073e+02 -7.458152e+02
3.369226e+06 2.927166e+03 6.974258e+02
3.369560e+06 3.781435e+03 3.725894e+02
3.369788e+06 4.044111e+03 1.098945e+02
3.284814e+06 -5.091697e+02 -6.862444e+02
3.369400e+06 3.030225e+03 2.977249e+02
3.369743e+06 3.908448e+03 1.337603e+02
3.369682e+06 4.133917e+03 3.455864e+02
3.285059e+06 -5.041113e+02 -7.525076e+02
3.369432e+06 3.121681e+03 -1.115701e+02
3.369783e+06 4.018736e+03 -1.092531e+02
3.369428e+06 4.198497e+03 5.820696e+02
3.285326e+06 -4.974936e+02 -8.185262e+02
3.369321e+06 3.197914e+03 -5.279388e+02
3.369677e+06 4.108145e+03 -3.547852e+02
3.369024e+06 4.234192e+03 8.183213e+02
3.285616e+06 -4.897116e+02 -8.840019e+02
3.285849e+06 -5.774310e+02 1.015408e+03
3.369064e+06 3.254711e+03 -9.487682e+02
3.369423e+06 4.172483e+03 -6.013140e+02
3.368471e+06 4.238522e+03 1.053882e+03
3.285928e+06 -4.810758e+02 -9.486946e+02
3.286194e+06 -5.662526e+02 -1.080996e+03
3.368659e+06 3.287678e+03 -1.371663e+03
3.369019e+06 4.208079e+03 -8.477386e+02
3.367770e+06 4.210666e+03 1.288673e+03
3.286261e+06 -4.718269e+02 -1.012419e+03
3.286198e+06 -5.659992e+02 1.080892e+03
3.286565e+06 -5.543522e+02 -1.145344e+03
3.368106e+06 3.293296e+03 -1.794699e+03
3.368466e+06 4.212440e+03 -1.093519e+03
3.366921e+06 4.151618e+03 1.522599e+03
3.286617e+06 -4.621462e+02 -1.075038e+03
3.286570e+06 -5.541012e+02 1.145236e+03
3.286957e+06 -5.421406e+02 -1.208447e+03
3.367406e+06 3.270278e+03 -2.216347e+03
3.367765e+06 4.184736e+03 -1.338498e+03
3.365924e+06 4.064004e+03 1.755151e+03
3.286993e+06 -4.521695e+02 -1.136452e+03
3.287370e+06 -5.297308e+02 -1.270232e+03
3.287390e+06 -4.419964e+02 -1.196592e+03
3.287803e+06 -5.172017e+02 -1.330653e+03
3.362080e+06 3.668977e+03 2.432174e+03
3.287808e+06 -4.316984e+02 -1.255413e+03
3.288255e+06 -5.046070e+02 -1.389678e+03
3.363159e+06 2.946604e+03 -3.851952e+03
3.363495e+06 3.794603e+03 -2.300168e+03
3.360528e+06 3.506700e+03 2.645849e+03
3.288245e+06 -4.213255e+02 -1.312886e+03
3.288727e+06 -4.919831e+02 -1.447287e+03
3.361750e+06 2.827842e+03 -4.236148e+03
3.362075e+06 3.645966e+03 -2.529778e+03
3.358849e+06 3.334836e+03 2.851176e+03
3.288702e+06 -4.109118e+02 -1.368993e+03
3.289217e+06 -4.793523e+02 -1.503471e+03
3.360210e+06 2.700635e+03 -4.605801e+03
3.360523e+06 3.484679e+03 -2.751933e+03
3.357051e+06 3.155959e+03 3.047076e+03
3.289177e+06 -4.004799e+02 -1.423726e+03
3.289726e+06 -4.667281e+02 -1.558225e+03
3.358546e+06 2.567244e+03 -4.959141e+03
3.358845e+06 3.313902e+03 -2.965290e+03
3.355139e+06 2.972088e+03 3.232708e+03
3.289671e+06 -3.900438e+02 -1.477081e+03
3.290257e+06 -4.538724e+02 1.611435e+03
3.356762e+06 2.429410e+03 -5.294796e+03
3.357047e+06 3.136183e+03 -3.168759e+03
3.353122e+06 2.784762e+03 3.407440e+03
3.290183e+06 -3.796119e+02 -1.529058e+03
3.290795e+06 -4.415228e+02 -1.663438e+03
3.354867e+06 2.288448e+03 -5.611741e+03
3.355136e+06 2.953520e+03 -3.361492e+03
3.351006e+06 2.595124e+03 3.570820e+03
3.290713e+06 -3.691883e+02 -1.579657e+03
3.291361e+06 -4.286978e+02 1.713788e+03
3.352866e+06 2.145329e+03 -5.909244e+03
3.353119e+06 2.767438e+03 -3.542856e+03
3.348799e+06 2.404001e+03 3.722533e+03
3.291260e+06 -3.587750e+02 -1.628882e+03
3.291933e+06 -4.163805e+02 -1.762935e+03
3.350766e+06 2.000760e+03 -6.186805e+03
3.351003e+06 2.579066e+03 -3.712397e+03
3.346507e+06 2.211973e+03 3.862372e+03
3.291823e+06 -3.483714e+02 -1.676735e+03
3.292525e+06 -4.038284e+02 -1.810545e+03
3.348576e+06 1.855243e+03 -6.444099e+03
3.348796e+06 2.389222e+03 -3.869805e+03
3.344138e+06 2.019435e+03 3.990211e+03
3.292403e+06 -3.379766e+02 -1.723218e+03
3.346301e+06 1.709125e+03 -6.680933e+03
3.346505e+06 2.198479e+03 -4.014875e+03
3.341700e+06 1.826647e+03 4.105979e+03
3.292998e+06 -3.275891e+02 -1.768333e+03
3.343949e+06 1.562639e+03 -6.897208e+03
3.344136e+06 2.007228e+03 -4.147484e+03
3.339199e+06 1.633765e+03 4.209648e+03
3.293609e+06 -3.172073e+02 -1.812081e+03
3.341528e+06 1.415933e+03 -7.092890e+03
3.341698e+06 1.815723e+03 -4.267564e+03
3.336644e+06 1.440888e+03 4.301214e+03
3.294234e+06 -3.068296e+02 -1.854463e+03
3.294400e+06 -3.659633e+02 1.944726e+03
3.295047e+06 -3.536845e+02 -1.986759e+03
3.294874e+06 -2.964544e+02 -1.895481e+03
3.295052e+06 -3.534309e+02 1.986647e+03
3.295712e+06 -3.411539e+02 -2.027260e+03
3.328718e+06 8.625327e+02 4.503516e+03
3.295527e+06 -2.860815e+02 -1.935133e+03
3.295246e+06 -3.467385e+02 1.118754e+03
3.296391e+06 -3.286257e+02 -2.066341e+03
3.331293e+06 8.281486e+02 -7.670258e+03
3.332498e+06 1.051481e+03 -4.444502e+03
3.326014e+06 6.698246e+02 4.546921e+03
3.296194e+06 -2.757104e+02 -1.973419e+03
3.297083e+06 -3.161023e+02 -2.104004e+03
3.328633e+06 6.810357e+02 -7.763553e+03
3.328719e+06 8.579885e+02 -4.679927e+03
3.323291e+06 4.771085e+02 4.578372e+03
3.296874e+06 -2.653438e+02 -2.010340e+03
3.297787e+06 -3.035887e+02 -2.140250e+03
3.325946e+06 5.338343e+02 -7.836563e+03
3.326015e+06 6.665453e+02 -4.724961e+03
3.320554e+06 2.843598e+02 4.597903e+03
3.297567e+06 -2.549843e+02 -2.045897e+03
3.298502e+06 -2.910939e+02 -2.175086e+03
3.323240e+06 3.865254e+02 -7.889354e+03
3.323292e+06 4.750912e+02 -4.757599e+03
3.317813e+06 9.155175e+01 4.605547e+03
3.298272e+06 -2.446376e+02 -2.080091e+03
3.299229e+06 -2.786334e+02 -2.208519e+03
3.320521e+06 2.390908e+02 -7.921993e+03
3.320556e+06 2.835992e+02 -4.777878e+03
3.315073e+06 -1.013364e+02 4.601340e+03
3.298988e+06 -2.343129e+02 -2.112928e+03
3.299968e+06 -2.662288e+02 -2.240561e+03
3.317797e+06 9.151284e+01 -7.934540e+03
3.317815e+06 9.204398e+01 -4.785832e+03
3.312341e+06 -2.943132e+02 4.585316e+03
3.299715e+06 -2.240241e+02 -2.144413e+03
3.300721e+06 -2.536562e+02 2.271123e+03
3.315075e+06 -5.622089e+01 -7.927053e+03
3.315075e+06 -9.959416e+01 -4.781497e+03
3.309624e+06 -4.873689e+02 4.557515e+03
3.300453e+06 -2.137912e+02 -2.174561e+03
3.301475e+06 -2.417253e+02 -2.300565e+03
3.312360e+06 -2.041144e+02 -7.899588e+03
3.312343e+06 -2.913234e+02 -4.764906e+03
3.306928e+06 -6.804662e+02 4.517980e+03
3.301202e+06 -2.036420e+02 -2.203388e+03
3.302243e+06 -2.297303e+02 -2.328594e+03
3.309661e+06 -3.521604e+02 -7.852201e+03
3.309627e+06 -4.831340e+02 -4.736100e+03
3.304262e+06 -8.735273e+02 4.466770e+03
3.301960e+06 -1.936152e+02 -2.230923e+03
3.306983e+06 -5.003330e+02 -7.784952e+03
3.301630e+06 -1.066416e+03 4.403962e+03
3.302727e+06 -1.837631e+02 -2.257204e+03
3.304335e+06 -6.485810e+02 -7.697912e+03
3.299041e+06 -1.258919e+03 4.329663e+03
3.303504e+06 -1.741542e+02 -2.282283e+03
3.304604e+06 -1.955579e+02 2.405414e+03
3.301721e+06 -7.968166e+02 -7.591169e+03
3.301635e+06 -1.058466e+03 -4.576900e+03
3.296500e+06 -1.450712e+03 4.244020e+03
3.304289e+06 -1.648789e+02 -2.306231e+03
3.305401e+06 -1.856263e+02 -2.429072e+03
3.299149e+06 -9.449011e+02 -7.464842e+03
3.299046e+06 -1.249742e+03 -4.499836e+03
3.294014e+06 -1.641318e+03 4.147240e+03
3.305082e+06 -1.560520e+02 -2.329134e+03
3.306209e+06 -1.762963e+02 -2.451785e+03
3.305883e+06 -1.478174e+02 -2.351094e+03
3.307025e+06 -1.680262e+02 -2.473787e+03
3.286950e+06 -2.198151e+03 3.793481e+03
3.294020e+06 -1.629758e+03 -4.310561e+03
3.306692e+06 -1.403488e+02 -2.372227e+03
3.307030e+06 -1.677762e+02 2.473701e+03
3.307848e+06 -1.610200e+02 -2.495190e+03
3.289411e+06 -1.530019e+03 -6.768134e+03
3.290812e+06 -1.743579e+03 -4.009106e+03
3.284748e+06 -2.374676e+03 3.656173e+03
3.307508e+06 -1.338440e+02 -2.392651e+03
3.307853e+06 -1.607695e+02 2.495109e+03
3.308677e+06 -1.554405e+02 -2.516069e+03
3.287145e+06 -1.671899e+03 -6.548125e+03
3.286957e+06 -2.183112e+03 -3.943189e+03
3.282630e+06 -2.543688e+03 3.510441e+03
3.308331e+06 -1.285006e+02 -2.412468e+03
3.309512e+06 -1.513697e+02 -2.536450e+03
3.284958e+06 -1.810288e+03 -6.311144e+03
3.284754e+06 -2.358579e+03 -3.800459e+03
3.280604e+06 -2.702746e+03 3.357314e+03
3.309161e+06 -1.244652e+02 -2.431758e+03
3.310353e+06 -1.487831e+02 -2.556350e+03
3.282855e+06 -1.943819e+03 -6.058275e+03
3.282638e+06 -2.526611e+03 -3.648881e+03
3.278674e+06 -2.848975e+03 3.197973e+03
3.309998e+06 -1.217737e+02 -2.450590e+03
3.311200e+06 -1.475582e+02 -2.575815e+03
3.280842e+06 -2.070741e+03 -5.790887e+03
3.280612e+06 -2.684784e+03 -3.489501e+03
3.276843e+06 -2.979153e+03 3.033682e+03
3.310842e+06 -1.203354e+02 -2.469034e+03
3.312053e+06 -1.475080e+02 -2.594941e+03
3.278924e+06 -2.188848e+03 -5.510638e+03
3.278681e+06 -2.830238e+03 -3.323528e+03
3.275116e+06 -3.089935e+03 2.865640e+03
3.311691e+06 -1.199723e+02 -2.487182e+03
3.277103e+06 -2.295435e+03 -5.219432e+03
3.276851e+06 -2.959765e+03 -3.152263e+03
3.273494e+06 -3.178210e+03 2.694788e+03
3.312548e+06 -1.204820e+02 -2.505146e+03
3.275384e+06 -2.387318e+03 -4.919299e+03
3.275124e+06 -3.070018e+03 -2.976956e+03
3.271979e+06 -3.241589e+03 2.521641e+03
3.313410e+06 -1.216756e+02 -2.523044e+03
3.273768e+06 -2.461026e+03 -4.612185e+03
3.273502e+06 -3.157882e+03 -2.798607e+03
3.270572e+06 -3.278833e+03 2.346330e+03
3.314280e+06 -1.233922e+02 -2.540988e+03
3.315531e+06 -1.548160e+02 2.670522e+03
3.272259e+06 -2.513379e+03 -4.299723e+03
3.269276e+06 -3.290078e+03 2.168849e+03
3.315155e+06 -1.255009e+02 -2.559077e+03
3.316410e+06 -1.581109e+02 -2.689808e+03
3.270857e+06 -2.542498e+03 -3.983175e+03
3.268089e+06 -3.276824e+03 1.989382e+03
3.316037e+06 -1.278979e+02 -2.577390e+03
3.317300e+06 -1.613738e+02 -2.709347e+03
3.269563e+06 -2.548592e+03 -3.663649e+03
3.269284e+06 -3.269113e+03 -2.249410e+03
3.267014e+06 -3.241640e+03 1.808519e+03
3.316925e+06 -1.305029e+02 -2.595990e+03
3.318197e+06 -1.647967e+02 -2.729231e+03
3.317821e+06 -1.332546e+02 -2.614925e+03
3.319101e+06 -1.683275e+02 -2.749496e+03
3.264445e+06 -3.036881e+03 1.268319e+03
3.267023e+06 -3.220785e+03 -1.873563e+03
3.318723e+06 -1.361070e+02 -2.634229e+03
3.320012e+06 -1.719275e+02 -2.770169e+03
3.265475e+06 -2.397915e+03 -2.386858e+03
3.266264e+06 -2.870315e+03 -1.489919e+03
3.263801e+06 -2.945895e+03 1.093010e+03
3.319632e+06 -1.390261e+02 -2.653929e+03
3.320930e+06 -1.755707e+02 -2.791266e+03
3.264720e+06 -2.332143e+03 -2.077375e+03
3.264453e+06 -3.017032e+03 -1.311185e+03
3.263259e+06 -2.847801e+03 9.218051e+02
3.320548e+06 -1.419883e+02 -2.674039e+03
3.321855e+06 -1.792393e+02 -2.812800e+03
3.264070e+06 -2.260043e+03 -1.775194e+03
3.263809e+06 -2.926573e+03 -1.128933e+03
3.262815e+06 -2.744491e+03 7.554808e+02
3.321471e+06 -1.449768e+02 -2.694571e+03
3.321861e+06 -1.789650e+02 2.812764e+03
3.322788e+06 -1.829193e+02 -2.834780e+03
3.263519e+06 -2.183268e+03 -1.481564e+03
3.263267e+06 -2.829079e+03 -9.510476e+02
3.262465e+06 -2.637449e+03 5.946396e+02
3.322402e+06 -1.479797e+02 -2.715535e+03
3.322794e+06 -1.826441e+02 2.834742e+03
3.323729e+06 -1.866034e+02 -2.857208e+03
3.263067e+06 -2.103097e+03 -1.197448e+03
3.262823e+06 -2.726420e+03 -7.783111e+02
3.262207e+06 -2.527814e+03 4.397332e+02
3.323340e+06 -1.509891e+02 -2.736932e+03
3.324677e+06 -1.902895e+02 -2.880090e+03
3.262708e+06 -2.020509e+03 -9.235607e+02
3.262474e+06 -2.620067e+03 -6.113299e+02
3.262036e+06 -2.416434e+03 2.910894e+02
3.324286e+06 -1.540011e+02 -2.758765e+03
3.262440e+06 -1.936237e+03 -6.604154e+02
3.261949e+06 -2.303929e+03 1.489379e+02
3.325240e+06 -1.570137e+02 -2.781037e+03
3.262259e+06 -1.850822e+03 -4.083656e+02
3.262044e+06 -2.400497e+03 -2.963172e+02
3.261940e+06 -2.190738e+03 1.343390e+01
3.326202e+06 -1.600264e+02 -2.803750e+03
3.262161e+06 -1.764656e+03 -1.676444e+02
3.261956e+06 -2.288732e+03 -1.488398e+02
3.262008e+06 -2.077166e+03 -1.153225e+02
3.327172e+06 -1.630387e+02 -2.826903e+03
3.328556e+06 -2.047639e+02 2.976148e+03
3.262143e+06 -1.678019e+03 6.160298e+01
3.262146e+06 -1.963414e+03 -2.372708e+02
3.328150e+06 -1.660524e+02 -2.850499e+03
3.329540e+06 -2.087363e+02 -3.001361e+03
3.262199e+06 -1.591103e+03 2.792938e+02
3.262353e+06 -1.849609e+03 -3.523775e+02
3.329137e+06 -1.690689e+02 -2.874539e+03
3.330539e+06 -2.124437e+02 -3.027001e+03
3.262328e+06 -1.504040e+03 4.853877e+02
3.262153e+06 -1.950452e+03 2.517552e+02
3.262623e+06 -1.735828e+03 -4.606271e+02
3.330132e+06 -1.720905e+02 -2.899025e+03
3.331546e+06 -2.161644e+02 -3.053110e+03
3.262524e+06 -1.416912e+03 6.798710e+02
3.262360e+06 -1.837391e+03 3.711345e+02
3.262953e+06 -1.622109e+03 -5.620151e+02
3.331137e+06 -1.751190e+02 -2.923961e+03
3.332562e+06 -2.199011e+02 -3.079690e+03
3.332150e+06 -1.781565e+02 -2.949349e+03
3.333587e+06 -2.236556e+02 -3.106746e+03
3.264263e+06 -1.281399e+03 -8.250420e+02
3.262959e+06 -1.611370e+03 5.885420e+02
3.333172e+06 -1.812040e+02 -2.975194e+03
3.334622e+06 -2.274278e+02 -3.134279e+03
3.263906e+06 -1.068501e+03 1.341868e+03
3.263852e+06 -1.319261e+03 7.379345e+02
3.264794e+06 -1.167945e+03 -8.990218e+02
3.334204e+06 -1.842619e+02 -3.001499e+03
3.335666e+06 -2.312139e+02 -3.162292e+03
3.264382e+06 -9.814768e+02 1.478453e+03
3.264269e+06 -1.272877e+03 8.613217e+02
3.265365e+06 -1.054522e+03 -9.661606e+02
3.335245e+06 -1.873276e+02 -3.028268e+03
3.336720e+06 -2.350050e+02 -3.190783e+03
3.264902e+06 -8.944789e+02 1.603495e+03
3.264799e+06 -1.160156e+03 9.380451e+02
3.265972e+06 -9.411131e+02 -1.026460e+03
3.336296e+06 -1.903962e+02 -3.055504e+03
3.337784e+06 -2.387847e+02 -3.219747e+03
3.265463e+06 -8.075000e+02 1.716997e+03
3.265370e+06 -1.047466e+03 1.007673e+03
3.266613e+06 -8.277075e+02 -1.079922e+03
3.337357e+06 -1.934575e+02 -3.083205e+03
3.338858e+06 -2.425253e+02 -3.249171e+03
3.266060e+06 -7.205337e+02 1.818962e+03
3.265977e+06 -9.347913e+02 1.070209e+03
3.267282e+06 -7.143007e+02 -1.126547e+03
3.338427e+06 -1.964946e+02 -3.111367e+03
3.338863e+06 -2.422404e+02 3.249134e+03
3.266690e+06 -6.335763e+02 1.909386e+03
3.266617e+06 -8.221196e+02 1.125654e+03
3.267976e+06 -6.009011e+02 -1.166339e+03
3.339508e+06 -1.994787e+02 -3.139981e+03
3.339947e+06 -2.458919e+02 3.278992e+03
3.341036e+06 -2.496808e+02 -3.309288e+03
3.267348e+06 -5.466282e+02 1.988263e+03
3.267286e+06 -7.094475e+02 1.174007e+03
3.268690e+06 -4.875351e+02 -1.199305e+03
3.340599e+06 -2.023677e+02 -3.169024e+03
3.340089e+06 -2.417978e+02 1.843948e+03
3.268032e+06 -4.596968e+02 2.055591e+03
3.269423e+06 -3.742536e+02 -1.225459e+03
3.341701e+06 -2.050993e+02 -3.198456e+03
3.268737e+06 -3.727997e+02 2.111365e+03
3.270168e+06 -2.611427e+02 -1.244831e+03
3.342813e+06 -2.075849e+02 -3.228222e+03
3.344389e+06 -2.577497e+02 3.401615e+03
3.269458e+06 -2.859701e+02 2.155590e+03
3.269426e+06 -3.716062e+02 1.276573e+03
3.270922e+06 -1.483379e+02 -1.257465e+03
3.343936e+06 -2.097004e+02 -3.258234e+03
3.345521e+06 -2.594687e+02 -3.432546e+03
3.270193e+06 -1.992624e+02 2.188282e+03
3.270171e+06 -2.592295e+02 1.296648e+03
3.271682e+06 -3.603965e+01 -1.263433e+03
3.345069e+06 -2.112748e+02 -3.288365e+03
3.346670e+06 -2.596834e+02 -3.463109e+03
3.270937e+06 -1.127614e+02 2.209477e+03
3.270925e+06 -1.471567e+02 1.309727e+03
3.272444e+06 7.546517e+01 -1.262843e+03
3.346213e+06 -2.120793e+02 -3.318438e+03
3.347831e+06 -2.582492e+02 -3.493036e+03
3.271687e+06 -2.659130e+01 2.219241e+03
3.271685e+06 -3.558539e+01 1.315879e+03
3.273203e+06 1.857745e+02 -1.255852e+03
3.347368e+06 -2.118115e+02 -3.348217e+03
3.349003e+06 -2.546047e+02 -3.521930e+03
3.348534e+06 -2.100787e+02 -3.377399e+03
3.350187e+06 -2.480728e+02 -3.549318e+03
3.275428e+06 5.032276e+02 -1.199033e+03
3.273205e+06 1.848106e+02 1.307881e+03
3.349710e+06 -2.063822e+02 -3.405609e+03
3.351382e+06 -2.378774e+02 -3.574688e+03
3.274665e+06 3.099862e+02 2.147130e+03
3.274258e+06 3.165764e+02 1.261207e+03
3.276141e+06 6.014607e+02 -1.169423e+03
3.350895e+06 -2.001044e+02 -3.432413e+03
3.352588e+06 -2.232017e+02 -3.597544e+03
3.275386e+06 3.900289e+02 2.102832e+03
3.275430e+06 5.002663e+02 1.248478e+03
3.276833e+06 6.937889e+02 -1.135350e+03
3.352091e+06 -1.905157e+02 -3.457350e+03
3.353805e+06 -2.033100e+02 -3.617508e+03
3.276090e+06 4.670923e+02 2.049048e+03
3.277502e+06 7.786127e+02 -1.097450e+03
3.353294e+06 -1.768250e+02 -3.479979e+03
3.355031e+06 -1.777207e+02 -3.634391e+03
3.276775e+06 5.401567e+02 1.986551e+03
3.278145e+06 8.542008e+02 -1.056370e+03
3.354506e+06 -1.583338e+02 -3.499934e+03
3.356271e+06 -1.459839e+02 3.647914e+03
3.277438e+06 6.079486e+02 1.916262e+03
3.277504e+06 7.740459e+02 1.142087e+03
3.278760e+06 9.188439e+02 -1.012672e+03
3.355725e+06 -1.346811e+02 -3.516931e+03
3.357507e+06 -1.094778e+02 -3.658589e+03
3.278075e+06 6.689292e+02 1.839208e+03
3.278147e+06 8.492216e+02 1.098979e+03
3.279346e+06 9.710853e+02 -9.667336e+02
3.356949e+06 -1.060044e+02 -3.530705e+03
3.278686e+06 7.213410e+02 1.756434e+03
3.278762e+06 9.135151e+02 1.053085e+03
3.279901e+06 1.009974e+03 -9.187060e+02
3.358178e+06 -7.287732e+01 -3.540929e+03
3.279268e+06 7.634006e+02 1.668878e+03
3.279347e+06 9.654646e+02 1.004813e+03
3.280423e+06 1.035239e+03 -8.686014e+02
3.359410e+06 -3.607671e+01 -3.547190e+03
3.360014e+06 -2.168639e+01 3.668106e+03
3.279819e+06 7.937450e+02 1.577287e+03
3.279902e+06 1.004112e+03 9.543467e+02
3.280912e+06 1.047344e+03 -8.164556e+02
3.360644e+06 3.627366e+00 -3.549024e+03
3.361269e+06 2.728559e+01 3.666425e+03
3.362519e+06 7.842401e+01 -3.659992e+03
3.280339e+06 8.119552e+02 1.482259e+03
3.280424e+06 1.029187e+03 9.017314e+02
3.281366e+06 1.047396e+03 -7.624795e+02
3.361879e+06 4.556042e+01 -3.545970e+03
3.363773e+06 1.317955e+02 -3.647786e+03
3.280826e+06 8.187443e+02 1.384421e+03
3.280913e+06 1.041153e+03 8.470345e+02
3.281786e+06 1.036943e+03 -7.071109e+02
3.363112e+06 8.916669e+01 -3.537615e+03
3.365024e+06 1.865534e+02 -3.629723e+03
3.281279e+06 8.156458e+02 1.284575e+03
3.281368e+06 1.041126e+03 7.904996e+02
3.282170e+06 1.017720e+03 -6.509507e+02
3.364341e+06 1.340024e+02 -3.523615e+03
3.366268e+06 2.423036e+02 -3.605514e+03
3.281698e+06 8.044697e+02 1.183706e+03
3.281787e+06 1.030659e+03 7.325965e+02
3.282520e+06 9.914367e+02 -5.946555e+02
3.365565e+06 1.797235e+02 -3.503692e+03
3.367504e+06 2.987436e+02 -3.574938e+03
3.366781e+06 2.260669e+02 -3.477634e+03
3.368729e+06 3.556471e+02 -3.537832e+03
3.283367e+06 8.845844e+02 -4.308481e+02
3.282521e+06 9.853204e+02 6.152517e+02
3.367987e+06 2.728355e+02 -3.445284e+03
3.369941e+06 4.128497e+02 -3.494078e+03
3.283037e+06 7.095343e+02 7.901141e+02
3.282787e+06 8.567715e+02 4.908278e+02
3.283586e+06 8.432751e+02 -3.794662e+02
3.369182e+06 3.198843e+02 -3.406526e+03
3.371138e+06 4.702339e+02 -3.443591e+03
3.283290e+06 6.787142e+02 6.982443e+02
3.283368e+06 8.790569e+02 4.447873e+02
3.283776e+06 8.004023e+02 -3.302309e+02
3.370362e+06 3.671091e+02 -3.361282e+03
3.372317e+06 5.277195e+02 -3.386315e+03
3.283512e+06 6.464900e+02 6.100952e+02
3.283587e+06 8.380016e+02 3.913980e+02
3.283937e+06 7.564682e+02 -2.833481e+02
3.371526e+06 4.144368e+02 -3.309495e+03
3.373483e+06 5.855766e+02 3.321886e+03
3.283706e+06 6.132921e+02 5.259961e+02
3.284072e+06 7.118414e+02 -2.389656e+02
3.372671e+06 4.618175e+02 -3.251129e+03
3.374613e+06 6.428005e+02 -3.251252e+03
3.283871e+06 5.794384e+02 4.461805e+02
3.284183e+06 6.667859e+02 -1.971863e+02
3.373794e+06 5.092190e+02 -3.186160e+03
3.284011e+06 5.451599e+02 3.708089e+02
3.284074e+06 7.074136e+02 2.455384e+02
3.284270e+06 6.214855e+02 -1.580795e+02
3.374894e+06 5.566217e+02 -3.114572e+03
3.284125e+06 5.106201e+02 2.999871e+02
3.284184e+06 6.626532e+02 2.021914e+02
3.284335e+06 5.760633e+02 -1.216891e+02
3.375969e+06 6.040147e+02 -3.036355e+03
3.377873e+06 8.157145e+02 2.996785e+03
3.284216e+06 4.759317e+02 2.337812e+02
3.284271e+06 6.176500e+02 1.616240e+02
3.284380e+06 5.305988e+02 -8.804204e+01
3.377015e+06 6.513937e+02 -2.951503e+03
3.378891e+06 8.728807e+02 -2.898610e+03
3.284285e+06 4.411704e+02 1.722296e+02
3.284337e+06 5.725261e+02 1.238795e+02
3.284407e+06 4.851396e+02 -5.715326e+01
3.378031e+06 6.987584e+02 -2.860010e+03
3.379881e+06 9.303694e+02 -2.793210e+03
3.284335e+06 4.063844e+02 1.153521e+02
3.284382e+06 5.273599e+02 8.898354e+01
3.284416e+06 4.397122e+02 -2.902931e+01
3.379013e+06 7.461122e+02 -2.761871e+03
3.379888e+06 9.307091e+02 2.792887e+03
3.380834e+06 9.878578e+02 -2.680904e+03
3.284365e+06 3.716027e+02 6.315591e+01
3.284409e+06 4.821986e+02 5.694985e+01
3.284411e+06 3.943272e+02 -3.672181e+00
3.379961e+06 7.934603e+02 -2.657084e+03
3.380841e+06 9.881995e+02 2.680581e+03
3.381749e+06 1.045356e+03 -2.561686e+03
3.284379e+06 3.368412e+02 1.564122e+01
3.284418e+06 4.370684e+02 2.778473e+01
3.284391e+06 3.489868e+02 1.891883e+01
3.380871e+06 8.408097e+02 -2.545643e+03
3.382623e+06 1.102871e+03 -2.435551e+03
3.284378e+06 3.021063e+02 -2.719597e+01
3.284413e+06 3.919800e+02 1.489524e+00
3.284359e+06 3.036861e+02 3.874622e+01
3.381741e+06 8.881671e+02 -2.427541e+03
3.383454e+06 1.160414e+03 -2.302492e+03
3.382569e+06 9.355391e+02 -2.302775e+03
3.384238e+06 1.217993e+03 -2.162504e+03
3.284207e+06 1.679439e+02 8.167359e+01
3.284393e+06 3.469352e+02 -2.193697e+01
3.383352e+06 9.829329e+02 -2.171337e+03
3.384974e+06 1.275612e+03 -2.015582e+03
3.284250e+06 1.634059e+02 -1.518869e+02
3.284269e+06 2.120088e+02 -7.503336e+01
3.284143e+06 1.227219e+02 9.047236e+01
3.384088e+06 1.030354e+03 -2.033220e+03
3.385660e+06 1.333271e+03 -1.861722e+03
3.284195e+06 1.287673e+02 -1.714198e+02
3.284210e+06 1.670721e+02 -8.701431e+01
3.284074e+06 7.750247e+01 9.651971e+01
3.384775e+06 1.077803e+03 -1.888419e+03
3.386300e+06 1.391319e+03 1.700606e+03
3.284134e+06 9.413313e+01 -1.863030e+02
3.284145e+06 1.221434e+02 -9.613961e+01
3.284002e+06 3.228481e+01 9.981813e+01
3.385409e+06 1.125277e+03 -1.736930e+03
3.386871e+06 1.448663e+03 -1.533208e+03
3.284070e+06 5.950101e+01 -1.965377e+02
3.284077e+06 7.721809e+01 -1.024113e+02
3.283930e+06 -1.292637e+01 1.003712e+02
3.385990e+06 1.172765e+03 -1.578755e+03
3.284002e+06 2.486996e+01 -2.021252e+02
3.284005e+06 3.229446e+01 -1.058320e+02
3.283857e+06 -5.811746e+01 9.818506e+01
3.386514e+06 1.220243e+03 -1.413900e+03
3.283934e+06 -9.756590e+00 -2.030673e+02
3.283933e+06 -1.262228e+01 -1.064050e+02
3.283787e+06 -1.032642e+02 9.326950e+01
3.386979e+06 1.267669e+03 -1.242388e+03
3.388255e+06 1.621601e+03 9.885163e+02
3.283866e+06 -4.437060e+01 -1.993675e+02
3.283861e+06 -5.751946e+01 -1.041360e+02
3.283721e+06 -1.483257e+02 8.563993e+01
3.387384e+06 1.314977e+03 -1.064257e+03
3.388580e+06 1.678213e+03 -7.938807e+02
3.283800e+06 -7.895670e+01 -1.910333e+02
3.283791e+06 -1.023724e+02 -9.903473e+01
3.283659e+06 -1.932401e+02 7.532014e+01
3.387724e+06 1.362062e+03 -8.795742e+02
3.388846e+06 1.734549e+03 -5.924158e+02
3.283737e+06 -1.134898e+02 -1.780773e+02
3.283724e+06 -1.471409e+02 -9.111589e+01
3.283605e+06 -2.379170e+02 6.234543e+01
3.387999e+06 1.408773e+03 -6.884450e+02
3.389042e+06 1.789909e+03 -3.846787e+02
3.283680e+06 -1.479312e+02 -1.605223e+02
3.283663e+06 -1.917636e+02 -8.040299e+01
3.283559e+06 -2.822281e+02 4.676686e+01
3.388205e+06 1.454892e+03 -4.910302e+02
3.389166e+06 1.843813e+03 -1.710092e+02
3.283629e+06 -1.822246e+02 -1.384038e+02
3.283608e+06 -2.361511e+02 -6.693100e+01
3.283522e+06 -3.259984e+02 2.865563e+01
3.388342e+06 1.500115e+03 -2.875635e+02
3.389215e+06 1.895621e+03 4.813044e+01
3.283587e+06 -2.162900e+02 -1.117759e+02
3.283562e+06 -2.801766e+02 -5.075039e+01
3.283497e+06 -3.689929e+02 8.108404e+00
3.388405e+06 1.544026e+03 -7.837346e+01
3.389188e+06 1.944491e+03 2.721285e+02
3.283555e+06 -2.500158e+02 -8.071861e+01
3.283526e+06 -3.236669e+02 -3.193250e+01
3.283485e+06 -4.109072e+02 -1.474728e+01
3.388395e+06 1.586069e+03 1.360928e+02
3.389196e+06 1.944794e+03 -2.723743e+02
3.389083e+06 1.989352e+03 5.002071e+02
3.388309e+06 1.625509e+03 3.552489e+02
3.389090e+06 1.989640e+03 -5.004254e+02
3.388896e+06 2.028884e+03 7.314213e+02
3.283540e+06 -5.258612e+02 -9.537437e+01
3.283501e+06 -3.663888e+02 -1.057468e+01
3.388145e+06 1.661401e+03 5.783569e+02
3.388627e+06 2.061528e+03 9.646954e+02
3.283552e+06 -3.776750e+02 8.487051e+01
3.283592e+06 -5.587386e+02 -1.255276e+02
3.283505e+06 -4.898582e+02 -6.670091e+01
3.387902e+06 1.692556e+03 8.045355e+02
3.388282e+06 2.085824e+03 -1.199029e+03
3.283589e+06 -4.062429e+02 1.354341e+02
3.283544e+06 -5.223149e+02 9.715845e+01
3.283664e+06 -5.878435e+02 -1.569323e+02
3.387580e+06 1.717526e+03 1.032805e+03
3.387836e+06 2.099305e+03 1.433133e+03
3.283644e+06 -4.325598e+02 1.890071e+02
3.283597e+06 -5.550080e+02 1.286029e+02
3.283756e+06 -6.125814e+02 -1.894131e+02
3.387178e+06 1.734661e+03 1.262176e+03
3.283718e+06 -4.560050e+02 2.451989e+02
3.283668e+06 -5.839526e+02 1.613737e+02
3.283868e+06 -6.325049e+02 -2.228771e+02
3.386695e+06 1.742318e+03 1.491778e+03
3.283812e+06 -4.759077e+02 3.036372e+02
3.283760e+06 -6.085526e+02 1.952840e+02
3.284001e+06 -6.473935e+02 -2.573027e+02
3.386131e+06 1.739332e+03 1.720925e+03
3.386020e+06 2.069597e+03 -2.131174e+03
3.283926e+06 -4.916661e+02 3.640122e+02
3.283872e+06 -6.283579e+02 2.302289e+02
3.284156e+06 -6.572970e+02 -2.926892e+02
3.385488e+06 1.725505e+03 1.949054e+03
3.385236e+06 2.036496e+03 2.361522e+03
3.284060e+06 -5.029459e+02 4.260831e+02
3.284005e+06 -6.431467e+02 2.661750e+02
3.284333e+06 -6.625249e+02 -3.289936e+02
3.384764e+06 1.701696e+03 2.175542e+03
3.384378e+06 1.994417e+03 2.589506e+03
3.284216e+06 -5.098246e+02 4.896326e+02
3.284160e+06 -6.529692e+02 3.031095e+02
3.284532e+06 -6.635892e+02 -3.660918e+02
3.383963e+06 1.669438e+03 2.399584e+03
3.383438e+06 1.944839e+03 2.814112e+03
3.284394e+06 -5.127564e+02 5.543980e+02
3.284337e+06 -6.581369e+02 3.409774e+02
3.284754e+06 -6.611130e+02 -4.037842e+02
3.383083e+06 1.630413e+03 2.620226e+03
3.382421e+06 1.889393e+03 3.034244e+03
3.284594e+06 -5.123891e+02 6.200427e+02
3.284537e+06 -6.591638e+02 3.796427e+02
3.284999e+06 -6.557418e+02 -4.418337e+02
3.382127e+06 1.586152e+03 2.836479e+03
3.381328e+06 1.829485e+03 3.248914e+03
3.284816e+06 -5.093836e+02 6.861828e+02
3.284759e+06 -6.566746e+02 4.188948e+02
3.285267e+06 -6.480804e+02 -4.800009e+02
3.381097e+06 1.537933e+03 3.047429e+03
3.380162e+06 1.766273e+03 3.457295e+03
3.285061e+06 -5.043279e+02 7.524322e+02
3.285558e+06 -6.386585e+02 -5.180684e+02
3.379994e+06 1.486784e+03 3.252294e+03
3.378926e+06 1.700675e+03 3.658728e+03
3.285329e+06 -4.977128e+02 8.184397e+02
3.285870e+06 -6.279179e+02 -5.558514e+02
3.378821e+06 1.433506e+03 3.450447e+03
3.377623e+06 1.633397e+03 3.852712e+03
3.285618e+06 -4.899340e+02 8.839066e+02
3.285562e+06 -6.343047e+02 5.377327e+02
3.286205e+06 -6.162166e+02 -5.932010e+02
3.377581e+06 1.378713e+03 3.641403e+03
3.376256e+06 1.564971e+03 4.038880e+03
3.376276e+06 1.322864e+03 3.824807e+03
3.287338e+06 -5.778088e+02 -7.016356e+02
3.286210e+06 -6.119832e+02 6.157533e+02
3.374908e+06 1.266300e+03 4.000407e+03
3.373342e+06 1.426122e+03 4.386806e+03
3.286996e+06 -4.524024e+02 1.136339e+03
3.286874e+06 -5.427809e+02 6.455735e+02
3.287756e+06 -5.644421e+02 -7.363610e+02
3.373481e+06 1.209266e+03 4.168030e+03
3.373350e+06 1.426476e+03 -4.386521e+03
3.287393e+06 -4.422320e+02 1.196478e+03
3.287342e+06 -5.738255e+02 7.282768e+02
3.288195e+06 -5.509562e+02 -7.703143e+02
3.371998e+06 1.151932e+03 4.327569e+03
3.371809e+06 1.356523e+03 -4.547982e+03
3.287811e+06 -4.319363e+02 1.255299e+03
3.287761e+06 -5.605446e+02 7.642986e+02
3.288653e+06 -5.374069e+02 -8.034757e+02
3.370461e+06 1.094418e+03 4.478955e+03
3.371079e+06 1.325791e+03 -2.571663e+03
3.368573e+06 1.216234e+03 -4.845549e+03
3.288248e+06 -4.215652e+02 1.312771e+03
3.288199e+06 -5.471460e+02 7.995155e+02
3.289130e+06 -5.238302e+02 -8.358334e+02
3.368874e+06 1.036803e+03 4.622153e+03
3.366877e+06 1.145669e+03 4.981890e+03
3.288705e+06 -4.111533e+02 1.368879e+03
3.288657e+06 -5.336841e+02 8.339089e+02
3.289625e+06 -5.102488e+02 -8.673807e+02
3.367239e+06 9.791364e+02 4.757150e+03
3.365146e+06 1.075470e+03 5.109446e+03
3.289180e+06 -4.007227e+02 1.423612e+03
3.289134e+06 -5.201950e+02 8.674671e+02
3.290138e+06 -4.966760e+02 -8.981141e+02
3.365559e+06 9.214478e+02 4.883948e+03
3.363374e+06 1.005289e+03 5.228514e+03
3.289674e+06 -3.902881e+02 1.476967e+03
3.289629e+06 -5.067008e+02 9.001838e+02
3.290669e+06 -4.831184e+02 -9.280326e+02
3.363837e+06 8.637520e+02 5.002557e+03
3.361564e+06 9.351301e+02 5.339110e+03
3.290186e+06 -3.798575e+02 1.528944e+03
3.291217e+06 -4.695781e+02 -9.571362e+02
3.362076e+06 8.060548e+02 5.112992e+03
3.359720e+06 8.649890e+02 5.441250e+03
3.290716e+06 -3.694348e+02 1.579543e+03
3.290673e+06 -4.797443e+02 9.630826e+02
3.291782e+06 -4.560546e+02 -9.854261e+02
3.360279e+06 7.483561e+02 5.215271e+03
3.357844e+06 7.948580e+02 5.534952e+03
3.291263e+06 -3.590223e+02 1.628768e+03
3.292363e+06 -4.425457e+02 -1.012903e+03
3.358449e+06 6.906516e+02 5.309414e+03
3.355940e+06 7.247283e+02 5.620235e+03
3.291826e+06 -3.486197e+02 1.676621e+03
3.292959e+06 -4.290485e+02 -1.039568e+03
3.356588e+06 6.329353e+02 5.395440e+03
3.354009e+06 6.545894e+02 5.697119e+03
3.292406e+06 -3.382261e+02 1.723104e+03
3.293571e+06 -4.155596e+02 -1.065422e+03
3.354700e+06 5.751998e+02 5.473367e+03
3.352055e+06 5.844319e+02 5.765618e+03
3.293001e+06 -3.278397e+02 1.768219e+03
3.292963e+06 -4.260172e+02 1.078748e+03
3.294198e+06 -4.020774e+02 -1.090466e+03
3.352788e+06 5.174382e+02 5.543214e+03
3.350088e+06 5.145838e+02 -5.825458e+03
3.350854e+06 4.596436e+02 5.604998e+03
3.348089e+06 4.440294e+02 5.877538e+03
3.296162e+06 -3.616469e+02 -1.160744e+03
3.293575e+06 -4.126118e+02 1.105559e+03
3.348900e+06 4.018110e+02 5.658734e+03
3.295530e+06 -2.863351e+02 1.935017e+03
3.295498e+06 -3.724198e+02 1.180958e+03
3.296843e+06 -3.481781e+02 -1.182554e+03
3.346931e+06 3.439371e+02 5.704440e+03
3.296197e+06 -2.759657e+02 1.973304e+03
3.296166e+06 -3.590431e+02 1.204414e+03
3.297537e+06 -3.347178e+02 -1.203559e+03
3.344949e+06 2.860219e+02 5.742132e+03
3.342044e+06 2.335082e+02 -5.982692e+03
3.296877e+06 -2.655999e+02 2.010226e+03
3.296847e+06 -3.456606e+02 1.227031e+03
3.298243e+06 -3.212764e+02 -1.223762e+03
3.342956e+06 2.280723e+02 5.771826e+03
3.340004e+06 1.628683e+02 6.001583e+03
3.297570e+06 -2.552414e+02 2.045782e+03
3.297541e+06 -3.322868e+02 1.248813e+03
3.298960e+06 -3.078689e+02 -1.243168e+03
3.340955e+06 1.701010e+02 5.793546e+03
3.340011e+06 1.631927e+02 -6.001286e+03
3.337967e+06 9.259570e+01 6.011958e+03
3.298275e+06 -2.448958e+02 2.079977e+03
3.298247e+06 -3.189312e+02 1.269762e+03
3.299689e+06 -2.945169e+02 -1.261785e+03
3.338949e+06 1.121304e+02 5.807322e+03
3.337974e+06 9.291944e+01 -6.011659e+03
3.335929e+06 2.242032e+01 6.014165e+03
3.298991e+06 -2.345725e+02 2.112813e+03
3.298964e+06 -3.056087e+02 1.289884e+03
3.300428e+06 -2.812527e+02 -1.279626e+03
3.336941e+06 5.419753e+01 5.813186e+03
3.333893e+06 -4.756170e+01 6.008280e+03
3.299718e+06 -2.242850e+02 2.144299e+03
3.301178e+06 -2.681207e+02 -1.296708e+03
3.334934e+06 -3.638957e+00 5.811190e+03
3.331862e+06 -1.172174e+02 5.994405e+03
3.300456e+06 -2.140533e+02 2.174447e+03
3.301937e+06 -2.551816e+02 -1.313055e+03
3.332930e+06 -6.129411e+01 5.801406e+03
3.329838e+06 -1.863601e+02 5.972684e+03
3.301205e+06 -2.039055e+02 2.203275e+03
3.302706e+06 -2.425156e+02 -1.328701e+03
3.330932e+06 -1.186475e+02 5.783933e+03
3.327824e+06 -2.547296e+02 5.943311e+03
3.301963e+06 -1.938804e+02 2.230811e+03
3.303483e+06 -2.302254e+02 -1.343687e+03
3.328942e+06 -1.755330e+02 5.758908e+03
3.325823e+06 -3.219794e+02 5.906544e+03
3.302730e+06 -1.840295e+02 2.257094e+03
3.302710e+06 -2.406650e+02 1.378535e+03
3.304269e+06 -2.184412e+02 -1.358068e+03
3.326963e+06 -2.317237e+02 5.726519e+03
3.323838e+06 -3.876549e+02 5.862721e+03
3.303507e+06 -1.744222e+02 2.282176e+03
3.303487e+06 -2.284490e+02 1.394054e+03
3.305064e+06 -2.073184e+02 -1.371908e+03
3.324998e+06 -2.869170e+02 5.687013e+03
3.321870e+06 -4.511771e+02 5.812271e+03
3.304292e+06 -1.651484e+02 2.306127e+03
3.305866e+06 -1.970354e+02 -1.385278e+03
3.323049e+06 -3.407166e+02 5.640714e+03
3.305085e+06 -1.563232e+02 2.329033e+03
3.306675e+06 -1.877888e+02 -1.398248e+03
3.321117e+06 -3.926132e+02 5.588030e+03
3.319206e+06 -4.419654e+02 5.529447e+03
3.309146e+06 -1.679749e+02 -1.435277e+03
3.306679e+06 -1.862319e+02 1.450460e+03
3.317318e+06 -4.879889e+02 5.465520e+03
3.314236e+06 -6.671321e+02 -5.555436e+03
3.308335e+06 -1.287767e+02 2.412386e+03
3.307943e+06 -1.590287e+02 1.403721e+03
3.309983e+06 -1.643313e+02 -1.447052e+03
3.315453e+06 -5.297689e+02 5.396827e+03
3.312387e+06 -7.074760e+02 5.480632e+03
3.309165e+06 -1.247424e+02 2.431684e+03
3.309150e+06 -1.665453e+02 1.488655e+03
3.310827e+06 -1.621355e+02 -1.458553e+03
3.313613e+06 -5.663360e+02 5.323907e+03
3.310574e+06 -7.403219e+02 5.402075e+03
3.310001e+06 -1.220513e+02 2.450521e+03
3.309987e+06 -1.629286e+02 1.500794e+03
3.311677e+06 -1.612587e+02 -1.469803e+03
3.311800e+06 -5.968661e+02 5.247198e+03
3.308793e+06 -7.659841e+02 5.320004e+03
3.310845e+06 -1.206126e+02 2.468971e+03
3.310831e+06 -1.607531e+02 1.512651e+03
3.312533e+06 -1.615248e+02 -1.480856e+03
3.310015e+06 -6.209773e+02 5.167044e+03
3.307043e+06 -7.848894e+02 5.234574e+03
3.311695e+06 -1.202495e+02 2.487124e+03
3.313396e+06 -1.627388e+02 -1.491780e+03
3.308259e+06 -6.388976e+02 5.083771e+03
3.305327e+06 -7.978466e+02 5.146163e+03
3.312551e+06 -1.207587e+02 2.505092e+03
3.312537e+06 -1.601611e+02 1.535667e+03
3.314265e+06 -1.647114e+02 -1.502647e+03
3.306533e+06 -6.513608e+02 4.997786e+03
3.303644e+06 -8.058419e+02 5.055337e+03
3.313414e+06 -1.219519e+02 2.522995e+03
3.315140e+06 -1.672731e+02 -1.513527e+03
3.304837e+06 -6.593220e+02 4.909598e+03
3.303649e+06 -8.054817e+02 -5.055326e+03
3.301994e+06 -8.098629e+02 4.962726e+03
3.314283e+06 -1.236682e+02 2.540942e+03
3.314269e+06 -1.633382e+02 1.558185e+03
3.316022e+06 -1.702790e+02 -1.524480e+03
3.303173e+06 -6.637184e+02 4.819773e+03
3.302000e+06 -8.095103e+02 -4.962733e+03
3.300377e+06 -8.107954e+02 4.868934e+03
3.315158e+06 -1.257767e+02 2.559034e+03
3.316910e+06 -1.736116e+02 -1.535557e+03
3.301540e+06 -6.653653e+02 4.728857e+03
3.302465e+06 -7.931629e+02 -2.790323e+03
3.298794e+06 -8.093860e+02 4.774488e+03
3.316040e+06 -1.281735e+02 2.577348e+03
3.317805e+06 -1.771781e+02 -1.546795e+03
3.299939e+06 -6.649341e+02 4.637340e+03
3.297244e+06 -8.062453e+02 4.679819e+03
3.316929e+06 -1.307783e+02 2.595950e+03
3.316914e+06 -1.721860e+02 1.592249e+03
3.318707e+06 -1.809073e+02 -1.558225e+03
3.298371e+06 -6.629594e+02 4.545633e+03
3.317824e+06 -1.335295e+02 2.614886e+03
3.317809e+06 -1.757287e+02 1.603892e+03
3.319616e+06 -1.847458e+02 -1.569869e+03
3.296834e+06 -6.598596e+02 4.454058e+03
3.318726e+06 -1.363815e+02 2.634191e+03
3.318711e+06 -1.794321e+02 1.615737e+03
3.320531e+06 -1.886541e+02 -1.581742e+03
3.295329e+06 -6.559553e+02 4.362861e+03
3.319635e+06 -1.393010e+02 2.653891e+03
3.319620e+06 -1.832428e+02 1.627805e+03
3.321454e+06 -1.926074e+02 -1.593855e+03
3.293856e+06 -6.514873e+02 4.272222e+03
3.292414e+06 -6.466337e+02 4.182266e+03
3.291368e+06 -7.841300e+02 -4.304608e+03
3.289971e+06 -7.779098e+02 4.212394e+03
3.324268e+06 -2.045733e+02 -1.631700e+03
3.321458e+06 -1.910282e+02 1.652671e+03
3.291004e+06 -6.415248e+02 4.093081e+03
3.289976e+06 -7.776048e+02 -4.212463e+03
3.288609e+06 -7.712319e+02 4.121090e+03
3.323343e+06 -1.512633e+02 2.736892e+03
3.322897e+06 -1.798043e+02 1.593345e+03
3.325222e+06 -2.085743e+02 -1.644828e+03
3.289624e+06 -6.362531e+02 4.004721e+03
3.288615e+06 -7.709277e+02 -4.121159e+03
3.287279e+06 -7.644717e+02 4.030661e+03
3.324289e+06 -1.542762e+02 2.758727e+03
3.326183e+06 -2.125753e+02 -1.658216e+03
3.288274e+06 -6.308832e+02 3.917219e+03
3.287284e+06 -7.641690e+02 -4.030732e+03
3.285978e+06 -7.576751e+02 3.941129e+03
3.325243e+06 -1.572893e+02 2.781000e+03
3.325226e+06 -2.069055e+02 1.705527e+03
3.327153e+06 -2.165781e+02 -1.671864e+03
3.286955e+06 -6.254577e+02 3.830593e+03
3.285983e+06 -7.573733e+02 -3.941200e+03
3.284706e+06 -7.508708e+02 3.852503e+03
3.326205e+06 -1.603016e+02 2.803712e+03
3.328131e+06 -2.205853e+02 -1.685775e+03
3.285666e+06 -6.200055e+02 3.744851e+03
3.284712e+06 -7.505693e+02 -3.852574e+03
3.283464e+06 -7.440747e+02 3.764783e+03
3.327175e+06 -1.633143e+02 2.826865e+03
3.327157e+06 -2.148548e+02 1.733560e+03
3.329117e+06 -2.245995e+02 -1.699950e+03
3.284406e+06 -6.145440e+02 3.659991e+03
3.283470e+06 -7.437730e+02 -3.764854e+03
3.282251e+06 -7.372953e+02 3.677967e+03
3.328153e+06 -1.663283e+02 2.850461e+03
3.330113e+06 -2.286242e+02 -1.714389e+03
3.283175e+06 -6.090834e+02 3.576010e+03
3.282257e+06 -7.369936e+02 -3.678038e+03
3.281067e+06 -7.305355e+02 3.592050e+03
3.329140e+06 -1.693451e+02 2.874501e+03
3.331117e+06 -2.326628e+02 -1.729096e+03
3.281973e+06 -6.036288e+02 3.492903e+03
3.281073e+06 -7.302336e+02 -3.592121e+03
3.279911e+06 -7.237951e+02 3.507025e+03
3.330136e+06 -1.723670e+02 2.898987e+03
3.330117e+06 -2.268163e+02 1.777653e+03
3.332129e+06 -2.367189e+02 -1.744071e+03
3.280800e+06 -5.981820e+02 3.410661e+03
3.279917e+06 -7.234927e+02 -3.507097e+03
3.278783e+06 -7.170717e+02 3.422886e+03
3.331140e+06 -1.753958e+02 2.923922e+03
3.331121e+06 -2.308262e+02 1.792901e+03
3.333152e+06 -2.407941e+02 -1.759317e+03
3.279655e+06 -5.927426e+02 3.329279e+03
3.278789e+06 -7.167687e+02 -3.422958e+03
3.277682e+06 -7.103623e+02 3.339626e+03
3.332153e+06 -1.784336e+02 2.949311e+03
3.332133e+06 -2.348533e+02 1.808428e+03
3.334183e+06 -2.448893e+02 -1.774835e+03
3.278537e+06 -5.873093e+02 3.248747e+03
3.277688e+06 -7.100587e+02 -3.339697e+03
3.333176e+06 -1.814812e+02 2.975156e+03
3.333156e+06 -2.388991e+02 1.824235e+03
3.335224e+06 -2.490007e+02 -1.790626e+03
3.277448e+06 -5.818804e+02 3.169060e+03
3.276615e+06 -7.033593e+02 -3.257310e+03
3.334207e+06 -1.845390e+02 3.001461e+03
3.334187e+06 -2.429643e+02 1.840324e+03
3.336274e+06 -2.531202e+02 -1.806688e+03
3.276385e+06 -5.764536e+02 3.090212e+03
3.275569e+06 -6.966671e+02 -3.175788e+03
3.335249e+06 -1.876047e+02 3.028231e+03
3.335228e+06 -2.470451e+02 1.856697e+03
3.337334e+06 -2.572293e+02 -1.823018e+03
3.275350e+06 -5.710268e+02 3.012197e+03
3.274550e+06 -6.899790e+02 -3.095128e+03
3.273552e+06 -6.835988e+02 3.015253e+03
3.336300e+06 -1.906735e+02 3.055466e+03
3.336278e+06 -2.511324e+02 1.873350e+03
3.338405e+06 -2.613037e+02 -1.839607e+03
3.274341e+06 -5.655987e+02 2.935010e+03
3.273558e+06 -6.832931e+02 -3.015325e+03
3.272585e+06 -6.769139e+02 2.936301e+03
3.273358e+06 -5.601682e+02 2.858648e+03
3.272591e+06 -6.766078e+02 -2.936373e+03
3.271645e+06 -6.702297e+02 2.858197e+03
3.341677e+06 -2.727209e+02 -1.890730e+03
3.339003e+06 -2.382589e+02 1.827058e+03
3.272402e+06 -5.547351e+02 2.783106e+03
3.271651e+06 -6.699230e+02 -2.858269e+03
3.270730e+06 -6.635467e+02 2.780935e+03
3.340603e+06 -2.026411e+02 3.168982e+03
3.340580e+06 -2.670029e+02 1.942644e+03
3.342789e+06 -2.759144e+02 -1.908092e+03
3.271471e+06 -5.492996e+02 2.708380e+03
3.270736e+06 -6.632396e+02 -2.781007e+03
3.269840e+06 -6.568687e+02 2.704510e+03
3.341704e+06 -2.053721e+02 3.198415e+03
3.341681e+06 -2.705862e+02 1.960534e+03
3.343911e+06 -2.785130e+02 -1.925502e+03
3.270566e+06 -5.438641e+02 2.634466e+03
3.269846e+06 -6.565613e+02 -2.704583e+03
3.268976e+06 -6.502014e+02 2.628916e+03
3.342816e+06 -2.078563e+02 3.228180e+03
3.342793e+06 -2.737595e+02 1.978561e+03
3.345045e+06 -2.802519e+02 -1.942849e+03
3.269685e+06 -5.384318e+02 2.561358e+03
3.268981e+06 -6.498938e+02 -2.628989e+03
3.268136e+06 -6.435540e+02 2.554144e+03
3.343939e+06 -2.099694e+02 3.258187e+03
3.346189e+06 -2.807810e+02 -1.959988e+03
3.268830e+06 -5.330090e+02 2.489052e+03
3.268142e+06 -6.432461e+02 -2.554217e+03
3.267320e+06 -6.369404e+02 2.480182e+03
3.345072e+06 -2.115418e+02 3.288312e+03
3.347345e+06 -2.796539e+02 -1.976733e+03
3.267999e+06 -5.276038e+02 2.417537e+03
3.267326e+06 -6.366325e+02 -2.480254e+03
3.266528e+06 -6.303800e+02 2.407015e+03
3.346217e+06 -2.123443e+02 3.318377e+03
3.346193e+06 -2.786088e+02 2.032533e+03
3.348511e+06 -2.763191e+02 -1.992852e+03
3.267193e+06 -5.222292e+02 2.346805e+03
3.266534e+06 -6.300722e+02 -2.407087e+03
3.265761e+06 -6.239002e+02 2.334621e+03
3.347372e+06 -2.120746e+02 3.348145e+03
3.347349e+06 -2.775024e+02 2.049992e+03
3.349688e+06 -2.701227e+02 -2.008080e+03
3.266410e+06 -5.169026e+02 2.276838e+03
3.265767e+06 -6.235926e+02 -2.334693e+03
3.265017e+06 -6.175375e+02 2.262973e+03
3.348537e+06 -2.103401e+02 3.377314e+03
3.348515e+06 -2.742085e+02 2.066832e+03
3.350875e+06 -2.603313e+02 -2.022131e+03
3.265652e+06 -5.116478e+02 2.207619e+03
3.265023e+06 -6.172303e+02 -2.263044e+03
3.349713e+06 -2.066419e+02 3.405507e+03
3.349692e+06 -2.680770e+02 2.082780e+03
3.352072e+06 -2.461859e+02 -2.034736e+03
3.264916e+06 -5.064971e+02 2.139119e+03
3.264302e+06 -6.110336e+02 -2.192105e+03
3.350899e+06 -2.003625e+02 3.432293e+03
3.350879e+06 -2.583775e+02 2.097543e+03
3.353278e+06 -2.269918e+02 -2.045690e+03
3.264204e+06 -5.014921e+02 2.071305e+03
3.263604e+06 -6.050644e+02 -2.121829e+03
3.352094e+06 -1.907721e+02 3.457210e+03
3.352076e+06 -2.443512e+02 2.110838e+03
3.354492e+06 -2.022350e+02 -2.054887e+03
3.263515e+06 -4.966872e+02 2.004131e+03
3.262929e+06 -5.993996e+02 -2.052159e+03
3.262270e+06 -5.944379e+02 1.982963e+03
3.353298e+06 -1.770802e+02 3.479818e+03
3.353282e+06 -2.253026e+02 2.122448e+03
3.355714e+06 -1.716790e+02 -2.062301e+03
3.262849e+06 -4.921507e+02 1.937546e+03
3.262276e+06 -5.941329e+02 -1.983027e+03
3.261640e+06 -5.896768e+02 1.914299e+03
3.354509e+06 -1.585895e+02 3.499752e+03
3.356941e+06 -1.354107e+02 -2.067926e+03
3.262205e+06 -4.879674e+02 1.871486e+03
3.261646e+06 -5.893721e+02 -1.914360e+03
3.261031e+06 -5.855384e+02 1.846025e+03
3.355728e+06 -1.349388e+02 3.516728e+03
3.358173e+06 -9.382167e+01 -2.071698e+03
3.261584e+06 -4.842374e+02 1.805885e+03
3.261037e+06 -5.852340e+02 -1.846084e+03
3.260445e+06 -5.821339e+02 1.778080e+03
3.356952e+06 -1.062663e+02 3.530480e+03
3.356945e+06 -1.342905e+02 2.146302e+03
3.359409e+06 -4.753986e+01 -2.073452e+03
3.260985e+06 -4.810725e+02 1.740676e+03
3.260451e+06 -5.818295e+02 -1.778136e+03
3.259880e+06 -5.795465e+02 1.710427e+03
3.260407e+06 -4.785797e+02 1.675803e+03
3.259886e+06 -5.792416e+02 -1.710480e+03
3.259336e+06 -5.778101e+02 1.643052e+03
3.363124e+06 1.120657e+02 -2.063978e+03
3.358177e+06 -9.293694e+01 2.150448e+03
3.259852e+06 -4.768303e+02 1.611220e+03
3.259342e+06 -5.775049e+02 -1.643102e+03
3.258814e+06 -5.769011e+02 1.575943e+03
3.361882e+06 4.528108e+01 3.545673e+03
3.364358e+06 1.698980e+02 -2.054990e+03
3.361886e+06 5.612947e+01 -2.069878e+03
3.259319e+06 -4.758306e+02 1.546890e+03
3.258821e+06 -5.765952e+02 -1.575991e+03
3.258314e+06 -5.767436e+02 1.509069e+03
3.363115e+06 8.888167e+01 3.537308e+03
3.363127e+06 1.117284e+02 2.143067e+03
3.365587e+06 2.291349e+02 -2.042701e+03
3.258807e+06 -4.755194e+02 1.482770e+03
3.258320e+06 -5.764370e+02 -1.509114e+03
3.257835e+06 -5.772299e+02 1.442372e+03
3.364344e+06 1.337126e+02 3.523300e+03
3.364362e+06 1.691984e+02 2.133824e+03
3.366809e+06 2.893790e+02 -2.026940e+03
3.258318e+06 -4.757937e+02 1.418805e+03
3.257841e+06 -5.769219e+02 -1.442414e+03
3.257377e+06 -5.782427e+02 1.375779e+03
3.365568e+06 1.794293e+02 3.503371e+03
3.365591e+06 2.280587e+02 2.121136e+03
3.368021e+06 3.503256e+02 -2.007577e+03
3.257849e+06 -4.765412e+02 1.354930e+03
3.257383e+06 -5.779337e+02 -1.375819e+03
3.256941e+06 -5.796724e+02 1.309216e+03
3.366785e+06 2.257682e+02 3.477308e+03
3.366812e+06 2.879168e+02 2.104831e+03
3.369221e+06 4.117461e+02 -1.984515e+03
3.257403e+06 -4.776590e+02 1.291080e+03
3.256947e+06 -5.793620e+02 -1.309254e+03
3.367991e+06 2.725320e+02 3.444955e+03
3.368024e+06 3.484699e+02 2.084778e+03
3.370407e+06 4.734734e+02 -1.957681e+03
3.256978e+06 -4.790601e+02 1.227190e+03
3.256532e+06 -5.811109e+02 -1.242651e+03
3.369186e+06 3.195766e+02 3.406196e+03
3.369224e+06 4.094922e+02 2.060877e+03
3.371576e+06 5.353888e+02 -1.927027e+03
3.256575e+06 -4.806737e+02 1.163207e+03
3.256139e+06 -5.831005e+02 -1.175953e+03
3.370366e+06 3.667974e+02 3.360951e+03
3.370410e+06 4.708179e+02 2.033060e+03
3.372727e+06 5.974106e+02 -1.892516e+03
3.256193e+06 -4.824432e+02 1.099086e+03
3.255767e+06 -5.852666e+02 -1.109112e+03
3.255411e+06 -5.878740e+02 1.042057e+03
3.371530e+06 4.141212e+02 3.309164e+03
3.373856e+06 6.594850e+02 -1.854125e+03
3.255833e+06 -4.843249e+02 1.034791e+03
3.255417e+06 -5.875587e+02 -1.042091e+03
3.255083e+06 -5.902552e+02 9.748286e+02
3.372674e+06 4.614988e+02 3.250798e+03
3.374962e+06 7.215779e+02 -1.811839e+03
3.255495e+06 -4.862858e+02 9.702967e+02
3.255089e+06 -5.899389e+02 -9.748618e+02
3.254776e+06 -5.926953e+02 9.073705e+02
3.373798e+06 5.088971e+02 3.185830e+03
3.373858e+06 6.556148e+02 1.925674e+03
3.376042e+06 7.836706e+02 -1.765647e+03
3.255178e+06 -4.883008e+02 9.055817e+02
3.254782e+06 -5.923780e+02 -9.074035e+02
3.254492e+06 -5.951738e+02 8.396678e+02
3.374898e+06 5.562966e+02 3.114242e+03
3.374964e+06 7.173020e+02 1.881819e+03
3.377093e+06 8.457544e+02 -1.715541e+03
3.254884e+06 -4.903514e+02 8.406318e+02
3.254498e+06 -5.948558e+02 -8.397007e+02
3.254229e+06 -5.976756e+02 7.717095e+02
3.375973e+06 6.036866e+02 3.036026e+03
3.376044e+06 7.789890e+02 1.833914e+03
3.378115e+06 9.078285e+02 -1.661518e+03
3.254612e+06 -4.924241e+02 7.754364e+02
3.254235e+06 -5.973572e+02 -7.717425e+02
3.253989e+06 -6.001915e+02 7.034876e+02
3.377019e+06 6.510626e+02 2.951174e+03
3.379103e+06 9.698933e+02 -1.603573e+03
3.254361e+06 -4.945100e+02 7.099884e+02
3.253995e+06 -5.998725e+02 -7.035207e+02
3.253771e+06 -6.027150e+02 6.349964e+02
3.254133e+06 -4.966031e+02 6.442823e+02
3.253777e+06 -6.023954e+02 -6.350296e+02
3.253575e+06 -6.052419e+02 5.662316e+02
3.381848e+06 1.156118e+03 -1.406178e+03
3.379105e+06 9.640111e+02 1.665836e+03
3.253927e+06 -4.986992e+02 5.783142e+02
3.253581e+06 -6.049223e+02 -5.662649e+02
3.253401e+06 -6.077713e+02 4.971897e+02
3.380875e+06 8.404692e+02 2.545314e+03
3.380305e+06 9.665148e+02 1.519014e+03
3.382681e+06 1.218230e+03 -1.332515e+03
3.253743e+06 -5.007963e+02 5.120813e+02
3.253407e+06 -6.074514e+02 -4.972231e+02
3.253250e+06 -6.103031e+02 4.278674e+02
3.381745e+06 8.878237e+02 2.427215e+03
3.381849e+06 1.149004e+03 1.461135e+03
3.383470e+06 1.280379e+03 -1.254914e+03
3.253582e+06 -5.028935e+02 4.455807e+02
3.253256e+06 -6.099828e+02 -4.279011e+02
3.253121e+06 -6.128383e+02 3.582621e+02
3.382573e+06 9.351938e+02 2.302449e+03
3.382682e+06 1.210707e+03 1.384745e+03
3.384211e+06 1.342566e+03 -1.173373e+03
3.253443e+06 -5.049915e+02 3.788099e+02
3.253127e+06 -6.125177e+02 -3.582959e+02
3.383356e+06 9.825854e+02 2.171010e+03
3.383471e+06 1.272447e+03 1.304273e+03
3.384903e+06 1.404793e+03 -1.087890e+03
3.253326e+06 -5.070908e+02 3.117664e+02
3.253021e+06 -6.150580e+02 -2.884043e+02
3.384092e+06 1.030003e+03 2.032893e+03
3.384212e+06 1.334227e+03 1.219716e+03
3.385544e+06 1.467051e+03 -9.984663e+02
3.253232e+06 -5.091927e+02 2.444470e+02
3.252938e+06 -6.176063e+02 -2.182229e+02
3.384779e+06 1.077449e+03 1.888092e+03
3.386130e+06 1.529317e+03 -9.051097e+02
3.253162e+06 -5.112993e+02 1.768482e+02
3.252877e+06 -6.201657e+02 -1.477478e+02
3.252833e+06 -6.230610e+02 7.694052e+01
3.385414e+06 1.124920e+03 1.736603e+03
3.386660e+06 1.591550e+03 -8.078337e+02
3.253113e+06 -5.134126e+02 1.089662e+02
3.252839e+06 -6.227394e+02 -7.697469e+01
3.252818e+06 -6.256521e+02 5.864747e+00
3.385994e+06 1.172405e+03 1.578428e+03
3.386131e+06 1.519753e+03 9.415306e+02
3.387131e+06 1.653676e+03 -7.066647e+02
3.253088e+06 -5.155343e+02 4.079618e+01
3.252824e+06 -6.253301e+02 -5.898780e+00
3.252826e+06 -6.282620e+02 -6.551844e+01
3.386519e+06 1.219879e+03 1.413574e+03
3.386661e+06 1.581577e+03 8.406531e+02
3.387541e+06 1.715583e+03 -6.016457e+02
3.253086e+06 -5.176654e+02 -2.766669e+01
3.252833e+06 -6.279398e+02 6.548421e+01
3.252858e+06 -6.308915e+02 -1.372129e+02
3.386984e+06 1.267301e+03 1.242062e+03
3.387131e+06 1.643297e+03 7.357338e+02
3.387887e+06 1.777098e+03 -4.928438e+02
3.253107e+06 -5.198067e+02 -9.642735e+01
3.252864e+06 -6.305687e+02 1.371787e+02
3.252912e+06 -6.335375e+02 -2.092219e+02
3.387388e+06 1.314603e+03 1.063933e+03
3.388167e+06 1.837971e+03 -3.803599e+02
3.253151e+06 -5.219560e+02 -1.654908e+02
3.252918e+06 -6.332139e+02 2.091878e+02
3.252990e+06 -6.361927e+02 -2.815462e+02
3.387729e+06 1.361683e+03 8.792522e+02
3.388379e+06 1.897851e+03 -2.643391e+02
3.253218e+06 -5.241091e+02 -2.348608e+02
3.252996e+06 -6.358681e+02 2.815120e+02
3.253091e+06 -6.388425e+02 -3.541824e+02
3.388003e+06 1.408388e+03 6.881273e+02
3.388167e+06 1.826394e+03 3.972770e+02
3.388520e+06 1.956252e+03 -1.449841e+02
3.253309e+06 -5.262571e+02 -3.045390e+02
3.253098e+06 -6.385164e+02 3.541477e+02
3.253216e+06 -6.414616e+02 -4.271207e+02
3.388210e+06 1.454500e+03 4.907193e+02
3.388379e+06 1.885891e+03 2.769028e+02
3.388589e+06 2.012528e+03 -2.256928e+01
3.253424e+06 -5.283840e+02 -3.745234e+02
3.253223e+06 -6.411335e+02 4.270855e+02
3.253365e+06 -6.440101e+02 -5.003420e+02
3.388346e+06 1.499716e+03 2.872626e+02
3.388520e+06 1.943925e+03 1.530431e+02
3.388583e+06 2.065838e+03 1.025467e+02
3.253562e+06 -5.304647e+02 -4.448058e+02
3.253371e+06 -6.436793e+02 5.003060e+02
3.253537e+06 -6.464265e+02 -5.738132e+02
3.253724e+06 -5.324606e+02 -5.153694e+02
3.253544e+06 -6.460927e+02 5.737758e+02
3.253734e+06 -6.486220e+02 -6.474813e+02
3.388100e+06 2.196260e+03 4.891755e+02
3.388583e+06 2.052844e+03 -1.039386e+02
3.253909e+06 -5.343156e+02 -5.861830e+02
3.253740e+06 -6.482838e+02 6.474413e+02
3.388150e+06 1.660974e+03 -5.785681e+02
3.387993e+06 1.944337e+03 -2.746019e+02
3.387779e+06 2.225017e+03 6.198603e+02
3.254119e+06 -5.359483e+02 -6.571974e+02
3.253960e+06 -6.501258e+02 7.212228e+02
3.387907e+06 1.692123e+03 -8.047098e+02
3.387377e+06 2.243791e+03 7.505238e+02
3.254352e+06 -5.372459e+02 -7.283364e+02
3.254204e+06 -6.514421e+02 7.950037e+02
3.387585e+06 1.717087e+03 -1.032939e+03
3.386894e+06 2.251279e+03 8.808323e+02
3.254610e+06 -5.380534e+02 -7.994889e+02
3.254473e+06 -6.519935e+02 8.686209e+02
3.254760e+06 -6.518275e+02 -9.419167e+02
3.387183e+06 1.734215e+03 -1.262268e+03
3.387377e+06 2.229966e+03 -7.777295e+02
3.386330e+06 2.246693e+03 1.010662e+03
3.254891e+06 -5.381628e+02 -8.704999e+02
3.254766e+06 -6.514633e+02 9.418528e+02
3.255078e+06 -6.498126e+02 -1.014484e+03
3.386700e+06 1.741868e+03 -1.491825e+03
3.386894e+06 2.237453e+03 -9.134083e+02
3.385686e+06 2.229905e+03 1.139998e+03
3.255196e+06 -5.372985e+02 -9.411572e+02
3.255084e+06 -6.494397e+02 1.014408e+03
3.255420e+06 -6.457846e+02 -1.086006e+03
3.386136e+06 1.738881e+03 -1.720929e+03
3.386330e+06 2.232912e+03 -1.048611e+03
3.384961e+06 2.201481e+03 1.268773e+03
3.255525e+06 -5.351033e+02 -1.011184e+03
3.255426e+06 -6.454032e+02 1.085916e+03
3.255786e+06 -6.391036e+02 -1.156034e+03
3.385493e+06 1.725057e+03 -1.949014e+03
3.384157e+06 2.162564e+03 1.396735e+03
3.255877e+06 -5.311199e+02 -1.080232e+03
3.255793e+06 -6.387140e+02 1.155927e+03
3.256178e+06 -6.290132e+02 -1.224049e+03
3.384770e+06 1.701253e+03 -2.175458e+03
3.383274e+06 2.114660e+03 1.523425e+03
3.256253e+06 -5.247770e+02 -1.147881e+03
3.256184e+06 -6.286160e+02 1.223922e+03
3.256593e+06 -6.146671e+02 -1.289504e+03
3.383968e+06 1.669001e+03 -2.399458e+03
3.384157e+06 2.149222e+03 -1.450518e+03
3.382315e+06 2.059388e+03 1.648256e+03
3.256651e+06 -5.153814e+02 -1.213660e+03
3.256599e+06 -6.142635e+02 1.289356e+03
3.257032e+06 -5.952026e+02 -1.351898e+03
3.383088e+06 1.629983e+03 -2.620062e+03
3.383274e+06 2.101578e+03 -1.582291e+03
3.381280e+06 1.998290e+03 1.770621e+03
3.257071e+06 -5.021334e+02 -1.277082e+03
3.257038e+06 -5.947943e+02 1.351728e+03
3.257494e+06 -5.698825e+02 -1.410876e+03
3.382132e+06 1.585728e+03 -2.836282e+03
3.382314e+06 2.046622e+03 -1.712065e+03
3.380172e+06 1.932730e+03 1.889960e+03
3.257512e+06 -4.841995e+02 -1.337697e+03
3.257500e+06 -5.694710e+02 1.410683e+03
3.257978e+06 -5.382723e+02 -1.466280e+03
3.381102e+06 1.537515e+03 -3.047204e+03
3.381280e+06 1.985891e+03 -1.839214e+03
3.378993e+06 1.863849e+03 2.005794e+03
3.257972e+06 -4.608973e+02 -1.395142e+03
3.257984e+06 -5.378593e+02 1.466064e+03
3.379999e+06 1.486372e+03 -3.252048e+03
3.380172e+06 1.920740e+03 -1.963164e+03
3.377747e+06 1.792560e+03 2.117739e+03
3.258452e+06 -4.319417e+02 -1.449133e+03
3.258489e+06 -4.999383e+02 1.517811e+03
3.259006e+06 -4.565188e+02 -1.566041e+03
3.378826e+06 1.433101e+03 -3.450184e+03
3.378993e+06 1.852300e+03 -2.083431e+03
3.376435e+06 1.719577e+03 2.225498e+03
3.258949e+06 -3.975706e+02 -1.499385e+03
3.259012e+06 -4.561070e+02 1.565780e+03
3.259548e+06 -4.074891e+02 -1.609915e+03
3.377586e+06 1.378315e+03 -3.641128e+03
3.377747e+06 1.781476e+03 -2.199625e+03
3.375061e+06 1.645434e+03 2.328853e+03
3.259463e+06 -3.584386e+02 -1.545545e+03
3.259554e+06 -4.070802e+02 1.609633e+03
3.260105e+06 -3.541190e+02 -1.649176e+03
3.376280e+06 1.322473e+03 -3.824524e+03
3.373628e+06 1.570531e+03 2.427644e+03
3.259992e+06 -3.153753e+02 -1.587167e+03
3.260112e+06 -3.537143e+02 1.648874e+03
3.260534e+06 -2.691875e+02 -1.623759e+03
3.260684e+06 -2.968595e+02 1.682953e+03
3.369000e+06 1.343670e+03 2.695740e+03
3.261087e+06 -2.205798e+02 -1.654841e+03
3.261268e+06 -2.372794e+02 1.711338e+03
3.370466e+06 1.094046e+03 -4.478657e+03
3.370595e+06 1.410866e+03 -2.711495e+03
3.367358e+06 1.267794e+03 2.775525e+03
3.261650e+06 -1.701337e+02 -1.679980e+03
3.261861e+06 -1.756214e+02 1.733563e+03
3.262455e+06 -1.127969e+02 -1.749594e+03
3.368878e+06 1.036436e+03 -4.621856e+03
3.365671e+06 1.191905e+03 2.850490e+03
3.262221e+06 -1.183141e+02 -1.698812e+03
3.262462e+06 -1.124118e+02 1.749239e+03
3.263060e+06 -4.844561e+01 -1.758417e+03
3.367243e+06 9.787738e+02 -4.756854e+03
3.363942e+06 1.116031e+03 2.920632e+03
3.262796e+06 -6.548397e+01 -1.711041e+03
3.263067e+06 -4.806397e+01 1.758055e+03
3.263668e+06 1.672771e+01 -1.760134e+03
3.365563e+06 9.210876e+02 -4.883652e+03
3.365672e+06 1.184843e+03 -2.959725e+03
3.362175e+06 1.040188e+03 2.985956e+03
3.263375e+06 -1.191970e+01 -1.716438e+03
3.263674e+06 1.710696e+01 1.759768e+03
3.264275e+06 8.249145e+01 -1.754561e+03
3.363841e+06 8.633944e+02 -5.002261e+03
3.363944e+06 1.109477e+03 -3.032469e+03
3.360371e+06 9.643757e+02 3.046468e+03
3.263955e+06 4.217310e+01 -1.714827e+03
3.264282e+06 8.286953e+01 1.754190e+03
3.264879e+06 1.486812e+02 -1.741554e+03
3.362080e+06 8.056997e+02 -5.112696e+03
3.362176e+06 1.034140e+03 -3.100217e+03
3.358534e+06 8.885913e+02 3.102179e+03
3.264533e+06 9.664582e+01 -1.706074e+03
3.264886e+06 1.490590e+02 1.741181e+03
3.265479e+06 2.151881e+02 -1.721005e+03
3.360283e+06 7.480032e+02 -5.214975e+03
3.360373e+06 9.588320e+02 -3.162975e+03
3.356667e+06 8.128267e+02 3.153098e+03
3.265106e+06 1.513953e+02 -1.690080e+03
3.265486e+06 2.155667e+02 1.720630e+03
3.358453e+06 6.903011e+02 -5.309117e+03
3.358536e+06 8.835508e+02 -3.220755e+03
3.354772e+06 7.370723e+02 3.199235e+03
3.265674e+06 2.063553e+02 -1.666766e+03
3.266077e+06 2.823261e+02 1.692452e+03
3.266652e+06 3.489225e+02 -1.656955e+03
3.356592e+06 6.325869e+02 -5.395142e+03
3.356669e+06 8.082883e+02 -3.273567e+03
3.352853e+06 6.613182e+02 3.240601e+03
3.266232e+06 2.614866e+02 -1.636070e+03
3.266659e+06 3.493043e+02 1.656577e+03
3.267220e+06 4.161092e+02 -1.613323e+03
3.354704e+06 5.748538e+02 -5.473069e+03
3.354774e+06 7.330349e+02 -3.321421e+03
3.350912e+06 5.855552e+02 3.277204e+03
3.266778e+06 3.167709e+02 -1.597937e+03
3.267227e+06 4.164930e+02 1.612943e+03
3.267774e+06 4.835139e+02 -1.561878e+03
3.352792e+06 5.170943e+02 -5.542915e+03
3.348952e+06 5.097763e+02 3.309056e+03
3.267311e+06 3.722044e+02 -1.552316e+03
3.267781e+06 4.838999e+02 1.561496e+03
3.268309e+06 5.511527e+02 -1.502568e+03
3.350858e+06 4.593020e+02 -5.604698e+03
3.346975e+06 4.339781e+02 3.336167e+03
3.267827e+06 4.277914e+02 -1.499158e+03
3.268317e+06 5.515403e+02 1.502184e+03
3.348904e+06 4.014715e+02 -5.658434e+03
3.348954e+06 5.072356e+02 -3.435339e+03
3.344986e+06 3.581619e+02 3.358547e+03
3.268324e+06 4.835378e+02 -1.438416e+03
3.268833e+06 6.194282e+02 1.434960e+03
3.346935e+06 3.436003e+02 -5.704139e+03
3.346978e+06 4.319339e+02 -3.463463e+03
3.342986e+06 2.823352e+02 3.376211e+03
3.268799e+06 5.394431e+02 -1.370040e+03
3.269325e+06 6.875632e+02 1.359787e+03
3.344953e+06 2.856889e+02 -5.741829e+03
3.344989e+06 3.566113e+02 -3.486682e+03
3.340979e+06 2.065259e+02 3.389175e+03
3.269249e+06 5.954885e+02 -1.293989e+03
3.269793e+06 7.559148e+02 1.276642e+03
3.270225e+06 8.240229e+02 -1.185921e+03
3.269673e+06 6.516251e+02 -1.210233e+03
3.270233e+06 8.244004e+02 1.185531e+03
3.270634e+06 8.924900e+02 -1.086897e+03
3.334937e+06 -2.031614e+01 3.400157e+03
3.270067e+06 7.077535e+02 -1.118768e+03
3.270642e+06 8.928560e+02 1.086508e+03
3.271010e+06 9.606470e+02 -9.800872e+02
3.336945e+06 5.387618e+01 -5.812878e+03
3.337949e+06 8.761867e+01 -3.393825e+03
3.332926e+06 -9.540832e+01 3.394668e+03
3.270429e+06 7.636989e+02 -1.019634e+03
3.271018e+06 9.609961e+02 9.797027e+02
3.271351e+06 1.028035e+03 -8.657338e+02
3.334938e+06 -3.954860e+00 -5.810886e+03
3.334941e+06 -1.940507e+01 -3.529862e+03
3.330921e+06 -1.699694e+02 3.384729e+03
3.270757e+06 8.191772e+02 -9.129424e+02
3.271359e+06 1.028360e+03 8.653583e+02
3.271652e+06 1.093951e+03 -7.442450e+02
3.332934e+06 -6.160519e+01 -5.801105e+03
3.332930e+06 -9.400994e+01 -3.524156e+03
3.328925e+06 -2.437341e+02 3.370455e+03
3.271047e+06 8.737516e+02 -7.989133e+02
3.271660e+06 1.094242e+03 7.438855e+02
3.271913e+06 1.157358e+03 -6.162656e+02
3.330935e+06 -1.189545e+02 -5.783634e+03
3.330925e+06 -1.680913e+02 -3.513822e+03
3.326939e+06 -3.163518e+02 3.352001e+03
3.271298e+06 9.267745e+02 -6.779294e+02
3.271921e+06 1.157603e+03 6.159319e+02
3.328946e+06 -1.758350e+02 -5.758615e+03
3.328929e+06 -2.413869e+02 -3.498979e+03
3.324968e+06 -3.873669e+02 3.329567e+03
3.271507e+06 9.773155e+02 -5.506035e+02
3.272138e+06 1.216959e+03 4.824732e+02
3.272299e+06 1.270123e+03 -3.451644e+02
3.326967e+06 -2.320204e+02 -5.726232e+03
3.326944e+06 -3.135489e+02 -3.479780e+03
3.323012e+06 -4.562038e+02 3.303402e+03
3.271672e+06 1.024072e+03 -4.178710e+02
3.272308e+06 1.270237e+03 3.449275e+02
3.272419e+06 1.314594e+03 -2.054538e+02
3.325002e+06 -2.872083e+02 -5.686736e+03
3.324972e+06 -3.841256e+02 -3.456428e+03
3.321076e+06 -5.221588e+02 3.273807e+03
3.271792e+06 1.065257e+03 -2.811022e+02
3.272428e+06 1.314620e+03 2.052963e+02
3.272487e+06 1.346424e+03 -6.638250e+01
3.323052e+06 -3.410029e+02 -5.640451e+03
3.319159e+06 -5.844078e+02 3.241125e+03
3.271865e+06 1.098475e+03 -1.422436e+02
3.272495e+06 1.346346e+03 6.632901e+01
3.272499e+06 1.360704e+03 6.836822e+01
3.321121e+06 -3.928943e+02 -5.587783e+03
3.321080e+06 -5.181121e+02 -3.398326e+03
3.317266e+06 -6.420398e+02 3.205713e+03
3.271892e+06 1.120565e+03 -3.979453e+00
3.272508e+06 1.360510e+03 -6.829318e+01
3.319210e+06 -4.422414e+02 -5.529221e+03
3.315397e+06 -6.941266e+02 3.167899e+03
3.271873e+06 1.127434e+03 1.300888e+02
3.272462e+06 1.350844e+03 -1.937742e+02
3.317321e+06 -4.882597e+02 -5.465317e+03
3.317271e+06 -6.373127e+02 -3.327269e+03
3.313553e+06 -7.398391e+02 3.127925e+03
3.271811e+06 1.113872e+03 2.552717e+02
3.272357e+06 1.309532e+03 -3.040520e+02
3.315456e+06 -5.300348e+02 -5.396650e+03
3.311737e+06 -7.785847e+02 3.085910e+03
3.271708e+06 1.073363e+03 3.656683e+02
3.272191e+06 1.227092e+03 -3.917495e+02
3.271956e+06 1.092916e+03 4.486848e+02
3.313616e+06 -5.665974e+02 -5.323756e+03
3.309948e+06 -8.101180e+02 3.041879e+03
3.271572e+06 9.978904e+02 4.541749e+02
3.271965e+06 1.092387e+03 -4.483333e+02
3.271672e+06 8.933241e+02 4.646688e+02
3.311803e+06 -5.971248e+02 -5.247073e+03
3.311742e+06 -7.730872e+02 -3.202096e+03
3.308189e+06 -8.345857e+02 2.995841e+03
3.271410e+06 8.777518e+02 5.127710e+02
3.271682e+06 8.928504e+02 -4.646355e+02
3.271338e+06 6.153627e+02 4.314654e+02
3.310018e+06 -6.212356e+02 -5.166945e+03
3.309954e+06 -8.044205e+02 -3.156095e+03
3.306461e+06 -8.525055e+02 2.947883e+03
3.271233e+06 7.013228e+02 5.333636e+02
3.271348e+06 6.154496e+02 -4.320626e+02
3.270962e+06 -9.875147e+02 2.837513e+01
3.308262e+06 -6.391570e+02 -5.083699e+03
3.308195e+06 -8.287180e+02 -3.108027e+03
3.304763e+06 -8.646547e+02 2.898212e+03
3.271057e+06 4.534806e+02 5.104321e+02
3.270470e+06 -3.152119e+02 1.640522e+02
3.270976e+06 2.497028e+02 -3.457860e+02
3.270914e+06 1.303024e+02 4.311128e+02
3.270461e+06 -6.534850e+02 6.251838e+01
3.299863e+06 -8.756152e+02 2.742127e+03
3.304769e+06 -8.585731e+02 -3.006231e+03
3.301544e+06 -6.656373e+02 -4.728873e+03
3.301470e+06 -8.691288e+02 -2.898803e+03
3.298294e+06 -8.735544e+02 2.688843e+03
3.299943e+06 -6.652083e+02 -4.637375e+03
3.299869e+06 -8.693711e+02 -2.843844e+03
3.296757e+06 -8.697530e+02 2.635392e+03
3.298374e+06 -6.632372e+02 -4.545680e+03
3.295253e+06 -8.646902e+02 2.581972e+03
3.296838e+06 -6.601411e+02 -4.454113e+03
3.296763e+06 -8.635352e+02 -2.732973e+03
3.293780e+06 -8.587409e+02 2.528737e+03
3.295333e+06 -6.562397e+02 -4.362922e+03
3.292339e+06 -8.521817e+02 2.475800e+03
3.270745e+06 -1.083755e+03 2.545416e+01
3.270883e+06 -2.357850e+02 -1.774992e+02
3.270814e+06 -3.529240e+02 -2.943936e+02
3.271024e+06 3.689916e+02 1.261018e+02
3.270898e+06 1.342608e+02 -4.310598e+02
3.271240e+06 7.179419e+02 1.764605e+02
3.270778e+06 -9.458924e+01 3.938072e+01
3.271062e+06 4.542190e+02 -5.092594e+02
3.271453e+06 9.877046e+02 2.006376e+02
3.271238e+06 6.993932e+02 -5.334335e+02
3.271205e+06 8.322711e+02 -2.952546e+02
3.271644e+06 1.183499e+03 1.981351e+02
3.271415e+06 8.760894e+02 -5.125858e+02
3.271346e+06 1.031809e+03 -2.760659e+02
3.271803e+06 1.315676e+03 1.725330e+02
3.271578e+06 9.966050e+02 -4.538123e+02
3.271477e+06 1.169063e+03 -2.366172e+02
3.271921e+06 1.395506e+03 1.285675e+02
3.271715e+06 1.072319e+03 -3.653271e+02
3.271586e+06 1.255396e+03 -1.812204e+02
3.271993e+06 1.433671e+03 7.098717e+01
3.271817e+06 1.112981e+03 -2.550473e+02
3.272017e+06 1.439572e+03 4.038362e+00
3.271880e+06 1.126645e+03 -1.300076e+02
3.271992e+06 1.421097e+03 -6.872245e+01
3.271898e+06 1.119850e+03 3.926274e+00
3.271917e+06 1.384632e+03 -1.444446e+02
3.271871e+06 1.097818e+03 1.420789e+02
3.271662e+06 1.277519e+03 1.197465e+02
3.271794e+06 1.335207e+03 -2.209205e+02
3.271797e+06 1.064648e+03 2.808524e+02
3.271573e+06 1.236639e+03 2.002070e+02
3.271624e+06 1.276685e+03 -2.964880e+02
3.271677e+06 1.023504e+03 4.175599e+02
3.271409e+06 1.211967e+03 -3.699298e+02
3.271512e+06 9.767837e+02 5.502512e+02
3.271261e+06 1.129873e+03 3.551878e+02
3.271153e+06 1.143181e+03 -4.403772e+02
3.271303e+06 9.262735e+02 6.775507e+02
3.271041e+06 1.068957e+03 4.279473e+02
3.270856e+06 1.071853e+03 -5.072291e+02
3.271052e+06 8.732770e+02 7.985197e+02
3.270522e+06 9.990476e+02 -5.700832e+02
3.270762e+06 8.187245e+02 9.125410e+02
3.270153e+06 9.254844e+02 -6.286819e+02
3.270434e+06 7.632641e+02 1.019230e+03
3.270144e+06 8.735269e+02 6.218393e+02
3.269752e+06 8.516309e+02 -6.828702e+02
3.270072e+06 7.073332e+02 1.118364e+03
3.269775e+06 8.067412e+02 6.776807e+02
3.269321e+06 7.777757e+02 -7.325637e+02
3.269678e+06 6.512166e+02 1.209832e+03
3.269375e+06 7.398262e+02 7.290010e+02
3.268864e+06 7.040825e+02 -7.777257e+02
3.269254e+06 5.950894e+02 1.293591e+03
3.268946e+06 6.729724e+02 7.757911e+02
3.268382e+06 6.306331e+02 -8.183488e+02
3.268803e+06 5.390512e+02 1.369645e+03
3.267878e+06 5.574577e+02 -8.544452e+02
3.268328e+06 4.831521e+02 1.438024e+03
3.267356e+06 4.845572e+02 -8.860377e+02
3.267831e+06 4.274106e+02 1.498769e+03
3.266817e+06 4.119223e+02 -9.131561e+02
3.267315e+06 3.718281e+02 1.551929e+03
3.267000e+06 4.075285e+02 9.180393e+02
3.266263e+06 3.395454e+02 -9.358350e+02
3.266783e+06 3.163987e+02 1.597551e+03
3.266468e+06 3.417179e+02 9.425196e+02
3.265698e+06 2.674326e+02 -9.541135e+02
3.266236e+06 2.611185e+02 1.635686e+03
3.265125e+06 1.956121e+02 -9.680374e+02
3.265678e+06 2.059913e+02 1.666384e+03
3.265369e+06 2.107618e+02 9.784033e+02
3.264544e+06 1.241462e+02 -9.776618e+02
3.265111e+06 1.510355e+02 1.689699e+03
3.264807e+06 1.456702e+02 9.898762e+02
3.263960e+06 5.314178e+01 -9.830560e+02
3.264537e+06 9.629033e+01 1.705695e+03
3.263374e+06 -1.723901e+01 -9.843080e+02
3.263959e+06 4.182243e+01 1.714450e+03
3.262789e+06 -8.676499e+01 -9.815321e+02
3.263379e+06 -1.226540e+01 1.716066e+03
3.263097e+06 -4.704033e+01 9.989954e+02
3.262207e+06 -1.551211e+02 -9.748752e+02
3.262801e+06 -6.582452e+01 1.710674e+03
3.262527e+06 -1.098496e+02 9.938495e+02
3.261631e+06 -2.218948e+02 -9.645224e+02
3.262225e+06 -1.186493e+02 1.698453e+03
3.261962e+06 -1.714856e+02 9.847960e+02
3.261062e+06 -2.865663e+02 -9.507018e+02
3.261654e+06 -1.704637e+02 1.679632e+03
3.261403e+06 -2.315408e+02 9.719955e+02
3.260504e+06 -3.485044e+02 -9.336822e+02
3.261091e+06 -2.209046e+02 1.654506e+03
3.259957e+06 -4.069786e+02 -9.137633e+02
3.260538e+06 -2.695072e+02 1.623440e+03
3.259424e+06 -4.611926e+02 -8.912493e+02
3.259996e+06 -3.156899e+02 1.586867e+03
3.258906e+06 -5.103551e+02 -8.664090e+02
3.259467e+06 -3.587481e+02 1.545267e+03
3.259267e+06 -4.441532e+02 8.878641e+02
3.258405e+06 -5.537819e+02 -8.394267e+02
3.258953e+06 -3.978747e+02 1.499130e+03
3.257922e+06 -5.910128e+02 -8.103820e+02
3.258456e+06 -4.322418e+02 1.448901e+03
3.258282e+06 -5.236973e+02 8.297233e+02
3.257458e+06 -6.218962e+02 -7.792847e+02
3.257976e+06 -4.611946e+02 1.394934e+03
3.257816e+06 -5.546531e+02 7.974206e+02
3.257015e+06 -6.466167e+02 -7.461473e+02
3.257515e+06 -4.844964e+02 1.337513e+03
3.256593e+06 -6.656624e+02 -7.110579e+02
3.257074e+06 -5.024313e+02 1.276922e+03
3.256193e+06 -6.797345e+02 -6.742084e+02
3.256655e+06 -5.156815e+02 1.213523e+03
3.256532e+06 -6.134912e+02 6.896226e+02
3.255816e+06 -6.896320e+02 -6.358699e+02
3.256257e+06 -5.250792e+02 1.147766e+03
3.256146e+06 -6.238182e+02 6.507996e+02
3.255462e+06 -6.961494e+02 -5.963440e+02
3.255881e+06 -5.314238e+02 1.080135e+03
3.255783e+06 -6.307896e+02 6.109792e+02
3.255133e+06 -7.000137e+02 -5.559229e+02
3.255529e+06 -5.354090e+02 1.011104e+03
3.255442e+06 -6.351199e+02 5.704256e+02
3.254827e+06 -7.018517e+02 -5.148658e+02
3.255200e+06 -5.376065e+02 9.410907e+02
3.255125e+06 -6.374238e+02 5.293698e+02
3.254546e+06 -7.021805e+02 -4.733888e+02
3.254895e+06 -5.384729e+02 8.704434e+02
3.254832e+06 -6.382091e+02 4.880026e+02
3.254288e+06 -7.014141e+02 -4.316647e+02
3.254613e+06 -5.383657e+02 7.994403e+02
3.254562e+06 -6.378813e+02 4.464744e+02
3.254055e+06 -6.998733e+02 -3.898256e+02
3.254356e+06 -5.375605e+02 7.282930e+02
3.253845e+06 -6.978021e+02 -3.479700e+02
3.254122e+06 -5.362651e+02 6.571578e+02
3.254094e+06 -6.350789e+02 3.633571e+02
3.253660e+06 -6.953801e+02 -3.061690e+02
3.253913e+06 -5.346343e+02 5.861459e+02
3.253498e+06 -6.927370e+02 -2.644715e+02
3.253727e+06 -5.327808e+02 5.153336e+02
3.253722e+06 -6.307291e+02 2.805924e+02
3.253361e+06 -6.899642e+02 -2.229107e+02
3.253566e+06 -5.307860e+02 4.447710e+02
3.253246e+06 -6.871241e+02 -1.815074e+02
3.253428e+06 -5.287064e+02 3.744889e+02
3.253156e+06 -6.842569e+02 -1.402742e+02
3.253313e+06 -5.265803e+02 3.045047e+02
3.253342e+06 -6.231778e+02 1.576355e+02
3.253089e+06 -6.813883e+02 -9.921748e+01
3.253222e+06 -5.244327e+02 2.348265e+02
3.253263e+06 -6.205907e+02 1.170086e+02
3.253045e+06 -6.785330e+02 -5.833973e+01
3.253155e+06 -5.222796e+02 1.654565e+02
3.253207e+06 -6.180067e+02 7.656372e+01
3.253024e+06 -6.756977e+02 -1.764111e+01
3.253111e+06 -5.201304e+02 9.639286e+01
3.253174e+06 -6.154355e+02 3.629889e+01
3.253027e+06 -6.728850e+02 2.288001e+01
3.253090e+06 -5.179893e+02 2.763209e+01
3.253164e+06 -6.128807e+02 -3.788613e+00
3.253052e+06 -6.700944e+02 6.322581e+01
3.253092e+06 -5.158577e+02 -4.083074e+01
3.253177e+06 -6.103434e+02 -4.370184e+01
3.253100e+06 -6.673235e+02 1.033989e+02
3.253117e+06 -5.137360e+02 -1.090007e+02
3.253214e+06 -6.078225e+02 -8.344439e+01
3.253172e+06 -6.645691e+02 1.434019e+02
3.253165e+06 -5.116226e+02 -1.768827e+02
3.253273e+06 -6.053155e+02 -1.230189e+02
3.253266e+06 -6.618280e+02 1.832374e+02
3.253236e+06 -5.095157e+02 -2.444814e+02
3.253382e+06 -6.590968e+02 2.229075e+02
3.253330e+06 -5.074133e+02 -3.118007e+02
3.253460e+06 -6.003332e+02 -2.016746e+02
3.253522e+06 -6.563733e+02 2.624145e+02
3.253446e+06 -5.053140e+02 -3.788441e+02
3.253683e+06 -6.536556e+02 3.017604e+02
3.253585e+06 -5.032159e+02 -4.456146e+02
3.253737e+06 -5.953776e+02 -2.796868e+02
3.253867e+06 -6.509432e+02 3.409471e+02
3.253747e+06 -5.011183e+02 -5.121150e+02
3.254074e+06 -6.482375e+02 3.799772e+02
3.253930e+06 -4.990209e+02 -5.783478e+02
3.254302e+06 -6.455415e+02 4.188533e+02
3.254137e+06 -4.969246e+02 -6.443157e+02
3.254321e+06 -5.879775e+02 -3.955280e+02
3.254553e+06 -6.428618e+02 4.575790e+02
3.254365e+06 -4.948315e+02 -7.100216e+02
3.254560e+06 -5.855264e+02 -4.338349e+02
3.254826e+06 -6.402080e+02 4.961595e+02
3.254615e+06 -4.927456e+02 -7.754695e+02
3.254821e+06 -5.830924e+02 -4.719924e+02
3.255120e+06 -6.375948e+02 5.346014e+02
3.254888e+06 -4.906726e+02 -8.406648e+02
3.255104e+06 -5.806858e+02 -5.100045e+02
3.255437e+06 -6.350432e+02 5.729142e+02
3.255182e+06 -4.886222e+02 -9.056147e+02
3.255410e+06 -5.783216e+02 -5.478767e+02
3.255775e+06 -6.325826e+02 6.111104e+02
3.255499e+06 -4.866074e+02 -9.703299e+02
3.255737e+06 -5.760215e+02 -5.856166e+02
3.256135e+06 -6.302514e+02 6.492071e+02
3.255837e+06 -4.846465e+02 -1.034825e+03
3.256085e+06 -5.738141e+02 -6.232352e+02
3.256517e+06 -6.281006e+02 6.872262e+02
3.256197e+06 -4.827647e+02 -1.099120e+03
3.256456e+06 -5.717380e+02 -6.607469e+02
3.256921e+06 -6.261941e+02 7.251952e+02
3.256578e+06 -4.809953e+02 -1.163242e+03
3.257346e+06 -6.246110e+02 7.631480e+02
3.256982e+06 -4.793820e+02 -1.227227e+03
3.257262e+06 -5.681921e+02 -7.355311e+02
3.257792e+06 -6.234438e+02 8.011230e+02
3.257407e+06 -4.779810e+02 -1.291118e+03
3.258261e+06 -6.227970e+02 8.391619e+02
3.257853e+06 -4.768630e+02 -1.354971e+03
3.258155e+06 -5.659455e+02 -8.101869e+02
3.258750e+06 -6.227792e+02 8.773037e+02
3.258321e+06 -4.761157e+02 -1.418848e+03
3.259262e+06 -6.234911e+02 9.155799e+02
3.258811e+06 -4.758415e+02 -1.482816e+03
3.259795e+06 -6.250102e+02 9.540080e+02
3.259323e+06 -4.761527e+02 -1.546940e+03
3.259657e+06 -5.667053e+02 -9.225555e+02
3.260350e+06 -6.273774e+02 9.925932e+02
3.259856e+06 -4.771522e+02 -1.611273e+03
3.260202e+06 -5.684332e+02 -9.602475e+02
3.260927e+06 -6.305888e+02 1.031336e+03
3.260411e+06 -4.789012e+02 -1.675858e+03
3.260768e+06 -5.709703e+02 -9.980987e+02
3.261526e+06 -6.345962e+02 1.070245e+03
3.260988e+06 -4.813933e+02 -1.740735e+03
3.261357e+06 -5.742862e+02 -1.036132e+03
3.262147e+06 -6.393169e+02 1.109339e+03
3.261587e+06 -4.845572e+02 -1.805946e+03
3.261968e+06 -5.783059e+02 -1.074374e+03
3.262790e+06 -6.446477e+02 1.148652e+03
3.262209e+06 -4.882863e+02 -1.871550e+03
3.262601e+06 -5.829294e+02 -1.112861e+03
3.263456e+06 -6.504800e+02 1.188224e+03
3.262853e+06 -4.924688e+02 -1.937612e+03
3.263257e+06 -5.880497e+02 -1.151631e+03
3.264145e+06 -6.567113e+02 1.228097e+03
3.263519e+06 -4.970045e+02 -2.004200e+03
3.263935e+06 -5.935656e+02 -1.190720e+03
3.264856e+06 -6.632505e+02 1.268309e+03
3.264208e+06 -5.018084e+02 -2.071375e+03
3.265591e+06 -6.700218e+02 1.308894e+03
3.264920e+06 -5.068123e+02 -2.139191e+03
3.265361e+06 -6.054411e+02 -1.269994e+03
3.266349e+06 -6.769632e+02 1.349879e+03
3.265655e+06 -5.119622e+02 -2.207691e+03
3.267131e+06 -6.840260e+02 1.391284e+03
3.266414e+06 -5.172160e+02 -2.276911e+03
3.266881e+06 -6.180126e+02 -1.350896e+03
3.267937e+06 -6.911731e+02 1.433128e+03
3.267197e+06 -5.225420e+02 -2.346878e+03
3.268767e+06 -6.983775e+02 1.475422e+03
3.268003e+06 -5.279156e+02 -2.417611e+03
3.269622e+06 -7.056186e+02 1.518175e+03
3.268834e+06 -5.333201e+02 -2.489125e+03
3.269340e+06 -6.374677e+02 -1.475581e+03
3.270501e+06 -7.128832e+02 1.561396e+03
3.269689e+06 -5.387424e+02 -2.561432e+03
3.270208e+06 -6.440218e+02 -1.518067e+03
3.271406e+06 -7.201616e+02 1.605090e+03
3.270569e+06 -5.441738e+02 -2.634539e+03
3.271102e+06 -6.505903e+02 -1.561023e+03
3.272336e+06 -7.274486e+02 1.649260e+03
3.271475e+06 -5.496088e+02 -2.708453e+03
3.272021e+06 -6.571669e+02 -1.604454e+03
3.273292e+06 -7.347413e+02 1.693910e+03
3.272405e+06 -5.550436e+02 -2.783179e+03
3.272966e+06 -6.637480e+02 -1.648361e+03
3.274274e+06 -7.420389e+02 1.739043e+03
3.273362e+06 -5.604760e+02 -2.858721e+03
3.273936e+06 -6.703317e+02 -1.692748e+03
3.275282e+06 -7.493422e+02 1.784663e+03
3.274344e+06 -5.659060e+02 -2.935083e+03
3.274933e+06 -6.769185e+02 -1.737617e+03
3.276317e+06 -7.566534e+02 1.830771e+03
3.275353e+06 -5.713336e+02 -3.012269e+03
3.275956e+06 -6.835091e+02 -1.782970e+03
3.277379e+06 -7.639752e+02 1.877371e+03
3.276389e+06 -5.767596e+02 -3.090284e+03
3.278468e+06 -7.713113e+02 1.924467e+03
3.277451e+06 -5.821858e+02 -3.169132e+03
3.278083e+06 -6.967109e+02 -1.875141e+03
3.279585e+06 -7.786652e+02 1.972062e+03
3.278541e+06 -5.876144e+02 -3.248819e+03
3.280729e+06 -7.860407e+02 2.020160e+03
3.279658e+06 -5.930471e+02 -3.329350e+03
3.280320e+06 -7.099587e+02 -1.969288e+03
3.281902e+06 -7.934403e+02 2.068764e+03
3.280803e+06 -5.984858e+02 -3.410733e+03
3.283104e+06 -8.008649e+02 2.117879e+03
3.281977e+06 -6.039319e+02 -3.492975e+03
3.284334e+06 -8.083117e+02 2.167507e+03
3.283179e+06 -6.093857e+02 -3.576082e+03
3.283886e+06 -7.299568e+02 -2.114286e+03
3.285593e+06 -8.157733e+02 2.217649e+03
3.284409e+06 -6.148453e+02 -3.660062e+03
3.285132e+06 -7.366534e+02 -2.163644e+03
3.286882e+06 -8.232332e+02 2.268303e+03
3.285669e+06 -6.203059e+02 -3.744922e+03
3.286408e+06 -7.433529e+02 -2.213521e+03
3.288200e+06 -8.306635e+02 2.319463e+03
3.286959e+06 -6.257567e+02 -3.830665e+03
3.287713e+06 -7.500361e+02 -2.263917e+03
3.289549e+06 -8.380175e+02 2.371117e+03
3.288278e+06 -6.311805e+02 -3.917291e+03
3.289049e+06 -7.566726e+02 -2.314832e+03
3.290928e+06 -8.452235e+02 2.423241e+03
3.289627e+06 -6.365490e+02 -4.004792e+03
3.290414e+06 -7.632170e+02 -2.366254e+03
3.293786e+06 -8.526114e+02 -2.622273e+03
3.293860e+06 -6.517749e+02 -4.272288e+03
3.291007e+06 -6.418188e+02 -4.093151e+03
3.291811e+06 -7.696043e+02 -2.418170e+03
3.292344e+06 -8.461347e+02 -2.567351e+03
3.292418e+06 -6.469250e+02 -4.182337e+03
3.306536e+06 -6.516234e+02 -4.997742e+03
3.306466e+06 -8.464989e+02 -3.057997e+03
3.303176e+06 -6.639884e+02 -4.819773e+03
3.303098e+06 -8.719500e+02 2.847132e+03
3.342960e+06 2.277419e+02 -5.771524e+03
3.338953e+06 1.118043e+02 -5.807018e+03
3.340959e+06 1.697722e+02 -5.793247e+03
3.340982e+06 2.059252e+02 -3.518462e+03
3.338966e+06 1.307723e+02 3.397465e+03
3.374913e+06 1.265916e+03 -4.000118e+03
3.372003e+06 1.151556e+03 -4.327276e+03
3.373628e+06 1.560893e+03 -2.521157e+03
3.373486e+06 1.208886e+03 -4.167741e+03
3.372138e+06 1.495153e+03 2.521766e+03
3.388410e+06 1.543621e+03 7.808736e+01
3.388589e+06 1.999853e+03 2.597504e+01
3.388314e+06 1.625089e+03 -3.554928e+02
3.388500e+06 2.115122e+03 2.299130e+02
3.378035e+06 6.984255e+02 2.859682e+03
3.379965e+06 7.931232e+02 2.656756e+03
3.380056e+06 1.031956e+03 -1.541704e+03
3.358181e+06 -7.314361e+01 3.540685e+03
3.360039e+06 -2.079981e+01 2.072454e+03
3.359413e+06 -4.689812e+01 2.152473e+03
3.360648e+06 3.352990e+00 3.548743e+03
3.337360e+06 -1.937345e+02 3.083168e+03
3.337339e+06 -2.552080e+02 1.890283e+03
3.339512e+06 -1.997530e+02 3.139943e+03
3.338409e+06 -2.592298e+02 1.907487e+03
3.320551e+06 -1.422632e+02 2.674002e+03
3.320535e+06 -1.871212e+02 1.640113e+03
3.322405e+06 -1.482534e+02 2.715497e+03
3.322385e+06 -1.965877e+02 -1.606216e+03
3.305887e+06 -1.480901e+02 2.350998e+03
3.305869e+06 -1.954448e+02 1.437066e+03
3.307511e+06 -1.341186e+02 2.392566e+03
3.307492e+06 -1.797683e+02 -1.410883e+03
3.293612e+06 -3.174586e+02 1.811967e+03
3.294877e+06 -2.967072e+02 1.895367e+03
3.294601e+06 -3.589970e+02 1.095179e+03
3.294202e+06 -3.992029e+02 1.131530e+03
3.294237e+06 -3.070815e+02 1.854351e+03
3.285930e+06 -4.813012e+02 9.485928e+02
3.285875e+06 -6.236221e+02 5.769761e+02
3.286619e+06 -4.623765e+02 1.074928e+03
3.286562e+06 -6.038331e+02 -6.300021e+02
3.283533e+06 -2.832515e+02 -4.534494e+01
3.283576e+06 -3.922919e+02 1.050902e+01
3.283489e+06 -4.080398e+02 1.319467e+01
3.283531e+06 -3.473831e+02 3.768338e+01
3.284362e+06 2.673990e+02 -6.536148e+01
3.284297e+06 1.980536e+02 -1.277022e+02
3.284284e+06 2.554633e+02 -6.509832e+01
3.284335e+06 2.327164e+02 -9.886177e+01
3.284362e+06 3.019313e+02 -4.249736e+01
3.282083e+06 7.869293e+02 1.082875e+03
3.282172e+06 1.011487e+03 6.739541e+02
3.282752e+06 7.383780e+02 8.852595e+02
3.282835e+06 9.596410e+02 -5.388538e+02
3.272439e+06 5.906866e+01 2.217681e+03
3.272446e+06 7.519972e+01 1.315212e+03
3.273931e+06 2.277618e+02 2.181331e+03
3.273956e+06 2.943474e+02 -1.242677e+03
3.262784e+06 -1.329773e+03 8.627473e+02
3.262629e+06 -1.724350e+03 4.833979e+02
3.263479e+06 -1.155558e+03 1.193732e+03
3.263339e+06 -1.508469e+03 -6.565437e+02
3.268378e+06 -2.533865e+03 -3.342462e+03
3.268098e+06 -3.255844e+03 -2.062142e+03
3.266334e+06 -2.455268e+03 -2.702102e+03
3.266049e+06 -3.187721e+03 1.627249e+03
3.296626e+06 -1.092629e+03 -7.319096e+03
3.296505e+06 -1.440318e+03 -4.410987e+03
3.291751e+06 -1.385692e+03 -6.970354e+03
3.291590e+06 -1.830075e+03 4.039610e+03
3.339045e+06 1.269096e+03 -7.267990e+03
3.333920e+06 9.751918e+02 -7.556616e+03
3.336643e+06 1.432480e+03 -4.470065e+03
3.334040e+06 1.248058e+03 4.380696e+03
3.366559e+06 3.220167e+03 -2.635061e+03
3.364433e+06 3.054047e+03 -3.455373e+03
3.365568e+06 3.146623e+03 -3.048876e+03
3.365919e+06 4.038763e+03 -1.824933e+03
3.364783e+06 3.951566e+03 1.985266e+03
3.364450e+06 2.061548e+03 3.086558e+03
3.364690e+06 2.670023e+03 1.821878e+03
3.366395e+06 2.321166e+03 2.487593e+03
3.366669e+06 3.026601e+03 -1.396369e+03
3.339165e+06 -4.049166e+01 5.249624e+03
3.341874e+06 1.776071e+02 3.059731e+03
3.340994e+06 1.064970e+02 3.148292e+03
3.342793e+06 2.230299e+02 5.233690e+03
3.315788e+06 -1.834643e+03 3.225331e+03
3.315588e+06 -2.352991e+03 1.941500e+03
3.318159e+06 -1.663551e+03 3.676719e+03
3.317969e+06 -2.156951e+03 -2.120167e+03
3.308731e+06 -1.719164e+03 -2.696489e+02
3.308531e+06 -2.229907e+03 -1.444258e+02
3.308708e+06 -1.797098e+03 2.048761e+02
3.308492e+06 -2.345797e+03 -1.428567e+02
3.318032e+06 -1.112150e+03 -3.147460e+03
3.317904e+06 -1.445883e+03 -1.908322e+03
3.315978e+06 -1.193058e+03 -2.833152e+03
3.315835e+06 -1.560389e+03 1.651870e+03
3.339162e+06 -5.078638e+02 -4.832519e+03
3.339105e+06 -6.683814e+02 -2.940010e+03
3.335875e+06 -5.877064e+02 -4.676292e+03
3.335806e+06 -7.766121e+02 2.740270e+03
3.366147e+06 6.868995e+01 -5.340833e+03
3.366158e+06 7.733227e+01 -3.250355e+03
3.362426e+06 -6.868285e+00 -5.340395e+03
3.362426e+06 -2.133949e+01 3.131963e+03
3.391290e+06 5.952964e+02 -4.757491e+03
3.391361e+06 7.627776e+02 -2.891616e+03
3.387899e+06 5.202013e+02 -4.904313e+03
3.387961e+06 6.685817e+02 2.873006e+03
3.412239e+06 1.139990e+03 -2.980620e+03
3.412370e+06 1.470689e+03 -1.807550e+03
3.410026e+06 1.075242e+03 -3.282476e+03
3.410152e+06 1.396993e+03 1.917200e+03
3.421266e+06 1.206118e+03 -6.354429e+02
3.421406e+06 1.563989e+03 -3.941003e+02
3.420697e+06 1.227227e+03 -9.738951e+02
3.420840e+06 1.600473e+03 5.794207e+02
3.418846e+06 1.042092e+03 1.557890e+03
3.418967e+06 1.350530e+03 9.466336e+02
3.419845e+06 1.065370e+03 1.264834e+03
3.419970e+06 1.389848e+03 -7.394146e+02
3.406406e+06 8.775071e+02 3.415400e+03
3.406508e+06 1.132426e+03 2.081901e+03
3.408729e+06 9.031862e+02 3.172032e+03
3.408836e+06 1.174510e+03 -1.864065e+03
3.384439e+06 3.094844e+02 4.716025e+03
3.384477e+06 3.909855e+02 2.853500e+03
3.387714e+06 4.342494e+02 4.622603e+03
3.387765e+06 5.540970e+02 -2.694658e+03
3.361508e+06 -6.235171e+02 4.372703e+03
3.361437e+06 -8.163716e+02 2.643192e+03
3.364608e+06 -4.889051e+02 4.531246e+03
3.364551e+06 -6.468246e+02 -2.638235e+03
3.344718e+06 -1.565897e+03 2.247386e+03
3.344536e+06 -2.033071e+03 1.343188e+03
3.346418e+06 -1.433703e+03 2.658708e+03
3.346246e+06 -1.875465e+03 -1.533236e+03
3.341926e+06 -1.750204e+03 -1.130859e+03
3.341731e+06 -2.250722e+03 -6.527484e+02
3.341305e+06 -1.886836e+03 -6.606816e+02
3.341093e+06 -2.431349e+03 3.619152e+02
3.353239e+06 -2.314594e+02 -3.070567e+03
3.353213e+06 -3.044475e+02 -1.821517e+03
3.351141e+06 -4.614745e+02 -2.972547e+03
3.351086e+06 -6.069140e+02 1.691494e+03
3.366074e+06 1.260303e+03 -2.168625e+03
3.366221e+06 1.633256e+03 -1.268695e+03
3.364452e+06 1.030900e+03 -2.481930e+03
3.364575e+06 1.343448e+03 1.401337e+03
3.368417e+06 2.545180e+03 1.584446e+03
3.368694e+06 3.252429e+03 9.755022e+02
3.369296e+06 2.472681e+03 9.367415e+02
3.369574e+06 3.191787e+03 -5.812074e+02
3.350514e+06 1.303159e+03 5.395712e+03
3.350669e+06 1.678616e+03 3.239228e+03
3.354130e+06 1.551032e+03 5.013564e+03
3.354316e+06 2.013876e+03 -2.890853e+03
3.323415e+06 -3.281013e+02 6.190522e+03
3.323381e+06 -4.418750e+02 3.728240e+03
3.327702e+06 -7.622776e+01 6.257515e+03
3.327697e+06 -1.167093e+02 -3.626581e+03
3.298040e+06 -2.032504e+03 3.873361e+03
3.297811e+06 -2.627288e+03 2.324366e+03
3.300863e+06 -1.817221e+03 4.385804e+03
3.300651e+06 -2.374483e+03 -2.529689e+03
3.289131e+06 -1.863802e+03 -9.607964e+01
3.288916e+06 -2.414801e+03 -9.624735e+00
3.289241e+06 -2.044024e+03 4.228241e+02
3.289000e+06 -2.660409e+03 -2.980288e+02
3.295097e+06 -5.643269e+02 -2.227488e+03
3.294099e+06 -8.502477e+02 -1.221472e+03
3.294276e+06 -8.644334e+02 -1.262132e+03
3.293638e+06 -7.661907e+02 -2.047357e+03
3.305493e+06 7.419189e+02 -2.077467e+03
3.305580e+06 9.603488e+02 -1.221714e+03
3.304011e+06 5.430480e+02 -2.249362e+03
3.304076e+06 7.072236e+02 1.272742e+03
3.310442e+06 1.557378e+03 2.495887e+02
3.310478e+06 1.573732e+03 -1.491116e+02
3.310254e+06 1.849446e+03 -2.941699e+01
3.310494e+06 1.571574e+03 4.966310e+01
3.310667e+06 2.013460e+03 2.724294e+01
3.303988e+06 9.772729e+02 2.488688e+03
3.304102e+06 1.264579e+03 1.498268e+03
3.305598e+06 1.080124e+03 2.213054e+03
3.305727e+06 1.407637e+03 -1.278601e+03
3.290056e+06 3.090226e+02 3.591656e+03
3.291316e+06 4.616029e+02 2.148891e+03
3.292474e+06 4.118271e+02 3.499147e+03
3.292524e+06 5.316224e+02 -2.039393e+03
3.272713e+06 -3.691840e+02 3.493658e+03
3.272674e+06 -4.761806e+02 2.123790e+03
3.275112e+06 -2.876643e+02 3.579018e+03
3.275081e+06 -3.763688e+02 -2.092295e+03
3.259103e+06 -5.678355e+02 2.634143e+03
3.260934e+06 -5.574310e+02 2.785582e+03
3.259941e+06 -7.325678e+02 1.660317e+03
3.260006e+06 -5.628485e+02 2.710232e+03
3.260868e+06 -7.303221e+02 -1.644805e+03
3.249800e+06 -6.240083e+02 1.597286e+03
3.250932e+06 -6.154136e+02 1.762220e+03
3.249728e+06 -8.098133e+02 9.779936e+02
3.250352e+06 -6.197035e+02 1.680009e+03
3.250281e+06 -8.043399e+02 1.028763e+03
3.245238e+06 -6.772447e+02 4.745962e+02
3.245160e+06 -8.772859e+02 2.897795e+02
3.245617e+06 -6.706942e+02 6.524706e+02
3.245537e+06 -8.751219e+02 -3.839771e+02
3.245602e+06 -5.208643e+02 -5.936895e+02
3.245249e+06 -5.825084e+02 -4.532411e+02
3.245183e+06 -7.529666e+02 2.526620e+02
3.245414e+06 -5.530758e+02 -5.251457e+02
3.245352e+06 -7.115066e+02 -3.063137e+02
3.249527e+06 -1.539822e+01 -1.061920e+03
3.249526e+06 -2.055680e+01 -6.303005e+02
3.248817e+06 -9.603175e+01 -1.046695e+03
3.248806e+06 -1.259786e+02 5.961180e+02
3.253573e+06 5.103904e+02 -6.364925e+02
3.253633e+06 6.622838e+02 -3.688984e+02
3.253102e+06 4.293070e+02 -7.615247e+02
3.253153e+06 5.604863e+02 4.270433e+02
3.253861e+06 8.553413e+02 5.830406e+02
3.253948e+06 1.076924e+03 3.460927e+02
3.254186e+06 8.653291e+02 3.806654e+02
3.254280e+06 1.109028e+03 -2.276335e+02
3.249677e+06 -5.547391e+02 9.619323e+02
3.249614e+06 -7.175502e+02 5.106516e+02
3.250362e+06 -2.570502e+02 1.069642e+03
3.250331e+06 -3.360895e+02 -5.488108e+02
3.250129e+06 -2.665899e+03 -1.789643e+03
3.249803e+06 -3.500363e+03 -1.208942e+03
3.249157e+06 -2.296558e+03 -1.102316e+03
3.248876e+06 -3.018026e+03 7.575279e+02
3.273505e+06 -5.109476e+03 -1.027881e+04
3.267343e+06 -5.320665e+03 -8.642932e+03
3.270235e+06 -6.568873e+03 -5.435348e+03
3.270298e+06 -5.331015e+03 -9.491712e+03
3.269535e+06 -7.324549e+03 -5.901257e+03
3.266569e+06 -7.407187e+03 5.275208e+03
3.245543e+06 -6.711890e+02 -3.469931e+02
3.250859e+06 -8.042061e+02 -1.040350e+03
3.290093e+06 3.947842e+02 2.175165e+03
3.310652e+06 2.024617e+03 8.435057e+01
3.293547e+06 -1.001900e+03 1.153343e+03
3.342820e+06 2.787276e+02 -3.017669e+03
3.366916e+06 4.125967e+03 -1.582498e+03
3.339198e+06 1.624120e+03 -4.375090e+03
3.284317e+06 2.584181e+02 5.581266e+01
3.283487e+06 -4.513537e+02 -3.974956e+01
3.294839e+06 -3.886001e+02 -1.114701e+03
3.339485e+06 -2.652972e+02 -1.856440e+03
3.360648e+06 2.693082e+00 -2.072941e+03
3.378117e+06 9.023364e+02 1.725926e+03
3.375062e+06 1.635320e+03 -2.418676e+03
3.342989e+06 2.812762e+02 -3.505008e+03
3.291777e+06 -8.603908e+02 -9.763503e+02
3.290934e+06 -8.392636e+02 -2.512833e+03
3.290381e+06 -8.531782e+02 -9.555561e+02
3.289555e+06 -8.321197e+02 -2.458771e+03
3.289016e+06 -8.457751e+02 -9.349309e+02
3.288206e+06 -8.248263e+02 -2.405200e+03
3.287681e+06 -8.382557e+02 -9.144889e+02
3.286887e+06 -8.174548e+02 -2.352143e+03
3.286375e+06 -8.306805e+02 -8.942407e+02
3.285599e+06 -8.100529e+02 -2.299612e+03
3.285100e+06 -8.230882e+02 -8.741912e+02
3.284339e+06 -8.026486e+02 -2.247614e+03
3.283854e+06 -8.155024e+02 -8.543434e+02
3.283109e+06 -7.952583e+02 -2.196149e+03
3.281908e+06 -7.878896e+02 -2.145216e+03
3.282637e+06 -8.079356e+02 -8.346981e+02
3.282668e+06 -7.232730e+02 -2.065443e+03
3.280735e+06 -7.805453e+02 -2.094812e+03
3.281448e+06 -8.003936e+02 -8.152548e+02
3.281480e+06 -7.166067e+02 -2.017112e+03
3.280288e+06 -7.928774e+02 -7.960127e+02
3.279591e+06 -7.732245e+02 -2.044934e+03
3.278474e+06 -7.659247e+02 -1.995576e+03
3.279157e+06 -7.853855e+02 -7.769705e+02
3.279187e+06 -7.033276e+02 -1.921966e+03
3.278052e+06 -7.779145e+02 -7.581268e+02
3.277385e+06 -7.586422e+02 -1.946736e+03
3.276323e+06 -7.513735e+02 -1.898409e+03
3.276976e+06 -7.704612e+02 -7.394802e+02
3.277006e+06 -6.901058e+02 -1.828811e+03
3.275926e+06 -7.630216e+02 -7.210292e+02
3.275288e+06 -7.441153e+02 -1.850592e+03
3.274903e+06 -7.555924e+02 -7.027726e+02
3.274280e+06 -7.368645e+02 -1.803282e+03
3.273907e+06 -7.481713e+02 -6.847091e+02
3.273298e+06 -7.296192e+02 -1.756476e+03
3.272936e+06 -7.407566e+02 -6.668375e+02
3.272342e+06 -7.223786e+02 -1.710170e+03
3.271992e+06 -7.333487e+02 -6.491564e+02
3.271412e+06 -7.151433e+02 -1.664363e+03
3.271073e+06 -7.259491e+02 -6.316647e+02
3.270507e+06 -7.079163e+02 -1.619049e+03
3.270180e+06 -7.185625e+02 -6.143603e+02
3.269627e+06 -7.007032e+02 -1.574227e+03
3.269312e+06 -7.111964e+02 -5.972411e+02
3.268773e+06 -6.935129e+02 -1.529889e+03
3.267943e+06 -6.863590e+02 -1.486028e+03
3.268468e+06 -7.038626e+02 -5.803042e+02
3.268496e+06 -6.309376e+02 -1.433562e+03
3.267137e+06 -6.792614e+02 -1.442637e+03
3.267649e+06 -6.965785e+02 -5.635459e+02
3.267676e+06 -6.244459e+02 -1.392003e+03
3.266854e+06 -6.893689e+02 -5.469607e+02
3.266355e+06 -6.722469e+02 -1.399700e+03
3.265597e+06 -6.653527e+02 -1.357203e+03
3.266082e+06 -6.822667e+02 -5.305421e+02
3.266109e+06 -6.116653e+02 -1.310231e+03
3.265335e+06 -6.753160e+02 -5.142812e+02
3.264862e+06 -6.586264e+02 -1.315123e+03
3.264150e+06 -6.521298e+02 -1.273433e+03
3.264610e+06 -6.685731e+02 -4.981669e+02
3.264637e+06 -5.993875e+02 -1.230165e+03
3.263909e+06 -6.621083e+02 -4.821857e+02
3.263462e+06 -6.459382e+02 -1.232098e+03
3.263231e+06 -6.560064e+02 -4.663220e+02
3.262796e+06 -6.401419e+02 -1.191081e+03
3.262575e+06 -6.503643e+02 -4.505588e+02
3.262152e+06 -6.348430e+02 -1.150337e+03
3.261942e+06 -6.452867e+02 -4.348795e+02
3.261531e+06 -6.301501e+02 -1.109825e+03
3.261331e+06 -6.408775e+02 -4.192703e+02
3.260932e+06 -6.261663e+02 -1.069510e+03
3.260743e+06 -6.372265e+02 -4.037228e+02
3.260355e+06 -6.229752e+02 -1.029369e+03
3.260176e+06 -6.343961e+02 -3.882351e+02
3.259801e+06 -6.206247e+02 -9.893925e+02
3.259632e+06 -6.324108e+02 -3.728094e+02
3.259267e+06 -6.191194e+02 -9.495785e+02
3.258756e+06 -6.184175e+02 -9.099193e+02
3.259109e+06 -6.312533e+02 -3.574478e+02
3.259135e+06 -5.657649e+02 -8.850001e+02
3.258266e+06 -6.184418e+02 -8.703952e+02
3.258609e+06 -6.308671e+02 -3.421495e+02
3.258634e+06 -5.655439e+02 -8.475551e+02
3.258130e+06 -6.311660e+02 -3.269074e+02
3.257798e+06 -6.190906e+02 -8.309732e+02
3.257351e+06 -6.202556e+02 -7.916121e+02
3.257672e+06 -6.320480e+02 -3.117085e+02
3.257698e+06 -5.668624e+02 -7.728582e+02
3.257237e+06 -6.334077e+02 -2.965368e+02
3.256926e+06 -6.218334e+02 -7.522693e+02
3.256523e+06 -6.237311e+02 -7.129053e+02
3.256823e+06 -6.351463e+02 -2.813752e+02
3.256848e+06 -5.698431e+02 -6.981706e+02
3.256430e+06 -6.371764e+02 -2.662081e+02
3.256141e+06 -6.258707e+02 -6.734858e+02
3.256060e+06 -6.394259e+02 -2.510217e+02
3.255781e+06 -6.281886e+02 -6.339827e+02
3.255711e+06 -6.418362e+02 -2.358045e+02
3.255442e+06 -6.306346e+02 -5.943741e+02
3.255384e+06 -6.443608e+02 -2.205480e+02
3.255126e+06 -6.331705e+02 -5.546426e+02
3.255079e+06 -6.469652e+02 -2.052449e+02
3.254831e+06 -6.357673e+02 -5.147760e+02
3.254795e+06 -6.496236e+02 -1.898901e+02
3.254558e+06 -6.384042e+02 -4.747646e+02
3.254534e+06 -6.523175e+02 -1.744797e+02
3.254308e+06 -6.410667e+02 -4.346018e+02
3.254295e+06 -6.550337e+02 -1.590111e+02
3.254079e+06 -6.437451e+02 -3.942826e+02
3.253873e+06 -6.464329e+02 -3.538035e+02
3.254078e+06 -6.577640e+02 -1.434820e+02
3.254104e+06 -5.904387e+02 -3.570690e+02
3.253689e+06 -6.491273e+02 -3.131617e+02
3.253883e+06 -6.605038e+02 -1.278908e+02
3.253909e+06 -5.929060e+02 -3.184559e+02
3.253711e+06 -6.632504e+02 -1.122365e+02
3.253527e+06 -6.518270e+02 -2.723549e+02
3.253388e+06 -6.545324e+02 -2.313811e+02
3.253561e+06 -6.660036e+02 -9.651817e+01
3.253587e+06 -5.978532e+02 -2.407603e+02
3.253433e+06 -6.687640e+02 -8.073469e+01
3.253271e+06 -6.572448e+02 -1.902380e+02
3.253177e+06 -6.599673e+02 -1.489238e+02
3.253328e+06 -6.715344e+02 -6.488519e+01
3.253355e+06 -6.028199e+02 -1.624282e+02
3.253246e+06 -6.743171e+02 -4.896879e+01
3.253106e+06 -6.627028e+02 -1.074359e+02
3.253187e+06 -6.771155e+02 -3.298452e+01
3.253058e+06 -6.654544e+02 -6.577178e+01
3.253150e+06 -6.799329e+02 -1.693128e+01
3.253032e+06 -6.682249e+02 -2.392869e+01
3.253137e+06 -6.827720e+02 -8.083324e-01
3.253030e+06 -6.710174e+02 1.809603e+01
3.253146e+06 -6.856341e+02 1.538539e+01
3.253050e+06 -6.738319e+02 6.030497e+01
3.253179e+06 -6.885181e+02 3.165032e+01
3.253094e+06 -6.766662e+02 1.026999e+02
3.253235e+06 -6.914193e+02 4.798629e+01
3.253162e+06 -6.795132e+02 1.452810e+02
3.253314e+06 -6.943253e+02 6.439217e+01
3.253252e+06 -6.823583e+02 1.880461e+02
3.253366e+06 -6.851763e+02 2.309895e+02
3.253417e+06 -6.972156e+02 8.086515e+01
3.253445e+06 -6.257510e+02 1.984446e+02
3.253504e+06 -6.879274e+02 2.740991e+02
3.253544e+06 -7.000552e+02 9.739990e+01
3.253572e+06 -6.282825e+02 2.394327e+02
3.253694e+06 -7.027913e+02 1.139878e+02
3.253666e+06 -6.905497e+02 3.173544e+02
3.253851e+06 -6.929532e+02 3.607232e+02
3.253868e+06 -7.053433e+02 1.306149e+02
3.253896e+06 -6.330256e+02 3.219088e+02
3.254066e+06 -7.075975e+02 1.472612e+02
3.254060e+06 -6.950093e+02 4.041567e+02
3.254294e+06 -6.965403e+02 4.475843e+02
3.254288e+06 -7.093929e+02 1.638973e+02
3.254316e+06 -6.367575e+02 4.048982e+02
3.254534e+06 -7.105117e+02 1.804829e+02
3.254551e+06 -6.973049e+02 4.909076e+02
3.254804e+06 -7.106637e+02 1.969634e+02
3.254833e+06 -6.969856e+02 5.339933e+02
3.255097e+06 -7.094717e+02 2.132686e+02
3.255138e+06 -6.951725e+02 5.766678e+02
3.255415e+06 -7.064613e+02 2.293098e+02
3.255468e+06 -6.913524e+02 6.187111e+02
3.255756e+06 -7.010506e+02 2.449809e+02
3.255821e+06 -6.849032e+02 6.598594e+02
3.256120e+06 -6.925579e+02 2.601623e+02
3.256198e+06 -6.751020e+02 6.998131e+02
3.256506e+06 -6.802238e+02 2.747305e+02
3.256598e+06 -6.611559e+02 7.382600e+02
3.257020e+06 -6.422662e+02 7.749158e+02
3.256915e+06 -6.632622e+02 2.885736e+02
3.256940e+06 -5.990238e+02 7.271698e+02
3.257464e+06 -6.177290e+02 8.095741e+02
3.257344e+06 -6.409442e+02 3.016124e+02
3.257368e+06 -5.796316e+02 7.631770e+02
3.257793e+06 -6.126988e+02 3.138133e+02
3.257927e+06 -5.870531e+02 8.421315e+02
3.258261e+06 -5.782061e+02 3.251826e+02
3.258410e+06 -5.500523e+02 8.725606e+02
3.258911e+06 -5.068798e+02 9.008369e+02
3.258747e+06 -5.374496e+02 3.357437e+02
3.258766e+06 -4.867450e+02 8.599293e+02
3.259249e+06 -4.907206e+02 3.455059e+02
3.259429e+06 -4.579989e+02 9.268657e+02
3.259962e+06 -4.040963e+02 9.504476e+02
3.259766e+06 -4.385665e+02 3.544391e+02
3.259782e+06 -3.965625e+02 9.133076e+02
3.260508e+06 -3.459639e+02 9.713006e+02
3.260297e+06 -3.817030e+02 3.624667e+02
3.260311e+06 -3.447503e+02 9.359964e+02
3.261067e+06 -2.843956e+02 9.891097e+02
3.260840e+06 -3.209116e+02 3.694783e+02
3.260852e+06 -2.895026e+02 9.556491e+02
3.261393e+06 -2.569539e+02 3.753486e+02
3.261636e+06 -2.201191e+02 1.003568e+03
3.261955e+06 -1.905154e+02 3.799549e+02
3.262212e+06 -1.537605e+02 1.014400e+03
3.262523e+06 -1.221797e+02 3.831865e+02
3.262794e+06 -8.583639e+01 1.021376e+03
3.263095e+06 -5.242228e+01 3.849501e+02
3.263379e+06 -1.675439e+01 1.024307e+03
3.263964e+06 5.317315e+01 1.023047e+03
3.263669e+06 1.838409e+01 3.851692e+02
3.263668e+06 1.662803e+01 1.000108e+03
3.264549e+06 1.237171e+02 1.017481e+03
3.264243e+06 8.995873e+01 3.837828e+02
3.264239e+06 8.092086e+01 9.970928e+02
3.264814e+06 1.620983e+02 3.807434e+02
3.265129e+06 1.947171e+02 1.007520e+03
3.265379e+06 2.346640e+02 3.760141e+02
3.265702e+06 2.660677e+02 9.930962e+02
3.266267e+06 3.377074e+02 9.741536e+02
3.265937e+06 3.075677e+02 3.695652e+02
3.265924e+06 2.761241e+02 9.626299e+02
3.266484e+06 3.807618e+02 3.613733e+02
3.266820e+06 4.096075e+02 9.506467e+02
3.267018e+06 4.542262e+02 3.514190e+02
3.267359e+06 4.817622e+02 9.225356e+02
3.267882e+06 5.541785e+02 8.897851e+02
3.267537e+06 5.279611e+02 3.396859e+02
3.267516e+06 4.735557e+02 8.891573e+02
3.268385e+06 6.268659e+02 8.523641e+02
3.268039e+06 6.019732e+02 3.261604e+02
3.268014e+06 5.398063e+02 8.558424e+02
3.268867e+06 6.998227e+02 8.102476e+02
3.268519e+06 6.762644e+02 3.108328e+02
3.268491e+06 6.062830e+02 8.180635e+02
3.268977e+06 7.508155e+02 2.936980e+02
3.269324e+06 7.730191e+02 7.634214e+02
3.269408e+06 8.255650e+02 2.747595e+02
3.269754e+06 8.463736e+02 7.118885e+02
3.269812e+06 9.003827e+02 2.540330e+02
3.270155e+06 9.197239e+02 6.556819e+02
3.270184e+06 9.750293e+02 2.315540e+02
3.270524e+06 9.927850e+02 5.948809e+02
3.270858e+06 1.065094e+03 5.296340e+02
3.270523e+06 1.049109e+03 2.073872e+02
3.270480e+06 9.398654e+02 5.615214e+02
3.271155e+06 1.135938e+03 4.601924e+02
3.270825e+06 1.122001e+03 1.816392e+02
3.270780e+06 1.005258e+03 4.968287e+02
3.271089e+06 1.192779e+03 1.544752e+02
3.271412e+06 1.204266e+03 3.869510e+02
3.271312e+06 1.260097e+03 1.261427e+02
3.271626e+06 1.268571e+03 3.105051e+02
3.271796e+06 1.326746e+03 2.317180e+02
3.271492e+06 1.322064e+03 9.699685e+01
3.271439e+06 1.186473e+03 2.790337e+02
3.271628e+06 1.376081e+03 6.753531e+01
3.271919e+06 1.375926e+03 1.518067e+02
3.271718e+06 1.418661e+03 3.843598e+01
3.271994e+06 1.412289e+03 7.243849e+01
3.272020e+06 1.430863e+03 -4.162360e+00
3.271761e+06 1.445230e+03 1.059817e+01
3.271706e+06 1.305348e+03 3.910076e+01
3.271997e+06 1.425327e+03 -7.511251e+01
3.271759e+06 1.449933e+03 -1.481857e+01
3.271706e+06 1.315265e+03 -3.977020e+01
3.271925e+06 1.387870e+03 -1.367970e+02
3.271714e+06 1.425476e+03 -3.636762e+01
3.271665e+06 1.301130e+03 -1.142950e+02
3.271629e+06 1.363073e+03 -5.232085e+01
3.271807e+06 1.309167e+03 -1.848746e+02
3.271510e+06 1.252598e+03 -6.073927e+01
3.271649e+06 1.178594e+03 -2.144470e+02
3.271367e+06 1.083148e+03 -5.968134e+01
3.271458e+06 9.848195e+02 -2.205397e+02
3.271210e+06 8.443296e+02 -4.772220e+01
3.271245e+06 7.164655e+02 -1.990139e+02
3.271026e+06 3.625021e+02 -1.484654e+02
3.271051e+06 5.265075e+02 -2.448825e+01
3.271068e+06 5.588953e+02 -2.907867e+02
3.270837e+06 -7.163530e+02 -1.125545e+02
3.270898e+06 1.071147e+02 1.350156e+01
3.270951e+06 2.082560e+02 -2.578395e+02
3.270937e+06 -1.004008e+03 -5.540483e+00
3.270798e+06 -4.543497e+02 -8.064448e+01
3.270453e+06 -6.928078e+02 -9.259215e+01
3.270786e+06 -4.762838e+02 7.198897e+01
3.293238e+06 -7.757236e+02 -2.470558e+03
3.292544e+06 -8.450231e+02 5.608320e+02
3.295259e+06 -8.585111e+02 -2.677518e+03
3.294697e+06 -7.814110e+02 -2.523375e+03
3.293987e+06 -8.515022e+02 5.730297e+02
3.296187e+06 -7.864496e+02 -2.576548e+03
3.295462e+06 -8.573501e+02 5.853539e+02
3.298300e+06 -8.673137e+02 -2.788482e+03
3.297709e+06 -7.905681e+02 -2.629982e+03
3.296968e+06 -8.623002e+02 5.978036e+02
3.299262e+06 -7.933980e+02 -2.683549e+03
3.298506e+06 -8.659750e+02 6.103616e+02
3.301464e+06 -8.753238e+02 2.794991e+03
3.301678e+06 -8.674598e+02 6.357011e+02
3.304081e+06 -8.797544e+02 -1.143162e+03
3.304113e+06 -7.888204e+02 -2.843024e+03
3.300848e+06 -7.944564e+02 -2.737074e+03
3.300076e+06 -8.679015e+02 6.230011e+02
3.270898e+06 -2.440130e+02 1.726218e+02
3.305793e+06 -7.806011e+02 -2.894887e+03
3.304975e+06 -8.565437e+02 6.611364e+02
3.270870e+06 -1.053206e+02 1.177909e+02
3.270944e+06 2.077201e+02 2.519259e+02
3.271048e+06 5.250647e+02 -1.039558e+01
3.307503e+06 -7.675658e+02 -2.945592e+03
3.306670e+06 -8.443435e+02 6.737116e+02
3.271059e+06 5.521582e+02 2.824610e+02
3.271197e+06 8.420516e+02 1.161635e+01
3.309242e+06 -7.488006e+02 -2.994825e+03
3.308394e+06 -8.264482e+02 6.860964e+02
3.271190e+06 8.251809e+02 2.845597e+02
3.311010e+06 -7.235849e+02 -3.042333e+03
3.310148e+06 -8.021264e+02 6.982069e+02
3.313558e+06 -7.345684e+02 -3.246002e+03
3.271233e+06 9.616288e+02 9.846409e+01
3.271327e+06 1.025901e+03 2.646615e+02
3.312805e+06 -6.915366e+02 -3.087917e+03
3.311929e+06 -7.708800e+02 7.099437e+02
3.315402e+06 -6.891115e+02 -3.287771e+03
3.271366e+06 1.157649e+03 8.232353e+01
3.271455e+06 1.164578e+03 2.259279e+02
3.314627e+06 -6.527145e+02 -3.131394e+03
3.313737e+06 -7.325656e+02 7.212118e+02
3.271486e+06 1.291059e+03 6.336858e+01
3.271562e+06 1.252203e+03 1.724582e+02
3.271689e+06 1.423667e+03 2.174878e+01
3.316474e+06 -6.076060e+02 -3.172551e+03
3.315570e+06 -6.874181e+02 7.319175e+02
3.319164e+06 -5.800038e+02 -3.364235e+03
3.271640e+06 1.299026e+03 1.083767e+02
3.318345e+06 -5.570011e+02 -3.211117e+03
3.317428e+06 -6.360030e+02 7.419664e+02
3.271643e+06 1.412680e+03 2.122598e+01
3.271681e+06 1.314039e+03 3.734218e+01
3.271736e+06 1.443740e+03 -6.320053e+00
3.320238e+06 -5.018140e+02 -3.246775e+03
3.319309e+06 -5.791153e+02 7.512681e+02
3.323017e+06 -4.525463e+02 -3.429174e+03
3.271681e+06 1.304807e+03 -3.761849e+01
3.271693e+06 1.417311e+03 -2.418346e+01
3.322152e+06 -4.429457e+02 -3.279197e+03
3.321211e+06 -5.176500e+02 7.597409e+02
3.271638e+06 1.277493e+03 -1.141160e+02
3.324085e+06 -3.812083e+02 -3.308072e+03
3.323132e+06 -4.524937e+02 7.673170e+02
3.271582e+06 1.368979e+03 -4.254026e+01
3.271550e+06 1.236987e+03 -1.903313e+02
3.271469e+06 1.320947e+03 -6.302135e+01
3.326034e+06 -3.172933e+02 -3.333130e+03
3.325072e+06 -3.844538e+02 7.739423e+02
3.271417e+06 1.187083e+03 -2.649232e+02
3.327998e+06 -2.517666e+02 -3.354150e+03
3.327027e+06 -3.142248e+02 7.795763e+02
3.271320e+06 1.263834e+03 -8.136237e+01
3.271240e+06 1.130657e+03 -3.369319e+02
3.271069e+06 1.191836e+03 -1.020661e+02
3.329974e+06 -1.850771e+02 -3.370955e+03
3.328995e+06 -2.423775e+02 7.841898e+02
3.271021e+06 1.069847e+03 -4.056922e+02
3.331960e+06 -1.175708e+02 -3.383412e+03
3.330974e+06 -1.693657e+02 7.877619e+02
3.270884e+06 1.132560e+03 -1.159877e+02
3.270761e+06 1.006204e+03 -4.707601e+02
3.270504e+06 1.048299e+03 -1.384617e+02
3.333952e+06 -4.950349e+01 -3.391424e+03
3.332962e+06 -9.553938e+01 7.902788e+02
3.336951e+06 5.512313e+01 3.401111e+03
3.270462e+06 9.408307e+02 -5.318522e+02
3.270167e+06 9.742751e+02 -1.551776e+02
3.339957e+06 1.691421e+02 -1.342591e+03
3.339947e+06 1.563910e+02 -3.388113e+03
3.335950e+06 1.894568e+01 -3.394916e+03
3.334955e+06 -2.117040e+01 7.917230e+02
3.336955e+06 5.550756e+01 -3.530854e+03
3.337955e+06 9.246753e+01 -1.345046e+03
3.270128e+06 8.744853e+02 -5.888000e+02
3.269939e+06 9.174683e+02 -1.595922e+02
3.269760e+06 8.076746e+02 -6.415126e+02
3.341942e+06 2.251942e+02 -3.377774e+03
3.340944e+06 2.036013e+02 7.896669e+02
3.269556e+06 8.443579e+02 -1.719273e+02
3.269361e+06 7.407224e+02 -6.899515e+02
3.343931e+06 2.940200e+02 -3.362789e+03
3.342934e+06 2.787282e+02 7.868139e+02
3.269143e+06 7.712065e+02 -1.831876e+02
3.268933e+06 6.738232e+02 -7.341112e+02
3.268507e+06 6.756916e+02 -2.102488e+02
3.345910e+06 3.628584e+02 -3.343132e+03
3.344916e+06 3.538927e+02 7.828802e+02
3.268480e+06 6.070841e+02 -7.740048e+02
3.347877e+06 4.316843e+02 -3.318790e+03
3.346888e+06 4.290498e+02 7.778727e+02
3.350914e+06 5.825167e+02 -3.402297e+03
3.268239e+06 6.253946e+02 -2.025446e+02
3.268003e+06 5.405550e+02 -8.096562e+02
3.267527e+06 5.274673e+02 -2.303424e+02
3.349830e+06 5.004876e+02 -3.289755e+03
3.348847e+06 5.041954e+02 7.717833e+02
3.352855e+06 6.577806e+02 -3.364328e+03
3.267506e+06 4.742511e+02 -8.410942e+02
3.267009e+06 4.537714e+02 -2.385186e+02
3.351765e+06 5.692679e+02 -3.256017e+03
3.350789e+06 5.793266e+02 7.646098e+02
3.266991e+06 4.081707e+02 -8.683483e+02
3.353680e+06 6.380301e+02 -3.217569e+03
3.352712e+06 6.544461e+02 7.563503e+02
3.266725e+06 4.085926e+02 -2.238542e+02
3.266461e+06 3.423083e+02 -8.914480e+02
3.265930e+06 3.071904e+02 -2.511755e+02
3.355572e+06 7.067810e+02 -3.174399e+03
3.354614e+06 7.295600e+02 7.470024e+02
3.265918e+06 2.766649e+02 -9.104228e+02
3.357437e+06 7.755289e+02 -3.126498e+03
3.356491e+06 8.046770e+02 7.365639e+02
3.265641e+06 2.653717e+02 -2.330068e+02
3.265364e+06 2.112559e+02 -9.253039e+02
3.264809e+06 1.618003e+02 -2.590030e+02
3.359274e+06 8.442824e+02 -3.073855e+03
3.358340e+06 8.798065e+02 7.250320e+02
3.264803e+06 1.461212e+02 -9.361247e+02
3.361079e+06 9.130492e+02 -3.016458e+03
3.360160e+06 9.549574e+02 7.124035e+02
3.264520e+06 1.233820e+02 -2.381631e+02
3.264236e+06 8.133385e+01 -9.429257e+02
3.263667e+06 1.816916e+01 -2.621744e+02
3.362849e+06 9.818343e+02 -2.954294e+03
3.361945e+06 1.030136e+03 6.986751e+02
3.263666e+06 1.700998e+01 -9.457582e+02
3.263094e+06 -5.259382e+01 -2.620956e+02
3.364582e+06 1.050639e+03 -2.887354e+03
3.363695e+06 1.105347e+03 6.838429e+02
3.367359e+06 1.260223e+03 -2.881981e+03
3.263096e+06 -4.668138e+01 -9.446890e+02
3.366274e+06 1.119458e+03 -2.815626e+03
3.365406e+06 1.180585e+03 6.679032e+02
3.369001e+06 1.335589e+03 -2.799235e+03
3.262814e+06 -8.549498e+01 -2.384878e+02
3.262527e+06 -1.095039e+02 -9.398061e+02
3.367923e+06 1.188281e+03 -2.739105e+03
3.367075e+06 1.255837e+03 6.508512e+02
3.370594e+06 1.419485e+03 2.611146e+03
3.262248e+06 -1.531438e+02 -2.366535e+02
3.261963e+06 -1.711409e+02 -9.312252e+02
3.370275e+06 1.406240e+03 6.133833e+02
3.372644e+06 1.551731e+03 -9.763383e+02
3.372580e+06 1.394289e+03 -2.480753e+03
3.369526e+06 1.257084e+03 -2.657787e+03
3.368699e+06 1.331067e+03 6.326768e+02
3.261687e+06 -2.191978e+02 -2.338748e+02
3.261405e+06 -2.311832e+02 -9.190952e+02
3.260843e+06 -3.208955e+02 -2.519641e+02
3.260855e+06 -2.891177e+02 -9.036020e+02
3.374026e+06 1.462447e+03 -2.385102e+03
3.373272e+06 1.555951e+03 5.714516e+02
3.376435e+06 1.708973e+03 -2.311447e+03
3.260589e+06 -3.443544e+02 -2.256001e+02
3.260315e+06 -3.443248e+02 -8.849686e+02
3.259771e+06 -4.384558e+02 -2.421247e+02
3.375415e+06 1.530090e+03 -2.284763e+03
3.374688e+06 1.630158e+03 5.487796e+02
3.259787e+06 -3.960874e+02 -8.634465e+02
3.376742e+06 1.596937e+03 -2.179815e+03
3.376044e+06 1.703595e+03 5.249829e+02
3.259535e+06 -4.556710e+02 -2.140059e+02
3.259272e+06 -4.436279e+02 -8.393000e+02
3.258753e+06 -5.372603e+02 -2.299752e+02
3.378006e+06 1.662585e+03 -2.070390e+03
3.377338e+06 1.775848e+03 5.000747e+02
3.258773e+06 -4.861821e+02 -8.127792e+02
3.379204e+06 1.726498e+03 -1.956678e+03
3.378567e+06 1.846384e+03 4.740661e+02
3.258537e+06 -5.471788e+02 -1.996146e+02
3.258289e+06 -5.231235e+02 -7.840982e+02
3.257800e+06 -6.124634e+02 -2.157083e+02
3.380334e+06 1.787973e+03 -1.838938e+03
3.379729e+06 1.914492e+03 4.469829e+02
3.257823e+06 -5.541043e+02 -7.534327e+02
3.381392e+06 1.846110e+03 -1.717511e+03
3.380821e+06 1.979263e+03 4.188665e+02
3.257606e+06 -6.146933e+02 -1.830563e+02
3.257376e+06 -5.791430e+02 -7.209422e+02
3.256923e+06 -6.630177e+02 -1.990884e+02
3.382378e+06 1.899789e+03 -1.592825e+03
3.381841e+06 2.039569e+03 3.897771e+02
3.256948e+06 -5.986213e+02 -6.868048e+02
3.256515e+06 -6.799851e+02 -1.898572e+02
3.383289e+06 1.947664e+03 -1.465388e+03
3.382788e+06 2.094072e+03 3.597977e+02
3.384961e+06 2.187938e+03 -1.317356e+03
3.256541e+06 -6.131861e+02 -6.512374e+02
3.256128e+06 -6.923292e+02 -1.800619e+02
3.384124e+06 1.988208e+03 -1.335757e+03
3.383660e+06 2.141265e+03 3.290374e+02
3.385686e+06 2.216218e+03 -1.183292e+03
3.256155e+06 -6.236095e+02 -6.144907e+02
3.255764e+06 -7.008333e+02 -1.697795e+02
3.384883e+06 2.019820e+03 -1.204489e+03
3.384455e+06 2.179580e+03 2.976302e+02
3.255792e+06 -6.306675e+02 -5.768255e+02
3.255423e+06 -7.062556e+02 -1.591010e+02
3.385563e+06 2.041043e+03 -1.072073e+03
3.385173e+06 2.207571e+03 2.657296e+02
3.255451e+06 -6.350711e+02 -5.384879e+02
3.386165e+06 2.050889e+03 -9.388978e+02
3.385814e+06 2.224138e+03 2.334978e+02
3.255299e+06 -6.930982e+02 -1.266468e+02
3.255134e+06 -6.374347e+02 -4.996926e+02
3.386688e+06 2.049096e+03 -8.052881e+02
3.386376e+06 2.228738e+03 2.010984e+02
3.387779e+06 2.211247e+03 -6.417285e+02
3.254993e+06 -6.950529e+02 -1.169323e+02
3.254840e+06 -6.382660e+02 -4.606161e+02
3.387133e+06 2.036206e+03 -6.715845e+02
3.386860e+06 2.221491e+03 1.686946e+02
3.388099e+06 2.182605e+03 -5.057680e+02
3.254711e+06 -6.954876e+02 -1.072304e+02
3.254571e+06 -6.379732e+02 -4.213977e+02
3.254297e+06 -7.092248e+02 -1.140812e+02
3.387498e+06 2.013414e+03 -5.382142e+02
3.387266e+06 2.203156e+03 1.364499e+02
3.388340e+06 2.159092e+03 3.589902e+02
3.254325e+06 -6.368747e+02 -3.821414e+02
3.388208e+06 2.116760e+03 -7.068278e+01
3.388123e+06 1.901108e+03 -1.454803e+02
3.387784e+06 1.982263e+03 -4.056978e+02
3.387593e+06 2.174982e+03 1.045243e+02
3.388340e+06 2.145603e+03 -3.703949e+02
3.388078e+06 2.163692e+03 -1.211082e+02
3.254219e+06 -6.933531e+02 -8.792456e+01
3.254103e+06 -6.352143e+02 -3.429239e+02
3.254009e+06 -6.913501e+02 -7.833733e+01
3.253905e+06 -6.331737e+02 -3.037981e+02
3.253703e+06 -7.026393e+02 -7.948630e+01
3.388178e+06 1.853856e+03 -1.882206e+01
3.388106e+06 2.046664e+03 1.204372e+01
3.253731e+06 -6.308851e+02 -2.647996e+02
3.388158e+06 1.803626e+03 1.049729e+02
3.388125e+06 1.994066e+03 -1.735001e+01
3.253661e+06 -6.863926e+02 -5.930963e+01
3.253580e+06 -6.284436e+02 -2.259512e+02
3.253426e+06 -6.970704e+02 -5.648169e+01
3.388064e+06 1.751238e+03 2.255878e+02
3.388069e+06 1.938481e+03 -4.591673e+01
3.253454e+06 -6.259147e+02 -1.872660e+02
3.253323e+06 -6.941829e+02 -4.503437e+01
3.387900e+06 1.697333e+03 3.427823e+02
3.387942e+06 1.880747e+03 -7.361920e+01
3.387887e+06 1.765914e+03 5.139626e+02
3.253351e+06 -6.233427e+02 -1.487508e+02
3.253243e+06 -6.912792e+02 -3.363140e+01
3.387666e+06 1.642392e+03 4.563824e+02
3.387744e+06 1.821510e+03 -1.004338e+02
3.387541e+06 1.704799e+03 6.268148e+02
3.253271e+06 -6.207559e+02 -1.104082e+02
3.253187e+06 -6.883807e+02 -2.227543e+01
3.387366e+06 1.586768e+03 5.662658e+02
3.387478e+06 1.761256e+03 -1.263461e+02
3.253215e+06 -6.181717e+02 -7.223767e+01
3.253154e+06 -6.854988e+02 -1.096802e+01
3.387000e+06 1.530716e+03 6.723502e+02
3.387147e+06 1.700340e+03 -1.513479e+02
3.253182e+06 -6.155997e+02 -3.423729e+01
3.253145e+06 -6.826388e+02 2.901631e-01
3.386573e+06 1.474413e+03 7.745823e+02
3.386752e+06 1.639016e+03 -1.754360e+02
3.253172e+06 -6.130438e+02 3.595546e+00
3.386085e+06 1.417976e+03 8.729297e+02
3.386296e+06 1.577457e+03 -1.986095e+02
3.385545e+06 1.457895e+03 1.038341e+03
3.253184e+06 -6.667612e+02 5.811760e+00
3.253185e+06 -6.105053e+02 4.126398e+01
3.385540e+06 1.361484e+03 9.673741e+02
3.385781e+06 1.515782e+03 -2.208695e+02
3.384904e+06 1.396046e+03 1.131072e+03
3.253209e+06 -6.639950e+02 1.494627e+01
3.253222e+06 -6.079833e+02 7.877113e+01
3.384939e+06 1.304984e+03 1.057907e+03
3.385209e+06 1.454064e+03 -2.422177e+02
3.253256e+06 -6.612485e+02 2.404221e+01
3.253281e+06 -6.054753e+02 1.161198e+02
3.253336e+06 -6.714090e+02 4.483692e+01
3.384285e+06 1.248502e+03 1.144527e+03
3.384583e+06 1.392347e+03 -2.626563e+02
3.253363e+06 -6.029787e+02 1.533125e+02
3.383581e+06 1.192051e+03 1.227234e+03
3.383905e+06 1.330656e+03 -2.821876e+02
3.253420e+06 -6.558017e+02 4.212158e+01
3.253468e+06 -6.004912e+02 1.903517e+02
3.382828e+06 1.135634e+03 1.306032e+03
3.383178e+06 1.269001e+03 -3.008137e+02
3.253536e+06 -6.530955e+02 5.110614e+01
3.253595e+06 -5.980103e+02 2.272390e+02
3.253718e+06 -6.631316e+02 7.775390e+01
3.382030e+06 1.079245e+03 1.380926e+03
3.382404e+06 1.207383e+03 -3.185362e+02
3.380972e+06 1.094029e+03 -1.475907e+03
3.253745e+06 -5.955341e+02 2.639762e+02
3.379424e+06 1.013596e+03 6.190231e+02
3.379383e+06 9.101750e+02 1.582208e+03
3.381188e+06 1.022873e+03 1.451921e+03
3.381585e+06 1.145800e+03 -3.353532e+02
3.380973e+06 1.087338e+03 1.533446e+03
3.380349e+06 1.076492e+03 5.936459e+02
3.253836e+06 -6.477056e+02 6.896636e+01
3.253917e+06 -5.930621e+02 3.005648e+02
3.254086e+06 -6.576498e+02 9.947404e+01
3.254112e+06 -5.905944e+02 3.370061e+02
3.254303e+06 -6.549216e+02 1.102695e+02
3.378425e+06 8.538537e+02 1.641515e+03
3.378884e+06 9.611555e+02 -3.804242e+02
3.377095e+06 8.406677e+02 1.781951e+03
3.254329e+06 -5.881332e+02 3.733019e+02
3.254542e+06 -6.522080e+02 1.210232e+02
3.377433e+06 7.975289e+02 1.696939e+03
3.377910e+06 8.996252e+02 -3.936444e+02
3.254568e+06 -5.856825e+02 4.094537e+02
3.254803e+06 -6.495170e+02 1.317372e+02
3.376409e+06 7.411851e+02 1.748477e+03
3.376904e+06 8.380813e+02 -4.059658e+02
3.254829e+06 -5.832493e+02 4.454645e+02
3.255086e+06 -6.468615e+02 1.424139e+02
3.375355e+06 6.848270e+02 1.796131e+03
3.375866e+06 7.765315e+02 -4.173927e+02
3.255112e+06 -5.808442e+02 4.813377e+02
3.255391e+06 -6.442600e+02 1.530561e+02
3.374275e+06 6.284618e+02 1.839904e+03
3.374801e+06 7.149759e+02 -4.279218e+02
3.372729e+06 5.939462e+02 1.965487e+03
3.255417e+06 -5.784821e+02 5.170784e+02
3.373170e+06 5.721017e+02 1.879802e+03
3.373709e+06 6.534237e+02 -4.375529e+02
3.371579e+06 5.323295e+02 2.001274e+03
3.255586e+06 -6.293065e+02 1.303555e+02
3.255744e+06 -5.761851e+02 5.526935e+02
3.372043e+06 5.157686e+02 1.915833e+03
3.372595e+06 5.918953e+02 -4.462855e+02
3.255923e+06 -6.268831e+02 1.389864e+02
3.256093e+06 -5.739820e+02 5.881931e+02
3.370895e+06 4.594989e+02 1.948009e+03
3.371459e+06 5.304258e+02 -4.541197e+02
3.256283e+06 -6.245914e+02 1.475852e+02
3.256463e+06 -5.719116e+02 6.235905e+02
3.256830e+06 -6.350593e+02 1.953884e+02
3.369730e+06 4.033496e+02 1.976347e+03
3.370304e+06 4.690702e+02 -4.610559e+02
3.256856e+06 -5.700242e+02 6.589035e+02
3.368550e+06 3.474046e+02 2.000876e+03
3.369133e+06 4.079113e+02 -4.670951e+02
3.257067e+06 -6.206183e+02 1.646955e+02
3.257269e+06 -5.683827e+02 6.941545e+02
3.367357e+06 2.917852e+02 2.021639e+03
3.367947e+06 3.470699e+02 -4.722397e+02
3.257492e+06 -6.190785e+02 1.732145e+02
3.257705e+06 -5.670644e+02 7.293716e+02
3.258137e+06 -6.310913e+02 2.271353e+02
3.366152e+06 2.366587e+02 2.038694e+03
3.366749e+06 2.867139e+02 -4.764939e+02
3.258162e+06 -5.661603e+02 7.645873e+02
3.364939e+06 1.822525e+02 2.052126e+03
3.365542e+06 2.270728e+02 -4.798654e+02
3.258407e+06 -6.173450e+02 1.902095e+02
3.258641e+06 -5.657725e+02 7.998368e+02
3.259117e+06 -6.311852e+02 2.484675e+02
3.363719e+06 1.288639e+02 2.062052e+03
3.364327e+06 1.684506e+02 -4.823653e+02
3.361890e+06 5.615772e+01 2.149079e+03
3.259142e+06 -5.660061e+02 8.351557e+02
3.259639e+06 -6.323447e+02 2.592064e+02
3.360651e+06 3.063052e+00 2.152117e+03
3.360040e+06 -2.252660e+01 8.194276e+02
3.362494e+06 7.687372e+01 2.068619e+03
3.363106e+06 1.112458e+02 -4.840068e+02
3.361267e+06 2.678252e+01 2.072011e+03
3.361270e+06 2.981541e+01 8.183824e+02
3.259665e+06 -5.669567e+02 8.705757e+02
3.260184e+06 -6.343306e+02 2.699928e+02
3.260209e+06 -5.686904e+02 9.061233e+02
3.260750e+06 -6.371606e+02 2.808218e+02
3.358811e+06 -6.518340e+01 2.070220e+03
3.359428e+06 -4.649779e+01 -4.841457e+02
3.260776e+06 -5.712285e+02 9.418212e+02
3.261339e+06 -6.408102e+02 2.916884e+02
3.357586e+06 -1.056413e+02 2.065575e+03
3.358203e+06 -9.220553e+01 -4.827360e+02
3.355717e+06 -1.703478e+02 2.140211e+03
3.261365e+06 -5.745410e+02 9.776925e+02
3.261950e+06 -6.452167e+02 3.025916e+02
3.356363e+06 -1.414546e+02 2.058760e+03
3.356980e+06 -1.332952e+02 -4.807079e+02
3.354496e+06 -2.007143e+02 2.132252e+03
3.261975e+06 -5.785552e+02 1.013764e+03
3.355146e+06 -1.720399e+02 2.049977e+03
3.355761e+06 -1.691560e+02 -4.781419e+02
3.262297e+06 -6.337718e+02 2.502576e+02
3.262609e+06 -5.831727e+02 1.050070e+03
3.353933e+06 -1.971110e+02 2.039389e+03
3.354546e+06 -1.994153e+02 -4.751102e+02
3.262942e+06 -6.390395e+02 2.590523e+02
3.263265e+06 -5.882878e+02 1.086645e+03
3.352728e+06 -2.167558e+02 2.027146e+03
3.353338e+06 -2.239901e+02 -4.716895e+02
3.263609e+06 -6.448057e+02 2.679314e+02
3.263943e+06 -5.938002e+02 1.123526e+03
3.264618e+06 -6.684898e+02 3.467146e+02
3.351530e+06 -2.314099e+02 2.013427e+03
3.352136e+06 -2.431082e+02 -4.679560e+02
3.264645e+06 -5.996207e+02 1.160744e+03
3.350340e+06 -2.417402e+02 1.998454e+03
3.350943e+06 -2.572622e+02 -4.639862e+02
3.265013e+06 -6.574436e+02 2.859709e+02
3.265369e+06 -6.056748e+02 1.198326e+03
3.349160e+06 -2.484963e+02 1.982485e+03
3.349758e+06 -2.671189e+02 -4.598524e+02
3.265749e+06 -6.641505e+02 2.951411e+02
3.266117e+06 -6.119014e+02 1.236295e+03
3.266862e+06 -6.892767e+02 3.806623e+02
3.347990e+06 -2.524036e+02 1.965782e+03
3.348582e+06 -2.734125e+02 -4.556183e+02
3.266889e+06 -6.182522e+02 1.274669e+03
3.346829e+06 -2.541063e+02 1.948586e+03
3.347417e+06 -2.768572e+02 -4.513363e+02
3.345049e+06 -2.780751e+02 2.014689e+03
3.267293e+06 -6.780332e+02 3.137979e+02
3.267685e+06 -6.246903e+02 1.313460e+03
3.268477e+06 -7.037658e+02 4.038418e+02
3.345679e+06 -2.541469e+02 1.931104e+03
3.346261e+06 -2.780950e+02 -4.470468e+02
3.343916e+06 -2.763433e+02 1.996650e+03
3.268504e+06 -6.311880e+02 1.352679e+03
3.269320e+06 -7.110979e+02 4.156126e+02
3.344540e+06 -2.529638e+02 1.913500e+03
3.345116e+06 -2.776701e+02 -4.427791e+02
3.269348e+06 -6.377249e+02 1.392333e+03
3.270189e+06 -7.184624e+02 4.275086e+02
3.343411e+06 -2.509020e+02 1.895901e+03
3.343982e+06 -2.760262e+02 -4.385538e+02
3.270217e+06 -6.442863e+02 1.432426e+03
3.271082e+06 -7.258474e+02 4.395322e+02
3.342293e+06 -2.482294e+02 1.878404e+03
3.342859e+06 -2.735120e+02 -4.343838e+02
3.340576e+06 -2.691346e+02 -1.873494e+03
3.271111e+06 -6.508627e+02 1.472965e+03
3.272001e+06 -7.332454e+02 4.516852e+02
3.339489e+06 -2.631726e+02 1.924949e+03
3.340644e+06 -2.668736e+02 -4.262310e+02
3.338992e+06 -2.670153e+02 7.354415e+02
3.341186e+06 -2.451506e+02 1.861074e+03
3.341746e+06 -2.703901e+02 -4.302730e+02
3.272030e+06 -6.574472e+02 1.513951e+03
3.272946e+06 -7.406522e+02 4.639691e+02
3.272975e+06 -6.640366e+02 1.555387e+03
3.337926e+06 -2.346054e+02 1.810433e+03
3.338470e+06 -2.591477e+02 -4.183807e+02
3.273466e+06 -7.283841e+02 3.825430e+02
3.273945e+06 -6.706291e+02 1.597275e+03
3.336860e+06 -2.309030e+02 1.794082e+03
3.337399e+06 -2.551122e+02 -4.145488e+02
3.274450e+06 -7.356349e+02 3.928080e+02
3.274942e+06 -6.772248e+02 1.639618e+03
3.335804e+06 -2.271901e+02 1.778005e+03
3.336338e+06 -2.510442e+02 -4.107851e+02
3.275460e+06 -7.428925e+02 4.031853e+02
3.275965e+06 -6.838245e+02 1.682418e+03
3.276985e+06 -7.703525e+02 5.144340e+02
3.334757e+06 -2.234797e+02 1.762200e+03
3.335286e+06 -2.469612e+02 -4.070923e+02
3.277015e+06 -6.904304e+02 1.725678e+03
3.333720e+06 -2.197793e+02 1.746670e+03
3.334244e+06 -2.428838e+02 -4.034657e+02
3.277561e+06 -7.574359e+02 4.242787e+02
3.278093e+06 -6.970450e+02 1.769400e+03
3.332693e+06 -2.160934e+02 1.731411e+03
3.333212e+06 -2.388213e+02 -3.999032e+02
3.278652e+06 -7.647279e+02 4.349964e+02
3.279197e+06 -7.036713e+02 1.813588e+03
3.280299e+06 -7.927666e+02 5.537052e+02
3.331674e+06 -2.124232e+02 1.716422e+03
3.332189e+06 -2.347773e+02 -3.964042e+02
3.280330e+06 -7.103121e+02 1.858245e+03
3.330665e+06 -2.087676e+02 1.701701e+03
3.331175e+06 -2.307520e+02 -3.929675e+02
3.329121e+06 -2.228200e+02 1.762681e+03
3.280917e+06 -7.793701e+02 4.567778e+02
3.281490e+06 -7.169699e+02 1.903377e+03
3.282647e+06 -8.078237e+02 5.805770e+02
3.329665e+06 -2.051249e+02 1.687244e+03
3.330170e+06 -2.267433e+02 -3.895921e+02
3.328135e+06 -2.188340e+02 1.747984e+03
3.282679e+06 -7.236461e+02 1.948986e+03
3.283864e+06 -8.153897e+02 5.942221e+02
3.328673e+06 -2.014917e+02 1.673051e+03
3.329174e+06 -2.227485e+02 -3.862777e+02
3.283896e+06 -7.303394e+02 1.995078e+03
3.285111e+06 -8.229750e+02 6.080064e+02
3.327690e+06 -1.978654e+02 1.659119e+03
3.328186e+06 -2.187642e+02 -3.830236e+02
3.326187e+06 -2.108796e+02 1.719408e+03
3.285143e+06 -7.370453e+02 2.041657e+03
3.286386e+06 -8.305663e+02 6.219286e+02
3.326715e+06 -1.942435e+02 1.645447e+03
3.327207e+06 -2.147872e+02 -3.798296e+02
3.286418e+06 -7.437532e+02 2.088725e+03
3.287691e+06 -8.381405e+02 6.359857e+02
3.325749e+06 -1.906242e+02 1.632034e+03
3.326237e+06 -2.108146e+02 -3.766956e+02
3.324272e+06 -2.029307e+02 1.691915e+03
3.287724e+06 -7.504441e+02 2.136285e+03
3.289027e+06 -8.456589e+02 6.501726e+02
3.324791e+06 -1.870093e+02 1.618882e+03
3.325274e+06 -2.068449e+02 -3.736214e+02
3.323323e+06 -2.005770e+02 -1.618830e+03
3.289060e+06 -7.570857e+02 2.184335e+03
3.321955e+06 -1.972977e+02 6.370737e+02
3.321962e+06 -1.761979e+02 1.580953e+03
3.323840e+06 -1.834054e+02 1.605988e+03
3.324320e+06 -2.028737e+02 -3.706031e+02
3.323327e+06 -1.989424e+02 1.678570e+03
3.322890e+06 -2.013389e+02 6.420269e+02
3.289750e+06 -8.309980e+02 5.368094e+02
3.290426e+06 -7.636274e+02 2.232870e+03
3.291132e+06 -8.381341e+02 5.487554e+02
3.291822e+06 -7.699963e+02 2.281871e+03
3.321035e+06 -1.725939e+02 1.568820e+03
3.321503e+06 -1.910130e+02 -3.619311e+02
3.293204e+06 -8.672841e+02 -9.972890e+02
3.293250e+06 -7.760852e+02 2.331318e+03
3.294675e+06 -8.734210e+02 7.079649e+02
3.320115e+06 -1.690203e+02 1.556941e+03
3.320579e+06 -1.870914e+02 -3.591546e+02
3.294708e+06 -7.817387e+02 2.381170e+03
3.296165e+06 -8.789788e+02 7.225501e+02
3.319202e+06 -1.655029e+02 1.545305e+03
3.319662e+06 -1.832231e+02 -3.564382e+02
3.296199e+06 -7.867480e+02 2.431364e+03
3.318296e+06 -1.620650e+02 1.533904e+03
3.318753e+06 -1.794251e+02 -3.537853e+02
3.297675e+06 -8.836512e+02 -1.060579e+03
3.297721e+06 -7.908332e+02 2.481815e+03
3.299240e+06 -8.863127e+02 7.515736e+02
3.317397e+06 -1.587420e+02 1.522724e+03
3.317850e+06 -1.757397e+02 -3.511923e+02
3.316026e+06 -1.688746e+02 1.580779e+03
3.299274e+06 -7.936245e+02 2.532400e+03
3.316504e+06 -1.555871e+02 1.511749e+03
3.316954e+06 -1.722200e+02 -3.486575e+02
3.315144e+06 -1.658863e+02 1.569441e+03
3.300814e+06 -8.873376e+02 -1.102485e+03
3.300860e+06 -7.946436e+02 2.582960e+03
3.302444e+06 -8.851306e+02 7.798909e+02
3.315619e+06 -1.526706e+02 1.500951e+03
3.316065e+06 -1.689371e+02 -3.461786e+02
3.302477e+06 -7.932944e+02 2.633286e+03
3.304093e+06 -8.795605e+02 7.935520e+02
3.314740e+06 -1.500836e+02 1.490299e+03
3.315182e+06 -1.659835e+02 -3.437520e+02
3.313400e+06 -1.613736e+02 1.546951e+03
3.304125e+06 -7.888649e+02 2.683123e+03
3.305773e+06 -8.695151e+02 8.067313e+02
3.313867e+06 -1.479424e+02 1.479748e+03
3.314306e+06 -1.634766e+02 -3.413719e+02
3.305805e+06 -7.805240e+02 2.732191e+03
3.307483e+06 -8.541174e+02 8.193433e+02
3.313001e+06 -1.463885e+02 1.469243e+03
3.313437e+06 -1.615584e+02 -3.390310e+02
3.311681e+06 -1.598896e+02 1.524257e+03
3.307514e+06 -7.673636e+02 2.780185e+03
3.309224e+06 -8.325425e+02 8.313458e+02
3.312141e+06 -1.455892e+02 1.458723e+03
3.312574e+06 -1.603956e+02 -3.367184e+02
3.309253e+06 -7.485033e+02 2.826815e+03
3.310992e+06 -8.041596e+02 8.427373e+02
3.311288e+06 -1.457316e+02 1.448120e+03
3.311717e+06 -1.601728e+02 -3.344209e+02
3.311021e+06 -7.232321e+02 2.871838e+03
3.310441e+06 -1.470080e+02 1.437370e+03
3.310868e+06 -1.610776e+02 -3.321216e+02
3.312778e+06 -7.688956e+02 -1.233119e+03
3.312816e+06 -6.911705e+02 2.915052e+03
3.309602e+06 -1.495900e+02 1.426416e+03
3.310024e+06 -1.632796e+02 -3.298024e+02
3.308315e+06 -1.731285e+02 -1.423221e+03
3.314602e+06 -7.262796e+02 -1.248711e+03
3.314637e+06 -6.523752e+02 2.956268e+03
3.307116e+06 -1.865364e+02 5.583618e+02
3.307124e+06 -1.658139e+02 1.391897e+03
3.308769e+06 -1.535928e+02 1.415214e+03
3.309188e+06 -1.668995e+02 -3.274400e+02
3.308319e+06 -1.716513e+02 1.476225e+03
3.307935e+06 -1.791495e+02 5.634526e+02
3.316450e+06 -6.769759e+02 -1.263515e+03
3.316483e+06 -6.073212e+02 2.995273e+03
3.318332e+06 -6.215521e+02 8.828733e+02
3.318353e+06 -5.567812e+02 3.031806e+03
3.320226e+06 -5.611473e+02 8.915524e+02
3.306312e+06 -1.738012e+02 1.379700e+03
3.306721e+06 -1.864747e+02 -3.199424e+02
3.305067e+06 -2.056730e+02 1.423249e+03
3.320246e+06 -5.016553e+02 3.065566e+03
3.305508e+06 -1.828174e+02 1.367067e+03
3.305914e+06 -1.955909e+02 -3.172296e+02
3.304273e+06 -2.167337e+02 1.408937e+03
3.322135e+06 -4.965135e+02 -1.302483e+03
3.322159e+06 -4.428360e+02 3.096247e+03
3.324076e+06 -4.284901e+02 9.067766e+02
3.304712e+06 -1.926773e+02 1.353928e+03
3.305114e+06 -2.057369e+02 -3.143822e+02
3.324090e+06 -3.811311e+02 3.123558e+03
3.303925e+06 -2.031988e+02 1.340217e+03
3.304323e+06 -2.167160e+02 -3.113894e+02
3.326022e+06 -3.577773e+02 -1.322622e+03
3.326039e+06 -3.172318e+02 3.147249e+03
3.327992e+06 -2.853071e+02 9.184587e+02
3.303145e+06 -2.142265e+02 1.325877e+03
3.303539e+06 -2.283555e+02 -3.082363e+02
3.301941e+06 -2.532532e+02 1.362328e+03
3.328001e+06 -2.517055e+02 3.167115e+03
3.329970e+06 -2.113143e+02 9.227465e+02
3.302374e+06 -2.256334e+02 1.310862e+03
3.302765e+06 -2.405009e+02 -3.049138e+02
3.301182e+06 -2.661118e+02 1.345388e+03
3.329976e+06 -1.850027e+02 3.182992e+03
3.331958e+06 -1.363087e+02 9.259079e+02
3.301613e+06 -2.373172e+02 1.295134e+03
3.301999e+06 -2.530252e+02 -3.014160e+02
3.300432e+06 -2.791612e+02 1.327683e+03
3.331961e+06 -1.174734e+02 3.194758e+03
3.333952e+06 -6.060302e+01 9.278914e+02
3.300861e+06 -2.491995e+02 1.278664e+03
3.301242e+06 -2.658251e+02 -2.977384e+02
3.299693e+06 -2.923417e+02 1.309187e+03
3.333953e+06 -4.938243e+01 3.202318e+03
3.335951e+06 1.555471e+01 9.286586e+02
3.300119e+06 -2.612200e+02 1.261434e+03
3.300496e+06 -2.788207e+02 -2.938785e+02
3.335949e+06 1.907811e+01 3.205611e+03
3.337953e+06 9.199436e+01 9.281904e+02
3.299388e+06 -2.733338e+02 1.243427e+03
3.299760e+06 -2.919512e+02 -2.898347e+02
3.337947e+06 8.777069e+01 3.204584e+03
3.298668e+06 -2.855083e+02 1.224635e+03
3.299034e+06 -3.051717e+02 -2.856064e+02
3.338949e+06 1.285429e+02 7.914208e+02
3.339944e+06 1.565902e+02 3.199198e+03
3.297959e+06 -2.977214e+02 1.205052e+03
3.298320e+06 -3.184499e+02 -2.811934e+02
3.341954e+06 2.458609e+02 -1.338289e+03
3.341938e+06 2.254703e+02 3.189441e+03
3.297262e+06 -3.099570e+02 1.184673e+03
3.297617e+06 -3.317632e+02 -2.765959e+02
3.343946e+06 3.226481e+02 -1.332126e+03
3.343925e+06 2.943758e+02 3.175290e+03
3.345921e+06 3.989238e+02 9.135551e+02
3.296577e+06 -3.222080e+02 1.163499e+03
3.296926e+06 -3.450971e+02 -2.718137e+02
3.295494e+06 -3.751220e+02 -1.138126e+03
3.345903e+06 3.632781e+02 3.156727e+03
3.347890e+06 4.756954e+02 9.066569e+02
3.294843e+06 -3.857996e+02 1.156663e+03
3.295583e+06 -3.717931e+02 -2.616933e+02
3.294585e+06 -4.004399e+02 4.377690e+02
3.295905e+06 -3.344721e+02 1.141528e+03
3.296248e+06 -3.584395e+02 -2.668450e+02
3.347870e+06 4.321612e+02 3.133747e+03
3.349854e+06 5.530783e+02 -1.302390e+03
3.349821e+06 5.010214e+02 3.106340e+03
3.293969e+06 -3.712499e+02 1.070809e+03
3.294293e+06 -3.985000e+02 -2.508541e+02
3.351793e+06 6.298639e+02 -1.288712e+03
3.351755e+06 5.698596e+02 3.074495e+03
3.353699e+06 7.059412e+02 8.781148e+02
3.293353e+06 -3.835089e+02 1.045645e+03
3.293670e+06 -4.118553e+02 -2.451533e+02
3.292367e+06 -4.394295e+02 1.051096e+03
3.353669e+06 6.386801e+02 3.038205e+03
3.292751e+06 -3.957795e+02 1.019680e+03
3.293061e+06 -4.252215e+02 -2.392694e+02
3.291786e+06 -4.528527e+02 1.022601e+03
3.355605e+06 7.834191e+02 -1.255682e+03
3.355560e+06 7.074898e+02 2.997460e+03
3.357460e+06 8.594298e+02 8.525165e+02
3.292165e+06 -4.080608e+02 9.929157e+02
3.292467e+06 -4.385944e+02 -2.332052e+02
3.291221e+06 -4.662903e+02 9.932641e+02
3.357424e+06 7.762972e+02 2.952251e+03
3.359298e+06 9.361983e+02 8.377389e+02
3.291595e+06 -4.203534e+02 9.653501e+02
3.291890e+06 -4.519790e+02 -2.269579e+02
3.359260e+06 8.451103e+02 2.902567e+03
3.361105e+06 1.012995e+03 8.216393e+02
3.291042e+06 -4.326592e+02 9.369825e+02
3.291328e+06 -4.653778e+02 -2.205275e+02
3.290143e+06 -4.932151e+02 9.320560e+02
3.361063e+06 9.139370e+02 2.848397e+03
3.362877e+06 1.089824e+03 8.042157e+02
3.290505e+06 -4.449789e+02 9.078113e+02
3.290783e+06 -4.787927e+02 -2.139129e+02
3.362833e+06 9.827820e+02 2.789730e+03
3.364612e+06 1.166686e+03 7.854673e+02
3.289986e+06 -4.573118e+02 8.778347e+02
3.290255e+06 -4.922239e+02 -2.071138e+02
3.364564e+06 1.051647e+03 2.726554e+03
3.289484e+06 -4.696543e+02 8.470518e+02
3.289745e+06 -5.056686e+02 -2.001291e+02
3.366326e+06 1.244537e+03 -1.110944e+03
3.366255e+06 1.120524e+03 2.658861e+03
3.289001e+06 -4.819979e+02 8.154617e+02
3.289253e+06 -5.191196e+02 -1.929579e+02
3.367978e+06 1.321463e+03 -1.080139e+03
3.367903e+06 1.189396e+03 2.586641e+03
3.288536e+06 -4.943271e+02 7.830657e+02
3.288779e+06 -5.325631e+02 -1.855992e+02
3.369584e+06 1.398366e+03 -1.047429e+03
3.369504e+06 1.258232e+03 2.509894e+03
3.371116e+06 1.474033e+03 6.972620e+02
3.288091e+06 -5.066175e+02 7.498677e+02
3.288324e+06 -5.459758e+02 -1.780517e+02
3.371056e+06 1.326974e+03 2.428620e+03
3.372619e+06 1.550541e+03 6.719580e+02
3.287665e+06 -5.188320e+02 7.158762e+02
3.287889e+06 -5.593202e+02 -1.703143e+02
3.286939e+06 -5.909775e+02 -6.661680e+02
3.372557e+06 1.395525e+03 2.342827e+03
3.286485e+06 -6.176985e+02 2.423675e+02
3.286509e+06 -5.543067e+02 6.093200e+02
3.287259e+06 -5.309159e+02 6.811045e+02
3.287473e+06 -5.725389e+02 -1.623851e+02
3.286944e+06 -5.869029e+02 6.914789e+02
3.286849e+06 -6.049549e+02 2.568564e+02
3.374093e+06 1.627847e+03 -9.380080e+02
3.374001e+06 1.463745e+03 2.252553e+03
3.375484e+06 1.703336e+03 -8.978733e+02
3.375389e+06 1.531437e+03 2.157844e+03
3.376786e+06 1.776596e+03 5.885934e+02
3.286166e+06 -5.653393e+02 5.723993e+02
3.286350e+06 -6.104579e+02 -1.374714e+02
3.376715e+06 1.598308e+03 2.058776e+03
3.285845e+06 -5.756739e+02 5.348838e+02
3.286018e+06 -6.219752e+02 -1.287972e+02
3.285272e+06 -6.436809e+02 4.981739e+02
3.378081e+06 1.850877e+03 -8.124716e+02
3.377978e+06 1.663960e+03 1.955475e+03
3.379251e+06 1.920446e+03 5.274202e+02
3.285545e+06 -5.850369e+02 4.968711e+02
3.285708e+06 -6.325237e+02 -1.199526e+02
3.285004e+06 -6.513130e+02 4.584872e+02
3.379175e+06 1.727855e+03 1.848114e+03
3.380382e+06 1.988359e+03 4.954466e+02
3.285268e+06 -5.930760e+02 4.584919e+02
3.285420e+06 -6.417455e+02 -1.109544e+02
3.380303e+06 1.789288e+03 1.736930e+03
3.381442e+06 2.052272e+03 4.627397e+02
3.285013e+06 -5.993564e+02 4.199099e+02
3.285154e+06 -6.492040e+02 -1.018233e+02
3.381361e+06 1.847355e+03 1.622241e+03
3.382428e+06 2.110920e+03 4.294732e+02
3.284780e+06 -6.033570e+02 3.813202e+02
3.284910e+06 -6.543779e+02 -9.259019e+01
3.382345e+06 1.900935e+03 1.504441e+03
3.383340e+06 2.162846e+03 3.958313e+02
3.284569e+06 -6.044824e+02 3.429402e+02
3.284689e+06 -6.566771e+02 -8.329520e+01
3.383256e+06 1.948688e+03 1.384004e+03
3.284380e+06 -6.020948e+02 3.049917e+02
3.284489e+06 -6.554767e+02 -7.398862e+01
3.384211e+06 2.208075e+03 -5.257956e+02
3.384090e+06 1.989099e+03 1.261450e+03
3.284212e+06 -5.955859e+02 2.676766e+02
3.284310e+06 -6.501770e+02 -6.472930e+01
3.384970e+06 2.241927e+03 -4.757819e+02
3.384848e+06 2.020589e+03 1.137305e+03
3.284065e+06 -5.844896e+02 2.311591e+02
3.284153e+06 -6.402890e+02 -5.558006e+01
3.385651e+06 2.264672e+03 -4.255956e+02
3.385528e+06 2.041732e+03 1.012038e+03
3.386217e+06 2.273832e+03 2.600543e+02
3.283939e+06 -5.685950e+02 1.955705e+02
3.284017e+06 -6.255172e+02 -4.660574e+01
3.386130e+06 2.051562e+03 8.860336e+02
3.386740e+06 2.272524e+03 2.258705e+02
3.283833e+06 -5.480031e+02 1.610366e+02
3.283900e+06 -6.058141e+02 -3.787045e+01
3.386653e+06 2.049825e+03 7.596247e+02
3.283746e+06 -5.230985e+02 1.277077e+02
3.283803e+06 -5.813894e+02 -2.943905e+01
3.387221e+06 2.261157e+03 -2.739235e+02
3.387098e+06 2.037048e+03 6.331553e+02
3.283678e+06 -4.944530e+02 9.577349e+01
3.283725e+06 -5.526720e+02 -2.137526e+01
3.283509e+06 -4.865170e+02 6.727809e+01
3.387586e+06 2.237445e+03 -2.229617e+02
3.387463e+06 2.014397e+03 5.070430e+02
3.387836e+06 2.202888e+03 1.220807e+02
3.283491e+06 -4.482386e+02 3.921229e+01
3.283559e+06 -4.362010e+02 1.473173e+01
3.283628e+06 -4.627045e+02 6.545083e+01
3.283664e+06 -5.202308e+02 -1.373980e+01
3.283594e+06 -4.284673e+02 3.696087e+01
3.283575e+06 -4.760692e+02 2.488990e+01
3.387750e+06 1.983386e+03 3.817857e+02
3.387841e+06 2.138486e+03 7.306786e+01
3.387959e+06 1.945590e+03 2.579164e+02
3.388174e+06 2.115305e+03 5.272166e+01
3.283573e+06 -3.546463e+02 -1.372866e+01
3.283583e+06 -4.066867e+02 6.106786e+00
3.388090e+06 1.902472e+03 1.359486e+02
3.388227e+06 2.063631e+03 1.849429e+01
3.283583e+06 -3.159103e+02 -3.561002e+01
3.283585e+06 -3.652392e+02 1.158844e+01
3.388146e+06 1.855298e+03 1.633542e+01
3.388206e+06 2.008357e+03 -1.520220e+01
3.283604e+06 -2.763830e+02 -5.502517e+01
3.283600e+06 -3.227015e+02 1.646701e+01
3.388126e+06 1.805111e+03 -1.005505e+02
3.388111e+06 1.950452e+03 -4.822528e+01
3.283637e+06 -2.362964e+02 -7.189099e+01
3.283626e+06 -2.793784e+02 2.073091e+01
3.388034e+06 1.752745e+03 -2.144152e+02
3.387945e+06 1.890680e+03 -8.046031e+01
3.283678e+06 -1.958256e+02 -8.614831e+01
3.283662e+06 -2.355039e+02 2.437300e+01
3.387870e+06 1.698842e+03 -3.250376e+02
3.283727e+06 -1.550993e+02 -9.775560e+01
3.283706e+06 -1.912549e+02 2.738916e+01
3.387740e+06 1.830850e+03 1.677055e+02
3.387638e+06 1.643889e+03 -4.322574e+02
3.283782e+06 -1.142100e+02 -1.066853e+02
3.283757e+06 -1.467603e+02 2.977744e+01
3.387437e+06 1.768898e+03 2.116035e+02
3.387338e+06 1.588242e+03 -5.359625e+02
3.283841e+06 -7.322216e+01 -1.129196e+02
3.283813e+06 -1.021119e+02 3.153736e+01
3.387069e+06 1.706404e+03 2.540426e+02
3.386974e+06 1.532158e+03 -6.360774e+02
3.386613e+06 1.642463e+03 -2.000510e+02
3.283903e+06 -3.217887e+01 -1.164477e+02
3.283873e+06 -5.737318e+01 3.266904e+01
3.386547e+06 1.475816e+03 -7.325534e+02
3.386123e+06 1.579505e+03 -2.273973e+02
3.283966e+06 8.891766e+00 -1.172635e+02
3.283934e+06 -1.258551e+01 3.317365e+01
3.386061e+06 1.419336e+03 -8.253615e+02
3.284029e+06 4.997400e+01 -1.153641e+02
3.283997e+06 3.222528e+01 3.305178e+01
3.385601e+06 1.517523e+03 3.722638e+02
3.385516e+06 1.362798e+03 -9.144851e+02
3.284090e+06 9.106040e+01 -1.107477e+02
3.284058e+06 7.704530e+01 3.230435e+01
3.384998e+06 1.454436e+03 4.085776e+02
3.384916e+06 1.306250e+03 -9.999170e+02
3.384319e+06 1.390373e+03 -3.030095e+02
3.284148e+06 1.321492e+02 -1.034141e+02
3.284116e+06 1.218690e+02 3.093234e+01
3.284266e+06 2.131735e+02 7.012106e+01
3.384264e+06 1.249719e+03 -1.081656e+03
3.284320e+06 2.569592e+02 -6.019502e+01
3.284219e+06 2.115323e+02 2.631575e+01
3.284296e+06 2.848814e+02 -1.452603e+01
3.284201e+06 1.732430e+02 -9.336193e+01
3.284170e+06 1.666965e+02 2.893586e+01
3.383635e+06 1.328328e+03 4.765203e+02
3.383560e+06 1.193218e+03 -1.159702e+03
3.382859e+06 1.264399e+03 -3.480081e+02
3.382808e+06 1.136751e+03 -1.234059e+03
3.382059e+06 1.201466e+03 -3.688787e+02
3.284312e+06 2.966047e+02 -4.688269e+01
3.284291e+06 3.012568e+02 1.920337e+01
3.382011e+06 1.080314e+03 -1.304731e+03
3.381216e+06 1.138569e+03 -3.886636e+02
3.284328e+06 3.377778e+02 -2.594020e+01
3.284312e+06 3.461625e+02 1.470958e+01
3.381170e+06 1.023903e+03 -1.371723e+03
3.380331e+06 1.075698e+03 -4.073674e+02
3.284332e+06 3.789860e+02 -2.266812e+00
3.284321e+06 3.911062e+02 9.589540e+00
3.380288e+06 9.675071e+02 -1.435038e+03
3.379408e+06 1.012832e+03 -4.249912e+02
3.284321e+06 4.202305e+02 2.414136e+01
3.284317e+06 4.360912e+02 3.841622e+00
3.379367e+06 9.111218e+02 -1.494676e+03
3.284293e+06 4.615058e+02 5.328751e+01
3.284296e+06 4.811154e+02 -2.535976e+00
3.378464e+06 9.507260e+02 6.428409e+02
3.378410e+06 8.547399e+02 -1.550646e+03
3.284248e+06 5.027966e+02 8.517358e+01
3.284259e+06 5.261656e+02 -9.546193e+00
3.377469e+06 8.878394e+02 6.651017e+02
3.377418e+06 7.983513e+02 -1.602948e+03
3.284184e+06 5.440712e+02 1.197977e+02
3.284203e+06 5.712141e+02 -1.719122e+01
3.376442e+06 8.249345e+02 6.858067e+02
3.376395e+06 7.419533e+02 -1.651581e+03
3.375374e+06 7.613421e+02 -4.846571e+02
3.284098e+06 5.852765e+02 1.571520e+02
3.284127e+06 6.162107e+02 -2.547405e+01
3.375343e+06 6.855459e+02 -1.696551e+03
3.374292e+06 6.984592e+02 -4.968795e+02
3.283991e+06 6.263271e+02 1.972192e+02
3.284030e+06 6.610733e+02 -3.439722e+01
3.283939e+06 7.517496e+02 2.915972e+02
3.374263e+06 6.291333e+02 -1.737859e+03
3.283859e+06 6.670939e+02 2.399676e+02
3.283909e+06 7.056755e+02 -4.396229e+01
3.283777e+06 7.954005e+02 3.402661e+02
3.373196e+06 6.362030e+02 7.386077e+02
3.373159e+06 5.727268e+02 -1.775511e+03
3.283701e+06 7.073876e+02 2.853443e+02
3.283763e+06 7.498304e+02 -5.416990e+01
3.372067e+06 5.733403e+02 7.531186e+02
3.372033e+06 5.163490e+02 -1.809512e+03
3.370908e+06 5.100168e+02 -5.271402e+02
3.283516e+06 7.469411e+02 3.332675e+02
3.283591e+06 7.932701e+02 -6.501766e+01
3.370887e+06 4.600371e+02 -1.839874e+03
3.283303e+06 7.853836e+02 3.836158e+02
3.283391e+06 8.356224e+02 -7.649857e+01
3.283117e+06 9.236613e+02 -4.840986e+02
3.369749e+06 4.479429e+02 7.775602e+02
3.369723e+06 4.038488e+02 -1.866614e+03
3.368559e+06 3.851067e+02 -5.420702e+02
3.282520e+06 9.873900e+02 2.288598e+02
3.282481e+06 8.882103e+02 5.471324e+02
3.283060e+06 8.222137e+02 4.362163e+02
3.283162e+06 8.763837e+02 -8.859891e+01
3.283118e+06 9.179092e+02 5.001548e+02
3.282825e+06 9.533362e+02 2.072425e+02
3.368543e+06 3.478693e+02 -1.889757e+03
3.367364e+06 3.231911e+02 -5.480149e+02
3.367351e+06 2.922206e+02 -1.909341e+03
3.366158e+06 2.618887e+02 -5.529859e+02
3.282143e+06 9.154682e+02 6.047288e+02
3.282289e+06 9.814334e+02 -1.283409e+02
3.366147e+06 2.370723e+02 -1.925422e+03
3.364944e+06 2.014726e+02 -5.570256e+02
3.281772e+06 9.372380e+02 6.631247e+02
3.281933e+06 1.007100e+03 -1.425538e+02
3.364935e+06 1.826538e+02 -1.938077e+03
3.363722e+06 1.423004e+02 -5.601873e+02
3.281367e+06 9.519887e+02 7.217504e+02
3.281544e+06 1.025736e+03 -1.571072e+02
3.363716e+06 1.292694e+02 -1.947410e+03
3.280930e+06 9.580342e+02 7.800012e+02
3.281123e+06 1.035683e+03 -1.718780e+02
3.362499e+06 8.510168e+01 8.163350e+02
3.362492e+06 7.730788e+01 -1.953564e+03
3.280460e+06 9.536674e+02 8.372977e+02
3.280669e+06 1.035268e+03 -1.867157e+02
3.361881e+06 5.593479e+01 -4.848215e+02
3.361266e+06 2.725715e+01 -1.956711e+03
3.279959e+06 9.374165e+02 8.931464e+02
3.280183e+06 1.023008e+03 -2.014532e+02
3.360655e+06 3.118088e+00 -4.848562e+02
3.360038e+06 -2.028674e+01 -1.957060e+03
3.358810e+06 -7.134493e+01 -5.655674e+02
3.279427e+06 9.083695e+02 9.471570e+02
3.279667e+06 9.978436e+02 -2.159165e+02
3.358811e+06 -6.463985e+01 -1.954858e+03
3.357584e+06 -1.156464e+02 -5.654959e+02
3.278866e+06 8.664137e+02 9.989940e+02
3.279121e+06 9.593347e+02 -2.299320e+02
3.357586e+06 -1.050682e+02 -1.950354e+03
3.278276e+06 8.122628e+02 1.048290e+03
3.278547e+06 9.077399e+02 -2.433248e+02
3.356360e+06 -1.548209e+02 8.176273e+02
3.356364e+06 -1.408547e+02 -1.943780e+03
3.277660e+06 7.472715e+02 1.094582e+03
3.277946e+06 8.439700e+02 -2.559216e+02
3.276835e+06 6.896992e+02 1.181817e+03
3.355141e+06 -1.885947e+02 8.155973e+02
3.355147e+06 -1.714344e+02 -1.935337e+03
3.353929e+06 -2.166671e+02 -5.625502e+02
3.277020e+06 6.731147e+02 1.137312e+03
3.277320e+06 7.694180e+02 -2.675530e+02
3.276143e+06 5.979091e+02 1.217498e+03
3.353935e+06 -1.965329e+02 -1.925187e+03
3.276357e+06 5.915032e+02 1.175880e+03
3.276671e+06 6.857289e+02 -2.780651e+02
3.352721e+06 -2.389584e+02 8.094076e+02
3.352730e+06 -2.162370e+02 -1.913485e+03
3.351524e+06 -2.560208e+02 -5.580666e+02
3.275673e+06 5.040092e+02 1.209711e+03
3.276000e+06 5.945819e+02 -2.873270e+02
3.274699e+06 4.004732e+02 -1.223610e+03
3.351533e+06 -2.309713e+02 -1.900406e+03
3.350334e+06 -2.683069e+02 -5.550338e+02
3.273542e+06 2.427474e+02 4.871788e+02
3.273532e+06 2.186843e+02 1.278114e+03
3.274973e+06 4.119894e+02 1.238295e+03
3.275311e+06 4.975427e+02 -2.952320e+02
3.274701e+06 3.981543e+02 1.274176e+03
3.274272e+06 3.513258e+02 4.809747e+02
3.350343e+06 -2.413887e+02 -1.886168e+03
3.349153e+06 -2.765685e+02 -5.515329e+02
3.349163e+06 -2.482282e+02 -1.871011e+03
3.347982e+06 -2.815436e+02 -5.476419e+02
3.272798e+06 1.190209e+02 1.288770e+03
3.273160e+06 1.835658e+02 -3.101734e+02
3.347993e+06 -2.522083e+02 -1.855182e+03
3.346822e+06 -2.839266e+02 -5.434472e+02
3.272060e+06 1.811134e+01 1.292994e+03
3.272427e+06 7.436933e+01 -3.120908e+02
3.346832e+06 -2.539710e+02 -1.838905e+03
3.271322e+06 -8.365099e+01 1.290655e+03
3.271692e+06 -3.605047e+01 -3.124474e+02
3.345669e+06 -2.842485e+02 7.761300e+02
3.345682e+06 -2.540583e+02 -1.822371e+03
3.270588e+06 -1.859707e+02 1.281667e+03
3.270958e+06 -1.472830e+02 -3.112402e+02
3.344529e+06 -2.831649e+02 7.694066e+02
3.344543e+06 -2.529101e+02 -1.805732e+03
3.269861e+06 -2.886395e+02 1.265977e+03
3.270230e+06 -2.590400e+02 -3.084651e+02
3.268694e+06 -4.841525e+02 1.249457e+03
3.343401e+06 -2.810133e+02 7.625943e+02
3.343414e+06 -2.508730e+02 -1.789106e+03
3.342286e+06 -2.782085e+02 -5.251170e+02
3.269145e+06 -3.915148e+02 1.243555e+03
3.269511e+06 -3.711165e+02 -3.041232e+02
3.267980e+06 -5.967833e+02 1.215273e+03
3.342296e+06 -2.482125e+02 -1.772579e+03
3.341178e+06 -2.747925e+02 -5.204143e+02
3.268445e+06 -4.945028e+02 1.214384e+03
3.268805e+06 -4.833747e+02 -2.982175e+02
3.341189e+06 -2.451292e+02 -1.756216e+03
3.267763e+06 -5.975451e+02 1.178458e+03
3.268116e+06 -5.957254e+02 -2.907519e+02
3.340079e+06 -2.709800e+02 7.421486e+02
3.340092e+06 -2.417696e+02 -1.740054e+03
3.267104e+06 -7.006086e+02 1.135776e+03
3.267448e+06 -7.081152e+02 -2.817300e+02
3.339552e+06 -2.630996e+02 -4.222708e+02
3.339005e+06 -2.382343e+02 -1.724118e+03
3.337919e+06 -2.629966e+02 -5.065191e+02
3.266473e+06 -8.036780e+02 1.086342e+03
3.266806e+06 -8.205164e+02 -2.711553e+02
3.337929e+06 -2.345955e+02 -1.708432e+03
3.265872e+06 -9.067511e+02 1.030158e+03
3.266192e+06 -9.329193e+02 -2.590307e+02
3.336850e+06 -2.587388e+02 7.222935e+02
3.336863e+06 -2.309060e+02 -1.693000e+03
3.335796e+06 -2.546757e+02 -4.975391e+02
3.265305e+06 -1.009833e+03 9.672258e+02
3.265610e+06 -1.045326e+03 -2.453586e+02
3.335806e+06 -2.271960e+02 -1.677826e+03
3.334750e+06 -2.504997e+02 -4.931565e+02
3.264777e+06 -1.112937e+03 8.975474e+02
3.265065e+06 -1.157749e+03 -2.301399e+02
3.263777e+06 -1.394902e+03 -7.442177e+02
3.334760e+06 -2.234833e+02 -1.662912e+03
3.333713e+06 -2.463359e+02 -4.888475e+02
3.263399e+06 -1.585512e+03 2.318169e+02
3.263463e+06 -1.422488e+03 6.479889e+02
3.264291e+06 -1.216078e+03 8.211193e+02
3.264561e+06 -1.270200e+03 -2.133736e+02
3.263783e+06 -1.385641e+03 7.774984e+02
3.263793e+06 -1.470443e+03 2.681392e+02
3.333723e+06 -2.197795e+02 -1.648258e+03
3.332686e+06 -2.421900e+02 -4.846130e+02
3.332695e+06 -2.160899e+02 -1.633860e+03
3.331667e+06 -2.380640e+02 -4.804530e+02
3.263128e+06 -1.525773e+03 5.512755e+02
3.263329e+06 -1.607894e+03 -1.537935e+02
3.331676e+06 -2.124157e+02 -1.619717e+03
3.330658e+06 -2.339569e+02 -4.763676e+02
3.262851e+06 -1.629115e+03 4.477819e+02
3.263025e+06 -1.720597e+03 -1.308240e+02
3.330667e+06 -2.087565e+02 -1.605826e+03
3.262636e+06 -1.732488e+03 3.374974e+02
3.262782e+06 -1.833357e+03 -1.062932e+02
3.262015e+06 -2.063459e+03 1.252741e+02
3.329656e+06 -2.297463e+02 6.795707e+02
3.329667e+06 -2.051097e+02 -1.592185e+03
3.262486e+06 -1.835838e+03 2.204168e+02
3.262602e+06 -1.946129e+03 -8.019579e+01
3.261948e+06 -2.176285e+03 -8.276981e+00
3.328665e+06 -2.256667e+02 6.738948e+02
3.328675e+06 -2.014728e+02 -1.578793e+03
3.262406e+06 -1.939078e+03 9.654242e+01
3.262489e+06 -2.058836e+03 -5.252327e+01
3.327682e+06 -2.215965e+02 6.683242e+02
3.327692e+06 -1.978427e+02 -1.565647e+03
3.326709e+06 -2.176547e+02 -4.607619e+02
3.262400e+06 -2.042067e+03 -3.410963e+01
3.262449e+06 -2.171344e+03 -2.326802e+01
3.326717e+06 -1.942173e+02 -1.552746e+03
3.325742e+06 -2.135954e+02 -4.570420e+02
3.262471e+06 -2.144590e+03 -1.715026e+02
3.262484e+06 -2.283448e+03 7.576716e+00
3.262215e+06 -2.511146e+03 -4.505564e+02
3.325751e+06 -1.905939e+02 -1.540089e+03
3.262624e+06 -2.246332e+03 -3.155665e+02
3.262598e+06 -2.394838e+03 4.001622e+01
3.324783e+06 -2.094119e+02 6.522370e+02
3.324792e+06 -1.869712e+02 -1.527676e+03
3.323834e+06 -2.054813e+02 -4.498139e+02
3.262861e+06 -2.346843e+03 -4.661844e+02
3.262796e+06 -2.505068e+03 7.405224e+01
3.323842e+06 -1.833508e+02 -1.515508e+03
3.263188e+06 -2.445499e+03 -6.231751e+02
3.263081e+06 -2.613513e+03 1.096800e+02
3.323373e+06 -1.989148e+02 -3.676456e+02
3.322899e+06 -1.797355e+02 -1.503582e+03
3.321957e+06 -1.973828e+02 -4.428746e+02
3.263606e+06 -2.541453e+03 -7.862700e+02
3.263456e+06 -2.719319e+03 1.468855e+02
3.321964e+06 -1.761267e+02 -1.491894e+03
3.321029e+06 -1.933729e+02 -4.395049e+02
3.264120e+06 -2.633578e+03 -9.550897e+02
3.263925e+06 -2.821346e+03 1.856395e+02
3.321036e+06 -1.725327e+02 -1.480448e+03
3.320109e+06 -1.893936e+02 -4.361966e+02
3.264733e+06 -2.720410e+03 -1.129118e+03
3.264491e+06 -2.918112e+03 2.258921e+02
3.265193e+06 -3.118418e+03 1.446773e+03
3.320116e+06 -1.689700e+02 -1.469239e+03
3.319196e+06 -1.854701e+02 -4.329499e+02
3.267060e+06 -3.253055e+03 -6.901489e+02
3.267186e+06 -2.928369e+03 -1.674828e+03
3.265447e+06 -2.800087e+03 -1.307679e+03
3.265157e+06 -3.007740e+03 2.675612e+02
3.265202e+06 -3.098143e+03 -1.496830e+03
3.266139e+06 -3.191342e+03 -6.195890e+02
3.319203e+06 -1.654567e+02 -1.458259e+03
3.318290e+06 -1.816418e+02 -4.297590e+02
3.318297e+06 -1.620201e+02 -1.447502e+03
3.317391e+06 -1.779555e+02 -4.266164e+02
3.268215e+06 -2.971161e+03 -1.861301e+03
3.267776e+06 -3.208618e+03 3.997361e+02
3.317398e+06 -1.586997e+02 -1.436957e+03
3.269349e+06 -2.995374e+03 -2.048215e+03
3.268859e+06 -3.242847e+03 4.454695e+02
3.270581e+06 -3.257985e+03 -2.434710e+03
3.316498e+06 -1.743330e+02 6.092435e+02
3.316505e+06 -1.555496e+02 -1.426606e+03
3.270590e+06 -2.997888e+03 -2.234547e+03
3.270048e+06 -3.255503e+03 4.915740e+02
3.271987e+06 -3.220955e+03 -2.617795e+03
3.315612e+06 -1.711392e+02 6.048432e+02
3.315620e+06 -1.526403e+02 -1.416425e+03
3.271937e+06 -2.976391e+03 -2.419471e+03
3.271343e+06 -3.244138e+03 5.377290e+02
3.314733e+06 -1.683422e+02 6.004699e+02
3.314741e+06 -1.500641e+02 -1.406384e+03
3.313861e+06 -1.662279e+02 -4.142840e+02
3.273388e+06 -2.929930e+03 -2.602325e+03
3.272741e+06 -3.207316e+03 5.835983e+02
3.313868e+06 -1.479365e+02 -1.396442e+03
3.312995e+06 -1.646543e+02 -4.111739e+02
3.274942e+06 -2.859152e+03 -2.782457e+03
3.274243e+06 -3.144901e+03 6.288494e+02
3.313002e+06 -1.463999e+02 -1.386548e+03
3.276599e+06 -2.766143e+03 -2.959077e+03
3.275846e+06 -3.058074e+03 6.731490e+02
3.312135e+06 -1.637909e+02 5.872491e+02
3.312142e+06 -1.456203e+02 -1.376646e+03
3.311282e+06 -1.643030e+02 -4.047743e+02
3.278355e+06 -2.653903e+03 -3.131188e+03
3.277550e+06 -2.949115e+03 7.161668e+02
3.311289e+06 -1.457836e+02 -1.366671e+03
3.280210e+06 -2.525734e+03 -3.297656e+03
3.279352e+06 -2.821003e+03 7.575902e+02
3.310435e+06 -1.657331e+02 5.780694e+02
3.310442e+06 -1.470786e+02 -1.356561e+03
3.309596e+06 -1.688756e+02 -3.980375e+02
3.282158e+06 -2.384812e+03 -3.457326e+03
3.281249e+06 -2.676970e+03 7.971435e+02
3.309603e+06 -1.496700e+02 -1.346263e+03
3.308763e+06 -1.733261e+02 -3.945376e+02
3.284197e+06 -2.233966e+03 -3.609138e+03
3.283239e+06 -2.520152e+03 8.346001e+02
3.308770e+06 -1.536661e+02 -1.335734e+03
3.307936e+06 -1.792648e+02 -3.909655e+02
3.286322e+06 -2.075582e+03 -3.752178e+03
3.285317e+06 -2.353369e+03 8.697827e+02
3.289233e+06 -2.016094e+03 3.921518e+03
3.307944e+06 -1.590884e+02 -1.324933e+03
3.307118e+06 -1.866448e+02 -3.873294e+02
3.293097e+06 -1.760591e+03 -1.612294e+03
3.293164e+06 -1.572751e+03 -4.121948e+03
3.288529e+06 -1.911599e+03 -3.885701e+03
3.287479e+06 -2.179038e+03 9.025504e+02
3.289239e+06 -2.002204e+03 -4.076212e+03
3.290737e+06 -1.950059e+03 -1.567691e+03
3.307125e+06 -1.658633e+02 -1.313817e+03
3.306306e+06 -1.953419e+02 -3.836240e+02
3.306314e+06 -1.738468e+02 -1.302342e+03
3.295581e+06 -1.400035e+03 -4.223919e+03
3.294414e+06 -1.628411e+03 9.856754e+02
3.305500e+06 -2.050442e+02 5.478260e+02
3.305510e+06 -1.828594e+02 -1.290446e+03
3.298056e+06 -1.226060e+03 -4.314786e+03
3.296856e+06 -1.439773e+03 1.008142e+03
3.304704e+06 -2.158366e+02 5.423391e+02
3.304714e+06 -1.927102e+02 -1.278066e+03
3.300582e+06 -1.051282e+03 -4.394367e+03
3.299353e+06 -1.249884e+03 1.027956e+03
3.304266e+06 -8.668107e+02 -4.642030e+03
3.303916e+06 -2.273952e+02 5.366680e+02
3.303926e+06 -2.032226e+02 -1.265143e+03
3.303138e+06 -2.396491e+02 -3.678501e+02
3.303154e+06 -8.760521e+02 -4.462538e+03
3.301898e+06 -1.059246e+03 1.045118e+03
3.306932e+06 -6.749890e+02 -4.695122e+03
3.303147e+06 -2.142444e+02 -1.251624e+03
3.305764e+06 -7.006092e+02 -4.519218e+03
3.304484e+06 -8.681832e+02 1.059614e+03
3.302365e+06 -2.521612e+02 5.246615e+02
3.302377e+06 -2.256482e+02 -1.237463e+03
3.301605e+06 -2.651829e+02 -3.591138e+02
3.308406e+06 -5.251031e+02 -4.564347e+03
3.307107e+06 -6.769158e+02 1.071440e+03
3.301615e+06 -2.373319e+02 -1.222628e+03
3.300853e+06 -2.783581e+02 -3.544718e+02
3.311073e+06 -3.496254e+02 -4.597880e+03
3.309757e+06 -4.855840e+02 1.080591e+03
3.300864e+06 -2.492163e+02 -1.207091e+03
3.313759e+06 -1.742257e+02 -4.619778e+03
3.312430e+06 -2.942693e+02 1.087064e+03
3.300108e+06 -2.916436e+02 5.046618e+02
3.300122e+06 -2.612406e+02 -1.190834e+03
3.299379e+06 -3.051600e+02 -3.445854e+02
3.316456e+06 1.075324e+00 -4.630009e+03
3.315117e+06 -1.030126e+02 1.090855e+03
3.299391e+06 -2.733598e+02 -1.173844e+03
3.319158e+06 1.762767e+02 -4.628540e+03
3.317813e+06 8.817395e+01 1.091959e+03
3.298655e+06 -3.186528e+02 4.898408e+02
3.298671e+06 -2.855409e+02 -1.156112e+03
3.297949e+06 -3.322729e+02 -3.338519e+02
3.321858e+06 3.513899e+02 -4.615340e+03
3.320510e+06 2.792968e+02 1.090368e+03
3.297962e+06 -2.977609e+02 -1.137633e+03
3.297252e+06 -3.458808e+02 -3.281571e+02
3.324549e+06 5.264361e+02 -4.590374e+03
3.323201e+06 4.703748e+02 1.086075e+03
3.297265e+06 -3.100043e+02 -1.118402e+03
3.296567e+06 -3.595049e+02 -3.222403e+02
3.327224e+06 7.014470e+02 -4.553609e+03
3.325880e+06 6.614335e+02 1.079071e+03
3.331396e+06 1.055271e+03 4.448120e+03
3.296581e+06 -3.222597e+02 -1.098419e+03
3.295894e+06 -3.731331e+02 -3.161001e+02
3.335142e+06 1.358794e+03 -1.708544e+03
3.335083e+06 1.226474e+03 -4.372065e+03
3.329876e+06 8.764649e+02 -4.505004e+03
3.328540e+06 8.524897e+02 1.069336e+03
3.331396e+06 1.049414e+03 -4.622456e+03
3.332549e+06 1.163388e+03 -1.737904e+03
3.295909e+06 -3.345225e+02 -1.077684e+03
3.295231e+06 -3.867946e+02 4.472511e+02
3.295250e+06 -3.467900e+02 -1.056194e+03
3.337623e+06 1.401445e+03 -4.287676e+03
3.336330e+06 1.425953e+03 1.023752e+03
3.294931e+06 -3.851510e+02 -2.563652e+02
3.294605e+06 -3.590584e+02 -1.033950e+03
3.340112e+06 1.576418e+03 -4.191298e+03
3.338840e+06 1.617187e+03 1.003016e+03
3.293953e+06 -4.140725e+02 4.279640e+02
3.293974e+06 -3.713284e+02 -1.010955e+03
3.293341e+06 -4.276909e+02 -2.893061e+02
3.342542e+06 1.751353e+03 -4.082887e+03
3.341295e+06 1.808436e+03 9.794938e+02
3.293358e+06 -3.836041e+02 -9.872054e+02
3.344906e+06 1.926133e+03 -3.962426e+03
3.343688e+06 1.999575e+03 9.531817e+02
3.292734e+06 -4.413788e+02 4.073831e+02
3.292757e+06 -3.958860e+02 -9.627016e+02
3.292153e+06 -4.550041e+02 -2.745566e+02
3.347197e+06 2.100577e+03 -3.829927e+03
3.346011e+06 2.190447e+03 9.240572e+02
3.292171e+06 -4.081766e+02 -9.374434e+02
3.291582e+06 -4.686800e+02 -2.668436e+02
3.349407e+06 2.274413e+03 -3.685432e+03
3.348257e+06 2.380785e+03 8.921078e+02
3.291601e+06 -4.204778e+02 -9.114297e+02
3.291028e+06 -4.823721e+02 -2.589048e+02
3.351529e+06 2.447234e+03 -3.529031e+03
3.350419e+06 2.570185e+03 8.573257e+02
3.291047e+06 -4.327923e+02 -8.846592e+02
3.290491e+06 -4.960813e+02 -2.507398e+02
3.353557e+06 2.618450e+03 -3.360885e+03
3.352489e+06 2.758056e+03 8.197094e+02
3.290511e+06 -4.451204e+02 -8.571302e+02
3.289971e+06 -5.098067e+02 -2.423491e+02
3.355483e+06 2.787232e+03 -3.181250e+03
3.354461e+06 2.943565e+03 7.792683e+02
3.289992e+06 -4.574616e+02 -8.288411e+02
3.289469e+06 -5.235431e+02 -2.337334e+02
3.357300e+06 2.952443e+03 -2.990508e+03
3.356328e+06 3.125562e+03 7.360266e+02
3.289490e+06 -4.698119e+02 -7.997907e+02
3.288986e+06 -5.372804e+02 -2.248943e+02
3.359002e+06 3.112562e+03 -2.789203e+03
3.358083e+06 3.302506e+03 6.900320e+02
3.289007e+06 -4.821627e+02 -7.699782e+02
3.288521e+06 -5.509998e+02 -2.158345e+02
3.360584e+06 3.265608e+03 -2.578075e+03
3.359719e+06 3.472383e+03 6.413627e+02
3.363500e+06 3.818509e+03 2.211474e+03
3.288543e+06 -4.944982e+02 -7.394044e+02
3.288075e+06 -5.646704e+02 -2.065587e+02
3.364708e+06 4.054456e+03 -7.326105e+02
3.364550e+06 3.654088e+03 -1.896407e+03
3.361233e+06 3.632637e+03 5.901350e+02
3.362038e+06 3.409062e+03 -2.358079e+03
3.363517e+06 3.930901e+03 -8.213333e+02
3.288097e+06 -5.067931e+02 -7.080728e+02
3.287649e+06 -5.782450e+02 -1.970736e+02
3.287672e+06 -5.190082e+02 -6.759899e+02
3.287243e+06 -5.916508e+02 -1.873900e+02
3.365600e+06 3.747889e+03 -1.657605e+03
3.364984e+06 4.021968e+03 4.232192e+02
3.287266e+06 -5.310859e+02 -6.431699e+02
3.286857e+06 -6.047865e+02 -1.775250e+02
3.366510e+06 3.817052e+03 -1.415406e+03
3.365961e+06 4.108158e+03 3.641645e+02
3.286881e+06 -5.429436e+02 -6.096324e+02
3.286492e+06 -6.175177e+02 -1.674995e+02
3.367277e+06 3.858018e+03 -1.171016e+03
3.366797e+06 4.166263e+03 3.040526e+02
3.286517e+06 -5.544631e+02 -5.754096e+02
3.286149e+06 -6.296536e+02 -1.573399e+02
3.367902e+06 3.868664e+03 -9.253953e+02
3.367492e+06 4.193756e+03 2.433150e+02
3.286174e+06 -5.654859e+02 -5.405512e+02
3.368383e+06 3.848886e+03 -6.793847e+02
3.368045e+06 4.189682e+03 1.823762e+02
3.285819e+06 -6.411274e+02 2.127913e+02
3.285853e+06 -5.758015e+02 -5.051236e+02
3.368720e+06 3.800619e+03 -4.339253e+02
3.368455e+06 4.154827e+03 1.216646e+02
3.285519e+06 -6.512486e+02 1.978113e+02
3.285553e+06 -5.851329e+02 -4.692181e+02
3.285250e+06 -6.595650e+02 -1.264932e+02
3.368914e+06 3.727314e+03 -1.902088e+02
3.368723e+06 4.091570e+03 6.160913e+01
3.285276e+06 -5.931285e+02 -4.329562e+02
3.368966e+06 3.633104e+03 5.034746e+01
3.368849e+06 4.003424e+03 2.625495e+00
3.284986e+06 -6.662526e+02 1.678447e+02
3.285021e+06 -5.993540e+02 -3.964893e+02
3.284762e+06 -6.698172e+02 -1.062286e+02
3.368877e+06 3.522116e+03 2.862504e+02
3.368834e+06 3.894437e+03 -5.491015e+01
3.284788e+06 -6.032901e+02 -3.599985e+02
3.284551e+06 -6.703565e+02 -9.639691e+01
3.368651e+06 3.398084e+03 5.160904e+02
3.368681e+06 3.768663e+03 -1.106825e+02
3.368782e+06 3.491717e+03 8.315455e+02
3.284577e+06 -6.043445e+02 -3.236867e+02
3.284363e+06 -6.670092e+02 -8.684465e+01
3.368292e+06 3.264182e+03 7.386430e+02
3.368392e+06 3.629808e+03 -1.644439e+02
3.284388e+06 -6.018883e+02 -2.877626e+02
3.284195e+06 -6.592287e+02 -7.759852e+01
3.367802e+06 3.122997e+03 9.529090e+02
3.367972e+06 3.481055e+03 -2.160103e+02
3.367489e+06 3.172842e+03 1.257578e+03
3.284220e+06 -5.953243e+02 -2.524186e+02
3.284049e+06 -6.466233e+02 -6.865318e+01
3.365731e+06 2.979460e+03 5.750554e+02
3.365611e+06 2.673854e+03 1.539157e+03
3.367189e+06 2.976568e+03 1.158112e+03
3.366456e+06 2.826458e+03 1.353669e+03
3.367424e+06 3.325018e+03 -2.652485e+02
3.284074e+06 -5.841968e+02 -2.178159e+02
3.283924e+06 -6.290237e+02 -5.998037e+01
3.283947e+06 -5.683002e+02 -1.840881e+02
3.283818e+06 -6.065097e+02 -5.154785e+01
3.364658e+06 2.519635e+03 1.714296e+03
3.365076e+06 2.831537e+03 -3.983056e+02
3.283841e+06 -5.477329e+02 -1.513638e+02
3.283732e+06 -5.793990e+02 -4.333981e+01
3.363605e+06 2.364397e+03 1.878903e+03
3.364077e+06 2.662631e+03 -4.376483e+02
3.283754e+06 -5.228706e+02 -1.197923e+02
3.362457e+06 2.208546e+03 2.032855e+03
3.362980e+06 2.492748e+03 -4.744699e+02
3.283657e+06 -5.483947e+02 4.713256e+01
3.283685e+06 -4.942727e+02 -8.955603e+01
3.283614e+06 -5.134910e+02 -2.768948e+01
3.361221e+06 2.052371e+03 2.176084e+03
3.361792e+06 2.322320e+03 -5.087759e+02
3.283634e+06 -4.625677e+02 -6.086036e+01
3.283581e+06 -4.759259e+02 -2.035991e+01
3.359904e+06 1.896057e+03 2.308561e+03
3.360519e+06 2.151621e+03 -5.405698e+02
3.283600e+06 -4.283671e+02 -3.391220e+01
3.358511e+06 1.739714e+03 2.430280e+03
3.359168e+06 1.980827e+03 -5.698593e+02
3.283595e+06 -4.466606e+02 4.021478e-02
3.283581e+06 -3.922182e+02 -8.902399e+00
3.283562e+06 -3.945010e+02 -7.049561e+00
3.357050e+06 1.583401e+03 2.541250e+03
3.357745e+06 1.810041e+03 -5.966538e+02
3.283577e+06 -3.545869e+02 1.400647e+01
3.283573e+06 -3.515996e+02 -1.201890e+00
3.355527e+06 1.427143e+03 2.641487e+03
3.356256e+06 1.639314e+03 -6.209621e+02
3.283586e+06 -3.158539e+02 3.468226e+01
3.283595e+06 -3.077388e+02 4.034634e+00
3.353948e+06 1.270941e+03 2.731013e+03
3.354709e+06 1.468668e+03 -6.427932e+02
3.283608e+06 -2.763216e+02 5.302321e+01
3.283629e+06 -2.631952e+02 8.618147e+00
3.352320e+06 1.114785e+03 2.809853e+03
3.353109e+06 1.298098e+03 -6.621553e+02
3.283639e+06 -2.362230e+02 6.895278e+01
3.283671e+06 -2.181798e+02 1.251702e+01
3.350649e+06 9.586544e+02 2.878030e+03
3.351463e+06 1.127589e+03 -6.790555e+02
3.283680e+06 -1.957347e+02 8.241676e+01
3.283721e+06 -1.728491e+02 1.570680e+01
3.348941e+06 8.025280e+02 2.935569e+03
3.349778e+06 9.571194e+02 -6.935013e+02
3.283728e+06 -1.549867e+02 9.337677e+01
3.283777e+06 -1.273165e+02 1.817019e+01
3.347204e+06 6.463772e+02 2.982492e+03
3.348059e+06 7.866635e+02 -7.054981e+02
3.344642e+06 4.484032e+02 3.116266e+03
3.283782e+06 -1.140728e+02 1.018077e+02
3.283838e+06 -8.166083e+01 1.989472e+01
3.342822e+06 2.775014e+02 3.137805e+03
3.341883e+06 1.937243e+02 1.186013e+03
3.345442e+06 4.901696e+02 3.018820e+03
3.346313e+06 6.162045e+02 -7.150438e+02
3.343663e+06 3.339063e+02 3.044560e+03
3.343680e+06 3.680302e+02 1.179824e+03
3.283841e+06 -7.305802e+01 1.076936e+02
3.283901e+06 -3.593610e+01 2.087167e+01
3.283902e+06 -3.198637e+01 1.110245e+02
3.283965e+06 9.824102e+00 2.109542e+01
3.340079e+06 2.128355e+01 3.064368e+03
3.340977e+06 1.045952e+02 -7.290983e+02
3.283965e+06 9.114101e+00 1.117953e+02
3.284029e+06 5.559965e+01 2.056183e+01
3.338286e+06 -1.350674e+02 3.058496e+03
3.339187e+06 -6.598628e+01 -7.289059e+02
3.284027e+06 5.022693e+01 1.100032e+02
3.284092e+06 1.013807e+02 1.926843e+01
3.336500e+06 -2.914039e+02 3.042130e+03
3.337401e+06 -2.365504e+02 -7.262834e+02
3.284088e+06 9.134423e+01 1.056469e+02
3.284150e+06 1.471652e+02 1.721352e+01
3.334728e+06 -4.476194e+02 3.015307e+03
3.335625e+06 -4.069891e+02 -7.212392e+02
3.284145e+06 1.324640e+02 9.872592e+01
3.332975e+06 -6.035567e+02 2.978085e+03
3.333867e+06 -5.771626e+02 -7.137696e+02
3.284208e+06 1.932089e+02 -2.593048e+01
3.284196e+06 1.735884e+02 8.923982e+01
3.331249e+06 -7.589861e+02 2.930541e+03
3.332131e+06 -7.468480e+02 -7.038773e+02
3.284256e+06 2.390357e+02 -2.077807e+01
3.284242e+06 2.147226e+02 7.718738e+01
3.284290e+06 2.845784e+02 6.469065e+00
3.329554e+06 -9.135778e+02 2.872790e+03
3.330424e+06 -9.157189e+02 -6.915682e+02
3.284279e+06 2.558733e+02 6.256704e+01
3.327897e+06 -1.066868e+03 2.804996e+03
3.328752e+06 -1.083313e+03 -6.768531e+02
3.284325e+06 3.307544e+02 -7.174026e+00
3.284306e+06 2.970474e+02 4.537666e+01
3.284337e+06 3.763157e+02 -4.519069e+00
3.326284e+06 -1.218224e+03 2.727385e+03
3.327120e+06 -1.248995e+03 -6.597500e+02
3.323628e+06 -1.574957e+03 2.661384e+03
3.284322e+06 3.382517e+02 2.561288e+01
3.284341e+06 4.222445e+02 -1.116207e+01
3.324720e+06 -1.366797e+03 2.640272e+03
3.325535e+06 -1.411909e+03 -6.402880e+02
3.322115e+06 -1.729611e+03 2.558193e+03
3.284324e+06 3.794910e+02 3.272160e+00
3.284331e+06 4.682163e+02 -1.857087e+01
3.323209e+06 -1.511483e+03 2.544073e+03
3.324001e+06 -1.570939e+03 -6.185120e+02
3.284313e+06 4.207661e+02 -2.164977e+01
3.284305e+06 5.142244e+02 -2.674366e+01
3.321758e+06 -1.650880e+03 2.439329e+03
3.322524e+06 -1.724663e+03 -5.944879e+02
3.319278e+06 -2.029107e+03 -2.239384e+03
3.284285e+06 4.620713e+02 -4.915590e+01
3.284261e+06 5.602477e+02 -3.567738e+01
3.317718e+06 -2.239879e+03 8.084053e+02
3.317803e+06 -2.018273e+03 2.081016e+03
3.320371e+06 -1.783256e+03 2.326705e+03
3.321109e+06 -1.871327e+03 -5.683048e+02
3.319284e+06 -2.015864e+03 2.328867e+03
3.318970e+06 -2.118191e+03 8.554245e+02
3.284239e+06 5.033901e+02 -7.924857e+01
3.284198e+06 6.062474e+02 -4.536565e+01
3.284174e+06 5.446910e+02 -1.119263e+02
3.284113e+06 6.521566e+02 -5.579814e+01
3.316630e+06 -2.116058e+03 1.949694e+03
3.317270e+06 -2.247129e+03 -4.783284e+02
3.284088e+06 5.859191e+02 -1.471827e+02
3.315533e+06 -2.197575e+03 1.813779e+03
3.316138e+06 -2.343119e+03 -4.451791e+02
3.284019e+06 6.984001e+02 9.118772e+01
3.283979e+06 6.269877e+02 -1.850021e+02
3.283876e+06 7.432249e+02 -7.882196e+01
3.314516e+06 -2.261156e+03 1.673879e+03
3.315083e+06 -2.421136e+03 -4.108548e+02
3.283846e+06 6.677658e+02 -2.253560e+02
3.283719e+06 7.879919e+02 -9.135289e+01
3.313581e+06 -2.306185e+03 1.530495e+03
3.314107e+06 -2.480180e+03 -3.756112e+02
3.283688e+06 7.080622e+02 -2.681962e+02
3.312729e+06 -2.333280e+03 1.384124e+03
3.313214e+06 -2.520261e+03 -3.396948e+02
3.283550e+06 8.324695e+02 1.454901e+02
3.283503e+06 7.476059e+02 -3.134478e+02
3.283324e+06 8.743251e+02 -1.181967e+02
3.311962e+06 -2.344121e+03 1.235380e+03
3.312404e+06 -2.542383e+03 -3.033562e+02
3.283289e+06 7.860236e+02 -3.609991e+02
3.283082e+06 9.148412e+02 -1.323487e+02
3.311281e+06 -2.341020e+03 1.085024e+03
3.311680e+06 -2.548353e+03 -2.668423e+02
3.283046e+06 8.228112e+02 -4.106911e+02
3.282809e+06 9.526045e+02 -1.468400e+02
3.310688e+06 -2.326465e+03 9.339057e+02
3.311042e+06 -2.540461e+03 -2.303836e+02
3.282771e+06 8.573042e+02 -4.623030e+02
3.282503e+06 9.866125e+02 -1.615243e+02
3.310182e+06 -2.302808e+03 7.828716e+02
3.310491e+06 -2.521142e+03 -1.941796e+02
3.282465e+06 8.886495e+02 -5.155409e+02
3.282166e+06 1.015638e+03 -1.762251e+02
3.309764e+06 -2.272114e+03 6.326855e+02
3.310028e+06 -2.492721e+03 -1.583908e+02
3.308800e+06 -2.423220e+03 4.463478e+02
3.282126e+06 9.157762e+02 -5.700317e+02
3.281794e+06 1.038239e+03 -1.907476e+02
3.309433e+06 -2.236115e+03 4.839907e+02
3.309652e+06 -2.457262e+03 -1.231395e+02
3.308607e+06 -2.378176e+03 2.948455e+02
3.281755e+06 9.373817e+02 -6.253167e+02
3.281390e+06 1.052787e+03 -2.048954e+02
3.309158e+06 -2.371871e+03 -5.457101e+01
3.308856e+06 -2.350506e+03 3.357293e+01
3.308951e+06 -2.108766e+03 5.137229e+01
3.309187e+06 -2.196208e+03 3.372979e+02
3.309362e+06 -2.416507e+03 -8.851261e+01
3.281350e+06 9.519493e+02 -6.808665e+02
3.280952e+06 1.057584e+03 -2.184960e+02
3.280913e+06 9.578084e+02 -7.361163e+02
3.280481e+06 1.051036e+03 -2.314377e+02
3.308956e+06 -2.062714e+03 -8.737051e+01
3.309001e+06 -2.275120e+03 1.112097e+01
3.280443e+06 9.532766e+02 -7.905170e+02
3.279979e+06 1.031872e+03 -2.436956e+02
3.309042e+06 -2.015783e+03 -2.231031e+02
3.309045e+06 -2.224493e+03 4.284094e+01
3.279942e+06 9.369131e+02 -8.435908e+02
3.279446e+06 9.993483e+02 -2.553235e+02
3.309206e+06 -1.968295e+03 -3.557407e+02
3.309169e+06 -2.173035e+03 7.380204e+01
3.279410e+06 9.078286e+02 -8.949476e+02
3.278884e+06 9.533738e+02 -2.664105e+02
3.309447e+06 -1.920479e+03 -4.852334e+02
3.309371e+06 -2.121073e+03 1.040062e+02
3.278850e+06 8.659128e+02 -9.442431e+02
3.278294e+06 8.945292e+02 -2.770255e+02
3.309763e+06 -1.872493e+03 -6.115563e+02
3.309648e+06 -2.068834e+03 1.334579e+02
3.278261e+06 8.118622e+02 -9.911065e+02
3.310152e+06 -1.824438e+03 -7.347015e+02
3.310000e+06 -2.016468e+03 1.621630e+02
3.277691e+06 8.247987e+02 4.216783e+02
3.277647e+06 7.470012e+02 -1.035086e+03
3.310613e+06 -1.776377e+03 -8.546712e+02
3.310424e+06 -1.964069e+03 1.901276e+02
3.277048e+06 7.439690e+02 4.365065e+02
3.277007e+06 6.729760e+02 -1.075650e+03
3.276370e+06 6.539516e+02 -3.056093e+02
3.311143e+06 -1.728345e+03 -9.714739e+02
3.310918e+06 -1.911696e+03 2.173577e+02
3.311694e+06 -1.811117e+03 -1.177238e+03
3.276346e+06 5.914772e+02 -1.112237e+03
3.311741e+06 -1.680362e+03 -1.085121e+03
3.311481e+06 -1.859379e+03 2.438590e+02
3.312400e+06 -1.758781e+03 -1.291492e+03
3.275695e+06 5.584544e+02 4.622257e+02
3.275664e+06 5.040709e+02 -1.144308e+03
3.274982e+06 4.564083e+02 -3.203931e+02
3.312405e+06 -1.632433e+03 -1.195625e+03
3.312111e+06 -1.807132e+03 2.696364e+02
3.274965e+06 4.121151e+02 -1.171393e+03
3.274265e+06 3.509130e+02 -3.259443e+02
3.313132e+06 -1.584558e+03 -1.302998e+03
3.312805e+06 -1.754957e+03 2.946944e+02
3.274251e+06 3.167376e+02 -1.193098e+03
3.273536e+06 2.424089e+02 -3.300573e+02
3.313922e+06 -1.536730e+03 -1.407252e+03
3.313563e+06 -1.702850e+03 3.190363e+02
3.314887e+06 -1.612837e+03 1.554315e+03
3.273527e+06 2.188485e+02 -1.209115e+03
3.272800e+06 1.317326e+02 -3.326028e+02
3.316587e+06 -1.554355e+03 -6.713964e+02
3.316649e+06 -1.393450e+03 -1.701380e+03
3.314773e+06 -1.488937e+03 -1.508399e+03
3.314383e+06 -1.650808e+03 3.426611e+02
3.314892e+06 -1.602165e+03 -1.614582e+03
3.315618e+06 -1.607409e+03 -6.332027e+02
3.272795e+06 1.191569e+02 -1.219216e+03
3.272060e+06 1.954161e+01 -3.334841e+02
3.272059e+06 1.820204e+01 -1.223232e+03
3.271319e+06 -9.367991e+01 -3.326313e+02
3.317670e+06 -1.345768e+03 -1.793233e+03
3.317192e+06 -1.494943e+03 4.092995e+02
3.271322e+06 -8.361173e+01 -1.221043e+03
3.270582e+06 -2.075809e+02 -3.299908e+02
3.318745e+06 -1.298107e+03 -1.882007e+03
3.318239e+06 -1.443061e+03 4.300912e+02
3.270590e+06 -1.859889e+02 -1.212575e+03
3.319872e+06 -1.250451e+03 -1.967699e+03
3.319339e+06 -1.391192e+03 4.501757e+02
3.269849e+06 -3.218765e+02 4.812209e+02
3.269864e+06 -2.887213e+02 -1.197778e+03
3.269133e+06 -4.364848e+02 -3.192040e+02
3.321048e+06 -1.202802e+03 -2.050307e+03
3.320489e+06 -1.339343e+03 4.695583e+02
3.269150e+06 -3.916649e+02 -1.176623e+03
3.268430e+06 -5.511970e+02 -3.110135e+02
3.322273e+06 -1.155162e+03 -2.129836e+03
3.321689e+06 -1.287508e+03 4.882355e+02
3.268451e+06 -4.947242e+02 -1.149097e+03
3.323544e+06 -1.107533e+03 -2.206284e+03
3.322936e+06 -1.235685e+03 5.062070e+02
3.267737e+06 -6.661318e+02 4.458926e+02
3.267771e+06 -5.978403e+02 -1.115196e+03
3.267084e+06 -7.807699e+02 -2.889792e+02
3.324860e+06 -1.059915e+03 -2.279651e+03
3.324228e+06 -1.183873e+03 5.234725e+02
3.267115e+06 -7.009792e+02 -1.074917e+03
3.266449e+06 -8.955715e+02 -2.751241e+02
3.326218e+06 -1.012311e+03 -2.349939e+03
3.325564e+06 -1.132076e+03 5.400314e+02
3.328119e+06 -1.029974e+03 -2.549029e+03
3.266484e+06 -8.041246e+02 -1.028265e+03
3.265845e+06 -1.010375e+03 -2.593731e+02
3.327618e+06 -9.647264e+02 -2.417145e+03
3.326942e+06 -1.080295e+03 5.558836e+02
3.265885e+06 -9.072740e+02 -9.752433e+02
3.265276e+06 -1.125187e+03 -2.417240e+02
3.329057e+06 -9.171673e+02 -2.481269e+03
3.328361e+06 -1.028539e+03 5.710284e+02
3.331092e+06 -9.262262e+02 -2.676849e+03
3.265320e+06 -1.010432e+03 -9.158524e+02
3.264745e+06 -1.240023e+03 -2.221758e+02
3.330533e+06 -8.696432e+02 -2.542313e+03
3.329817e+06 -9.768146e+02 5.854653e+02
3.264794e+06 -1.113610e+03 -8.500937e+02
3.264256e+06 -1.354898e+03 -2.007273e+02
3.332045e+06 -8.221626e+02 -2.600280e+03
3.331311e+06 -9.251349e+02 5.991936e+02
3.334201e+06 -8.285393e+02 2.689513e+03
3.264310e+06 -1.216820e+03 -7.779663e+02
3.263814e+06 -1.469828e+03 -1.773794e+02
3.336750e+06 -7.615636e+02 -1.094767e+03
3.336779e+06 -6.801657e+02 -2.755710e+03
3.333591e+06 -7.747312e+02 -2.655170e+03
3.332839e+06 -8.735226e+02 6.122065e+02
3.334205e+06 -8.227631e+02 -2.791759e+03
3.335139e+06 -8.140340e+02 -1.075225e+03
3.263872e+06 -1.320075e+03 -6.994639e+02
3.263422e+06 -1.584833e+03 -1.521308e+02
3.263485e+06 -1.423385e+03 -6.145794e+02
3.263084e+06 -1.699918e+03 -1.249791e+02
3.338416e+06 -6.331171e+02 -2.801385e+03
3.337615e+06 -7.192602e+02 6.470314e+02
3.263152e+06 -1.526752e+03 -5.233064e+02
3.262804e+06 -1.815071e+03 -9.592582e+01
3.340081e+06 -5.862435e+02 -2.844013e+03
3.339265e+06 -6.681480e+02 6.572141e+02
3.262876e+06 -1.630170e+03 -4.256329e+02
3.262586e+06 -1.930264e+03 -6.497694e+01
3.341771e+06 -5.395625e+02 -2.883590e+03
3.340941e+06 -6.172242e+02 6.666906e+02
3.262663e+06 -1.733614e+03 -3.215498e+02
3.343484e+06 -4.931111e+02 -2.920118e+03
3.342642e+06 -5.665348e+02 6.754699e+02
3.262404e+06 -2.046361e+03 5.918547e+01
3.262515e+06 -1.837032e+03 -2.110512e+02
3.345218e+06 -4.469105e+02 -2.953600e+03
3.344365e+06 -5.160935e+02 6.835483e+02
3.262319e+06 -2.161480e+03 9.219294e+00
3.262437e+06 -1.940335e+03 -9.413798e+01
3.262342e+06 -2.275248e+03 3.912814e+01
3.346973e+06 -4.009609e+02 -2.984038e+03
3.346108e+06 -4.659070e+02 6.909274e+02
3.262432e+06 -2.043379e+03 2.917694e+01
3.262410e+06 -2.389445e+03 7.749771e+01
3.348746e+06 -3.552465e+02 -3.011433e+03
3.347871e+06 -4.159684e+02 6.976087e+02
3.351366e+06 -3.159403e+02 -3.174099e+03
3.262505e+06 -2.145948e+03 1.588605e+02
3.350535e+06 -3.097392e+02 -3.035789e+03
3.349651e+06 -3.662580e+02 7.035941e+02
3.353186e+06 -2.664680e+02 -3.194754e+03
3.262523e+06 -2.503899e+03 -1.566020e+02
3.262659e+06 -2.247722e+03 2.948499e+02
3.352338e+06 -2.644066e+02 -3.057110e+03
3.351446e+06 -3.167473e+02 7.088853e+02
3.262756e+06 -2.615736e+03 -2.169594e+02
3.262899e+06 -2.348245e+03 4.370389e+02
3.263118e+06 -2.723967e+03 2.027805e+02
3.354154e+06 -2.192159e+02 -3.075402e+03
3.353255e+06 -2.674041e+02 7.134834e+02
3.263227e+06 -2.446887e+03 5.852613e+02
3.263535e+06 -2.830204e+03 2.475504e+02
3.355981e+06 -1.741376e+02 -3.090669e+03
3.355076e+06 -2.181962e+02 7.173895e+02
3.263647e+06 -2.542793e+03 7.392708e+02
3.264047e+06 -2.931822e+03 2.935312e+02
3.357818e+06 -1.291407e+02 -3.102918e+03
3.356906e+06 -1.690938e+02 7.206031e+02
3.360564e+06 -7.069793e+01 3.127354e+03
3.264163e+06 -2.634829e+03 8.987177e+02
3.264658e+06 -3.027092e+03 3.404701e+02
3.363366e+06 1.875114e+00 -1.240730e+03
3.363364e+06 5.541803e+00 -3.121510e+03
3.359661e+06 -8.419202e+01 -3.112148e+03
3.358745e+06 -1.200790e+02 7.231165e+02
3.360566e+06 -6.972339e+01 -3.245574e+03
3.361511e+06 -4.809597e+01 -1.239566e+03
3.264777e+06 -2.721524e+03 1.063124e+03
3.265370e+06 -3.113868e+03 3.880602e+02
3.265492e+06 -2.801015e+03 1.231866e+03
3.266187e+06 -3.189561e+03 4.359528e+02
3.365219e+06 5.031942e+01 -3.121657e+03
3.364294e+06 2.669345e+01 7.265352e+02
3.266311e+06 -2.871006e+03 1.404156e+03
3.267109e+06 -3.251178e+03 4.837725e+02
3.367074e+06 9.507806e+01 -3.118781e+03
3.366148e+06 7.554788e+01 7.262693e+02
3.267234e+06 -2.928776e+03 1.579057e+03
3.268137e+06 -3.295497e+03 5.311576e+02
3.368928e+06 1.398373e+02 -3.112866e+03
3.368001e+06 1.244028e+02 7.253032e+02
3.268263e+06 -2.971234e+03 1.755531e+03
3.370778e+06 1.845902e+02 -3.103904e+03
3.369852e+06 1.732435e+02 7.236429e+02
3.269223e+06 -3.321402e+03 -8.300870e+02
3.269398e+06 -2.995122e+03 1.932516e+03
3.270515e+06 -3.319923e+03 6.236935e+02
3.372623e+06 2.293341e+02 -3.091892e+03
3.371699e+06 2.220794e+02 7.212805e+02
3.270639e+06 -2.997397e+03 2.109038e+03
3.271863e+06 -3.295308e+03 6.687710e+02
3.374460e+06 2.740706e+02 -3.076823e+03
3.373539e+06 2.709133e+02 7.182133e+02
3.271986e+06 -2.975798e+03 2.284287e+03
3.376289e+06 3.188013e+02 -3.058690e+03
3.375371e+06 3.197479e+02 7.144399e+02
3.379093e+06 4.199674e+02 -3.149963e+03
3.273266e+06 -3.246744e+03 -1.033474e+03
3.273436e+06 -2.929388e+03 2.457586e+03
3.274871e+06 -3.168666e+03 7.572164e+02
3.378107e+06 3.635277e+02 -3.037487e+03
3.377194e+06 3.685847e+02 7.099578e+02
3.380901e+06 4.689112e+02 -3.122784e+03
3.274990e+06 -2.858797e+03 2.628271e+03
3.276529e+06 -3.068877e+03 8.008183e+02
3.379912e+06 4.082522e+02 -3.013207e+03
3.379004e+06 4.174255e+02 7.047657e+02
3.276645e+06 -2.766063e+03 2.795556e+03
3.278288e+06 -2.947987e+03 8.439370e+02
3.381703e+06 4.529763e+02 -2.985841e+03
3.380801e+06 4.662724e+02 6.988617e+02
3.278399e+06 -2.654123e+03 2.958484e+03
3.280145e+06 -2.809140e+03 8.863214e+02
3.383478e+06 4.977085e+02 -2.955387e+03
3.382583e+06 5.151280e+02 6.922436e+02
3.386226e+06 6.192689e+02 2.911712e+03
3.280251e+06 -2.526233e+03 3.115985e+03
3.282096e+06 -2.655583e+03 9.276202e+02
3.388714e+06 7.009389e+02 -1.128366e+03
3.388684e+06 6.319645e+02 -2.845371e+03
3.385234e+06 5.424624e+02 -2.921834e+03
3.384347e+06 5.639881e+02 6.849025e+02
3.386226e+06 6.157489e+02 -3.021836e+03
3.386998e+06 6.509500e+02 -1.144421e+03
3.282198e+06 -2.385543e+03 3.266979e+03
3.284139e+06 -2.490362e+03 9.674493e+02
3.284234e+06 -2.234871e+03 3.410478e+03
3.286268e+06 -2.316158e+03 1.005438e+03
3.390374e+06 6.766941e+02 -2.802464e+03
3.389517e+06 7.106815e+02 6.586041e+02
3.286357e+06 -2.076610e+03 3.545632e+03
3.288479e+06 -2.135235e+03 1.041262e+03
3.392038e+06 7.214412e+02 -2.756436e+03
3.391193e+06 7.596051e+02 6.483810e+02
3.288561e+06 -1.912717e+03 3.671756e+03
3.290766e+06 -1.949411e+03 1.074659e+03
3.393674e+06 7.662157e+02 -2.707267e+03
3.392842e+06 8.085620e+02 6.374312e+02
3.290841e+06 -1.744745e+03 3.788302e+03
3.293124e+06 -1.760077e+03 1.105410e+03
3.395280e+06 8.110056e+02 -2.654951e+03
3.394462e+06 8.575326e+02 6.257587e+02
3.293190e+06 -1.573905e+03 3.894855e+03
3.295545e+06 -1.568317e+03 1.133331e+03
3.396855e+06 8.557985e+02 -2.599484e+03
3.396051e+06 9.065151e+02 6.133558e+02
3.399357e+06 1.008060e+03 -2.609081e+03
3.295605e+06 -1.401112e+03 3.991126e+03
3.298025e+06 -1.374977e+03 1.158291e+03
3.398396e+06 9.005791e+02 -2.540862e+03
3.397608e+06 9.554966e+02 6.002193e+02
3.400855e+06 1.057044e+03 -2.542730e+03
3.298076e+06 -1.227029e+03 4.076892e+03
3.399902e+06 9.453230e+02 -2.479085e+03
3.399130e+06 1.004453e+03 5.863471e+02
3.300538e+06 -1.180883e+03 -1.720520e+03
3.300600e+06 -1.052147e+03 4.151990e+03
3.401370e+06 9.899898e+02 -2.414157e+03
3.400616e+06 1.053345e+03 5.717369e+02
3.303118e+06 -9.858246e+02 -1.747668e+03
3.303169e+06 -8.768119e+02 4.216319e+03
3.305748e+06 -7.904400e+02 1.214638e+03
3.402799e+06 1.034519e+03 -2.346091e+03
3.402063e+06 1.102114e+03 5.563871e+02
3.305776e+06 -7.012548e+02 4.269799e+03
3.404186e+06 1.078820e+03 -2.274909e+03
3.403470e+06 1.150669e+03 5.402969e+02
3.308386e+06 -5.949476e+02 -1.788167e+03
3.308415e+06 -5.256274e+02 4.312374e+03
3.311068e+06 -3.996326e+02 1.236265e+03
3.405530e+06 1.122767e+03 -2.200648e+03
3.404835e+06 1.198883e+03 5.234670e+02
3.311080e+06 -3.500227e+02 4.344004e+03
3.313758e+06 -2.042562e+02 1.242215e+03
3.406829e+06 1.166183e+03 -2.123368e+03
3.406155e+06 1.246577e+03 5.059000e+02
3.408964e+06 1.352184e+03 2.001723e+03
3.313762e+06 -1.744916e+02 4.364652e+03
3.316461e+06 -8.943315e+00 1.244902e+03
3.410496e+06 1.435718e+03 -7.398769e+02
3.410438e+06 1.290405e+03 -1.874395e+03
3.408081e+06 1.208836e+03 -2.043152e+03
3.407430e+06 1.293501e+03 4.875983e+02
3.408963e+06 1.343790e+03 -2.077934e+03
3.409341e+06 1.391423e+03 -7.737353e+02
3.316457e+06 9.445172e-01 4.374290e+03
3.319168e+06 1.863037e+02 1.244315e+03
3.319156e+06 1.762837e+02 4.372886e+03
3.321872e+06 3.814991e+02 1.240444e+03
3.411539e+06 1.328375e+03 -1.786222e+03
3.410959e+06 1.425963e+03 4.284887e+02
3.321853e+06 3.515373e+02 4.360411e+03
3.324568e+06 5.766672e+02 1.233280e+03
3.412587e+06 1.363689e+03 -1.695825e+03
3.412032e+06 1.465591e+03 4.074597e+02
3.324541e+06 5.267250e+02 4.336832e+03
3.327248e+06 7.718390e+02 1.222811e+03
3.413580e+06 1.395628e+03 -1.603461e+03
3.413052e+06 1.501855e+03 3.858451e+02
3.327214e+06 7.018680e+02 4.302113e+03
3.329905e+06 9.670238e+02 1.209030e+03
3.414518e+06 1.423420e+03 -1.509396e+03
3.414017e+06 1.533993e+03 3.637121e+02
3.329863e+06 8.769939e+02 4.256226e+03
3.415399e+06 1.446350e+03 -1.413871e+03
3.414925e+06 1.561304e+03 3.411294e+02
3.331173e+06 1.043602e+03 1.056872e+03
3.332482e+06 1.052127e+03 4.199123e+03
3.335121e+06 1.357553e+03 1.171536e+03
3.416223e+06 1.463914e+03 -1.317077e+03
3.415777e+06 1.583239e+03 3.181738e+02
3.417680e+06 1.615817e+03 -1.220660e+03
3.335064e+06 1.227270e+03 4.130760e+03
3.337666e+06 1.552947e+03 1.147796e+03
3.416989e+06 1.475952e+03 -1.219170e+03
3.416572e+06 1.599509e+03 2.949238e+02
3.418358e+06 1.620992e+03 -1.118656e+03
3.337601e+06 1.402423e+03 4.051115e+03
3.417696e+06 1.482690e+03 -1.120312e+03
3.417308e+06 1.610141e+03 2.714573e+02
3.340186e+06 1.749664e+03 -1.635436e+03
3.340087e+06 1.577573e+03 3.960143e+03
3.342594e+06 1.943709e+03 1.090325e+03
3.418343e+06 1.484681e+03 -1.020703e+03
3.417985e+06 1.615475e+03 2.478524e+02
3.342514e+06 1.752661e+03 3.857813e+03
3.344963e+06 2.138891e+03 1.056627e+03
3.418931e+06 1.482654e+03 -9.205900e+02
3.418602e+06 1.616095e+03 2.241867e+02
3.344875e+06 1.927579e+03 3.744115e+03
3.347258e+06 2.333679e+03 1.019652e+03
3.419458e+06 1.477379e+03 -8.202471e+02
3.419160e+06 1.612718e+03 2.005317e+02
3.420466e+06 1.611799e+03 6.794691e+02
3.347163e+06 2.102151e+03 3.619053e+03
3.349473e+06 2.527730e+03 9.794487e+02
3.420743e+06 1.614411e+03 -2.113947e+02
3.420678e+06 1.448631e+03 -5.203217e+02
3.419925e+06 1.469566e+03 -7.199383e+02
3.419658e+06 1.606095e+03 1.769476e+02
3.420465e+06 1.601615e+03 -7.041399e+02
3.420397e+06 1.626500e+03 -2.508950e+02
3.349370e+06 2.276101e+03 3.482663e+03
3.351600e+06 2.720535e+03 9.360900e+02
3.351490e+06 2.449017e+03 3.335026e+03
3.353632e+06 2.911364e+03 8.896845e+02
3.420965e+06 1.436417e+03 -4.213714e+02
3.420788e+06 1.573295e+03 1.070745e+02
3.353514e+06 2.620302e+03 3.176288e+03
3.355562e+06 3.099200e+03 8.403847e+02
3.421192e+06 1.423489e+03 -3.231608e+02
3.421045e+06 1.559738e+03 8.416274e+01
3.421736e+06 1.534781e+03 -1.907809e+02
3.355437e+06 2.789118e+03 3.006685e+03
3.357383e+06 3.282660e+03 7.883979e+02
3.421359e+06 1.410074e+03 -2.257735e+02
3.421243e+06 1.545468e+03 6.146802e+01
3.357251e+06 2.954317e+03 2.826567e+03
3.359089e+06 3.459919e+03 7.339965e+02
3.421468e+06 1.396342e+03 -1.292715e+02
3.421382e+06 1.530715e+03 3.899913e+01
3.358951e+06 3.114365e+03 2.636435e+03
3.360673e+06 3.628631e+03 6.775235e+02
3.421519e+06 1.382412e+03 -3.369682e+01
3.421462e+06 1.515652e+03 1.675944e+01
3.421793e+06 1.488920e+03 1.073529e+02
3.360529e+06 3.267265e+03 2.436970e+03
3.362130e+06 3.785872e+03 6.193934e+02
3.421513e+06 1.368371e+03 6.092249e+01
3.421485e+06 1.500399e+03 -5.248704e+00
3.421698e+06 1.473466e+03 2.047460e+02
3.361982e+06 3.410485e+03 2.229063e+03
3.421449e+06 1.354275e+03 1.545680e+02
3.421450e+06 1.485039e+03 -2.702454e+01
3.362617e+06 3.780162e+03 5.365294e+02
3.363303e+06 3.540915e+03 2.013810e+03
3.421329e+06 1.340161e+03 2.472286e+02
3.421358e+06 1.469630e+03 -4.856710e+01
3.363869e+06 3.911288e+03 4.807934e+02
3.364489e+06 3.654893e+03 1.792495e+03
3.365696e+06 4.152033e+03 4.397541e+02
3.421153e+06 1.326055e+03 3.388975e+02
3.421211e+06 1.454207e+03 -6.987702e+01
3.365538e+06 3.748360e+03 1.566508e+03
3.420922e+06 1.311969e+03 4.295705e+02
3.421007e+06 1.438792e+03 -9.095410e+01
3.366671e+06 4.228591e+03 -5.530362e+02
3.366446e+06 3.817228e+03 1.337193e+03
3.367374e+06 4.269227e+03 3.191380e+02
3.420636e+06 1.297910e+03 5.192463e+02
3.420749e+06 1.423398e+03 -1.117986e+02
3.420393e+06 1.405272e+03 -6.514855e+02
3.367213e+06 3.858020e+03 1.105720e+03
3.367999e+06 4.281211e+03 2.587583e+02
3.419514e+06 1.399873e+03 3.092471e+02
3.419458e+06 1.255914e+03 7.822755e+02
3.420296e+06 1.283880e+03 6.079242e+02
3.420437e+06 1.408035e+03 -1.324092e+02
3.420392e+06 1.396395e+03 6.762342e+02
3.419960e+06 1.415492e+03 2.745439e+02
3.367837e+06 3.868671e+03 8.730515e+02
3.368480e+06 4.261460e+03 1.980755e+02
3.368318e+06 3.849079e+03 6.400460e+02
3.368817e+06 4.211544e+03 1.369446e+02
3.418960e+06 1.241994e+03 8.679514e+02
3.419180e+06 1.362137e+03 -1.928558e+02
3.368656e+06 3.801134e+03 4.076486e+02
3.369010e+06 4.134405e+03 7.540230e+01
3.418410e+06 1.228112e+03 9.526318e+02
3.418657e+06 1.346910e+03 -2.125374e+02
3.368852e+06 3.728208e+03 1.770151e+02
3.369061e+06 4.033858e+03 1.370224e+01
3.417810e+06 1.214258e+03 1.036314e+03
3.418083e+06 1.331714e+03 -2.319859e+02
3.368905e+06 3.634366e+03 -5.051002e+01
3.368971e+06 3.914026e+03 -4.774183e+01
3.417160e+06 1.200436e+03 1.118998e+03
3.417458e+06 1.316553e+03 -2.512039e+02
3.368818e+06 3.523694e+03 -2.735279e+02
3.368743e+06 3.778876e+03 -1.084478e+02
3.416460e+06 1.186646e+03 1.200686e+03
3.416783e+06 1.301427e+03 -2.701903e+02
3.368594e+06 3.399903e+03 -4.907257e+02
3.415711e+06 1.172885e+03 1.281377e+03
3.416059e+06 1.286331e+03 -2.889451e+02
3.368437e+06 3.634257e+03 2.583403e+02
3.368237e+06 3.266166e+03 -7.009665e+02
3.367888e+06 3.476199e+03 -2.257936e+02
3.414913e+06 1.159144e+03 1.361072e+03
3.415286e+06 1.271261e+03 -3.074692e+02
3.413882e+06 1.244702e+03 1.541173e+03
3.367750e+06 3.125079e+03 -9.033235e+02
3.367271e+06 3.314058e+03 -2.816519e+02
3.414068e+06 1.145410e+03 1.439768e+03
3.414465e+06 1.256202e+03 -3.257631e+02
3.412963e+06 1.229596e+03 1.621919e+03
3.367139e+06 2.978693e+03 -1.097080e+03
3.413176e+06 1.131659e+03 1.517463e+03
3.413597e+06 1.241132e+03 -3.438280e+02
3.366756e+06 3.163758e+03 -3.120738e+02
3.366409e+06 2.828587e+03 -1.281700e+03
3.365685e+06 2.977630e+03 -3.863254e+02
3.412238e+06 1.117853e+03 1.594147e+03
3.412682e+06 1.226016e+03 -3.616647e+02
3.365566e+06 2.675950e+03 -1.456796e+03
3.364729e+06 2.805808e+03 -4.347559e+02
3.411253e+06 1.103930e+03 1.669808e+03
3.411721e+06 1.210796e+03 -3.792737e+02
3.409935e+06 1.190780e+03 -1.790648e+03
3.364616e+06 2.521648e+03 -1.622110e+03
3.363671e+06 2.632699e+03 -4.804091e+02
3.408081e+06 1.180400e+03 7.527665e+02
3.408033e+06 1.060375e+03 1.890302e+03
3.410224e+06 1.089796e+03 1.744420e+03
3.410715e+06 1.195390e+03 -3.966503e+02
3.409934e+06 1.183362e+03 1.857532e+03
3.409199e+06 1.197322e+03 7.239148e+02
3.363566e+06 2.366298e+03 -1.777467e+03
3.362519e+06 2.458829e+03 -5.232080e+02
3.362420e+06 2.210330e+03 -1.922760e+03
3.361279e+06 2.284551e+03 -5.630982e+02
3.406873e+06 1.044699e+03 1.961441e+03
3.407430e+06 1.146509e+03 -4.474146e+02
3.361187e+06 2.054033e+03 -2.057931e+03
3.359957e+06 2.110095e+03 -6.000446e+02
3.405671e+06 1.027964e+03 2.031241e+03
3.406249e+06 1.128523e+03 -4.638428e+02
3.359872e+06 1.897592e+03 -2.182952e+03
3.358561e+06 1.935604e+03 -6.340264e+02
3.404428e+06 1.009740e+03 2.099540e+03
3.405027e+06 1.109055e+03 -4.800034e+02
3.358482e+06 1.741119e+03 -2.297820e+03
3.357095e+06 1.761156e+03 -6.650324e+02
3.403145e+06 9.895062e+02 2.166138e+03
3.403764e+06 1.087589e+03 -4.958757e+02
3.401360e+06 1.040480e+03 2.356505e+03
3.357024e+06 1.584672e+03 -2.402543e+03
3.355568e+06 1.586785e+03 -6.930587e+02
3.401823e+06 9.666226e+02 2.230792e+03
3.402462e+06 1.063475e+03 -5.114193e+02
3.399975e+06 1.008920e+03 2.418989e+03
3.355503e+06 1.428279e+03 -2.497139e+03
3.353984e+06 1.412499e+03 -7.181050e+02
3.400464e+06 9.403334e+02 2.293225e+03
3.401122e+06 1.035964e+03 -5.265849e+02
3.353927e+06 1.271943e+03 -2.581627e+03
3.352352e+06 1.238289e+03 -7.401737e+02
3.399069e+06 9.098066e+02 2.353143e+03
3.399746e+06 1.004242e+03 -5.413102e+02
3.352301e+06 1.115652e+03 -2.656031e+03
3.350677e+06 1.064134e+03 -7.592688e+02
3.397640e+06 8.742177e+02 2.410271e+03
3.398334e+06 9.674989e+02 -5.555205e+02
3.350633e+06 9.593887e+02 -2.720375e+03
3.348965e+06 8.900085e+02 -7.753949e+02
3.396179e+06 8.328936e+02 2.464385e+03
3.396890e+06 9.250459e+02 -5.691344e+02
3.348928e+06 8.031304e+02 -2.774678e+03
3.394687e+06 7.854798e+02 2.515305e+03
3.395415e+06 8.764307e+02 -5.820678e+02
3.347234e+06 7.165909e+02 1.154705e+03
3.347193e+06 6.468564e+02 -2.818961e+03
3.393167e+06 7.320377e+02 2.562874e+03
3.393910e+06 8.215284e+02 -5.942377e+02
3.345466e+06 5.423425e+02 1.169391e+03
3.345434e+06 4.905439e+02 -2.853248e+03
3.343674e+06 3.675957e+02 -8.060087e+02
3.391621e+06 6.730240e+02 2.606906e+03
3.392378e+06 7.605660e+02 -6.055600e+02
3.389382e+06 6.301721e+02 -2.661557e+03
3.343658e+06 3.341762e+02 -2.877550e+03
3.386869e+06 5.195162e+02 1.068762e+03
3.386847e+06 4.702786e+02 2.715196e+03
3.390051e+06 6.091614e+02 2.647162e+03
3.390822e+06 6.940826e+02 -6.159454e+02
3.389383e+06 6.265852e+02 2.763483e+03
3.388483e+06 5.980445e+02 1.056700e+03
3.342766e+06 2.751524e+02 -7.268413e+02
3.341871e+06 1.777546e+02 -2.891882e+03
3.340081e+06 1.912313e+01 -8.116942e+02
3.340078e+06 2.128672e+01 -2.896271e+03
3.338283e+06 -1.551208e+02 -8.101348e+02
3.385219e+06 3.968250e+02 2.742443e+03
3.386025e+06 4.691358e+02 -6.408141e+02
3.338287e+06 -1.352054e+02 -2.890732e+03
3.336493e+06 -3.292822e+02 -8.056689e+02
3.383577e+06 3.215193e+02 2.764875e+03
3.384392e+06 3.882812e+02 -6.467964e+02
3.336504e+06 -2.916626e+02 -2.875287e+03
3.334716e+06 -5.032528e+02 -7.983201e+02
3.381924e+06 2.448376e+02 2.782307e+03
3.382746e+06 3.055750e+02 -6.515678e+02
3.334735e+06 -4.479842e+02 -2.849975e+03
3.332960e+06 -6.768439e+02 -7.881206e+02
3.380264e+06 1.671735e+02 2.794605e+03
3.381091e+06 2.215286e+02 -6.551149e+02
3.332985e+06 -6.040173e+02 -2.814843e+03
3.331229e+06 -8.497746e+02 -7.751176e+02
3.378598e+06 8.882339e+01 2.801676e+03
3.379430e+06 1.365254e+02 -6.574199e+02
3.331261e+06 -7.595303e+02 -2.769965e+03
3.329530e+06 -1.021642e+03 -7.593766e+02
3.376930e+06 1.000594e+01 2.803458e+03
3.377765e+06 5.085993e+01 -6.584759e+02
3.374405e+06 -1.206032e+02 2.896433e+03
3.329569e+06 -9.141891e+02 -2.715444e+03
3.327869e+06 -1.191882e+03 -7.409876e+02
3.375264e+06 -6.912124e+01 2.799910e+03
3.376100e+06 -3.524845e+01 -6.582809e+02
3.372729e+06 -2.074169e+02 2.884380e+03
3.327915e+06 -1.067526e+03 -2.651430e+03
3.373603e+06 -1.484469e+02 2.791010e+03
3.374438e+06 -1.216428e+02 -6.568354e+02
3.326231e+06 -1.360257e+03 1.055036e+03
3.326304e+06 -1.218901e+03 -2.578133e+03
3.324683e+06 -1.524179e+03 -6.967790e+02
3.371949e+06 -2.278943e+02 2.776749e+03
3.372782e+06 -2.082127e+02 -6.541417e+02
3.324742e+06 -1.367461e+03 -2.495841e+03
3.323169e+06 -1.683919e+03 -6.713102e+02
3.370306e+06 -3.074146e+02 2.757124e+03
3.371136e+06 -2.948844e+02 -6.502031e+02
3.323234e+06 -1.512093e+03 -2.404940e+03
3.368677e+06 -3.869817e+02 2.732142e+03
3.369502e+06 -3.816106e+02 -6.450235e+02
3.366148e+06 -5.592480e+02 -2.676874e+03
3.321687e+06 -1.838226e+03 9.434827e+02
3.321785e+06 -1.651387e+03 -2.305928e+03
3.320324e+06 -1.982426e+03 -6.148184e+02
3.363881e+06 -7.005235e+02 1.031811e+03
3.363907e+06 -6.258262e+02 2.625094e+03
3.367066e+06 -4.665890e+02 2.701809e+03
3.367884e+06 -4.683569e+02 -6.386000e+02
3.366151e+06 -5.552594e+02 2.780146e+03
3.365452e+06 -6.118470e+02 1.048195e+03
3.320400e+06 -1.783600e+03 -2.199426e+03
3.319002e+06 -2.116967e+03 -5.843617e+02
3.319082e+06 -1.906666e+03 -2.086161e+03
3.317751e+06 -2.238532e+03 -5.527992e+02
3.362367e+06 -7.054392e+02 2.578746e+03
3.363154e+06 -7.286785e+02 -6.119795e+02
3.317836e+06 -2.018236e+03 -1.966938e+03
3.316576e+06 -2.344729e+03 -5.203242e+02
3.360856e+06 -7.850843e+02 2.527084e+03
3.361630e+06 -8.154685e+02 -6.006433e+02
3.316664e+06 -2.115855e+03 -1.842577e+03
3.315478e+06 -2.433487e+03 -4.870232e+02
3.359378e+06 -8.647798e+02 2.470106e+03
3.360138e+06 -9.022986e+02 -5.880839e+02
3.357007e+06 -1.077756e+03 2.456016e+03
3.315569e+06 -2.197259e+03 -1.713812e+03
3.314459e+06 -2.503423e+03 -4.528617e+02
3.357937e+06 -9.445271e+02 2.407812e+03
3.358680e+06 -9.891645e+02 -5.743091e+02
3.355608e+06 -1.165001e+03 2.382472e+03
3.314553e+06 -2.260816e+03 -1.581249e+03
3.313522e+06 -2.554059e+03 -4.177206e+02
3.356534e+06 -1.024332e+03 2.340208e+03
3.357259e+06 -1.076084e+03 -5.593143e+02
3.313618e+06 -2.305934e+03 -1.445398e+03
3.312668e+06 -2.585893e+03 -3.814800e+02
3.355174e+06 -1.104201e+03 2.267291e+03
3.355880e+06 -1.163068e+03 -5.430993e+02
3.312767e+06 -2.333216e+03 -1.306768e+03
3.311900e+06 -2.600324e+03 -3.440995e+02
3.353859e+06 -1.184137e+03 2.189061e+03
3.354544e+06 -1.250124e+03 -5.256630e+02
3.312000e+06 -2.344303e+03 -1.165962e+03
3.311219e+06 -2.599411e+03 -3.056636e+02
3.352593e+06 -1.264136e+03 2.105515e+03
3.353255e+06 -1.337251e+03 -5.070034e+02
3.311319e+06 -2.341464e+03 -1.023709e+03
3.310625e+06 -2.585549e+03 -2.663714e+02
3.351379e+06 -1.344178e+03 2.016652e+03
3.352017e+06 -1.424437e+03 -4.871186e+02
3.310725e+06 -2.327152e+03 -8.808105e+02
3.310119e+06 -2.561166e+03 -2.264895e+02
3.350219e+06 -1.424227e+03 1.922473e+03
3.350832e+06 -1.511650e+03 -4.660045e+02
3.310219e+06 -2.303701e+03 -7.380563e+02
3.349117e+06 -1.504218e+03 1.822987e+03
3.349703e+06 -1.598829e+03 -4.436576e+02
3.347208e+06 -1.788362e+03 -1.646736e+03
3.309663e+06 -2.529867e+03 2.641499e+02
3.309800e+06 -2.273170e+03 -5.961564e+02
3.346111e+06 -1.943492e+03 5.780659e+02
3.346189e+06 -1.742385e+03 1.492959e+03
3.348076e+06 -1.584047e+03 1.718213e+03
3.348633e+06 -1.685866e+03 -4.200700e+02
3.347214e+06 -1.776562e+03 1.711942e+03
3.347025e+06 -1.855829e+03 6.241291e+02
3.309333e+06 -2.490844e+03 2.056295e+02
3.309468e+06 -2.237289e+03 -4.557072e+02
3.309125e+06 -2.445868e+03 -1.060349e+02
3.309222e+06 -2.197461e+03 -3.171825e+02
3.345349e+06 -1.820273e+03 1.372660e+03
3.345811e+06 -1.944058e+03 -3.418802e+02
3.308931e+06 -2.400014e+03 9.012730e+01
3.309061e+06 -2.154787e+03 -1.809411e+02
3.308890e+06 -2.349326e+03 -2.724847e+01
3.344582e+06 -1.896691e+03 1.247439e+03
3.345009e+06 -2.027898e+03 -3.133334e+02
3.308984e+06 -2.110113e+03 -4.724639e+01
3.308897e+06 -2.298222e+03 1.123981e+01
3.343889e+06 -1.970939e+03 1.117522e+03
3.344281e+06 -2.109615e+03 -2.835661e+02
3.308989e+06 -2.064074e+03 8.371841e+01
3.308984e+06 -2.246043e+03 4.900359e+01
3.343275e+06 -2.042080e+03 9.832359e+02
3.343630e+06 -2.188259e+03 -2.526087e+02
3.309073e+06 -2.017135e+03 2.118317e+02
3.309149e+06 -2.193192e+03 8.598396e+01
3.342741e+06 -2.108893e+03 8.450229e+02
3.343058e+06 -2.262601e+03 -2.205032e+02
3.309237e+06 -1.969630e+03 3.370159e+02
3.309392e+06 -2.139951e+03 1.221404e+02
3.342290e+06 -2.169829e+03 7.034582e+02
3.342567e+06 -2.331077e+03 -1.873189e+02
3.341264e+06 -2.451626e+03 4.929372e+02
3.309477e+06 -1.921792e+03 4.592268e+02
3.309709e+06 -2.086512e+03 1.574463e+02
3.341922e+06 -2.222976e+03 5.592584e+02
3.342159e+06 -2.391764e+03 -1.531565e+02
3.341016e+06 -2.490483e+03 3.443821e+02
3.309792e+06 -1.873778e+03 5.784432e+02
3.310100e+06 -2.032998e+03 1.918848e+02
3.341638e+06 -2.266059e+03 4.132660e+02
3.341835e+06 -2.442397e+03 -1.181542e+02
3.310181e+06 -1.825693e+03 6.946581e+02
3.310562e+06 -1.979488e+03 2.254464e+02
3.341440e+06 -2.296509e+03 2.664003e+02
3.341596e+06 -2.480441e+03 -8.249268e+01
3.310641e+06 -1.777599e+03 8.078748e+02
3.341327e+06 -2.311655e+03 1.195696e+02
3.341442e+06 -2.503282e+03 -4.639294e+01
3.311066e+06 -1.926936e+03 -3.775953e+02
3.311170e+06 -1.729534e+03 9.181016e+02
3.311693e+06 -1.872632e+03 2.899232e+02
3.341299e+06 -2.309087e+03 -2.643309e+01
3.341372e+06 -2.508519e+03 -1.010722e+01
3.340902e+06 -2.486717e+03 2.270789e+02
3.311767e+06 -1.681516e+03 1.025350e+03
3.312358e+06 -1.819314e+03 3.208372e+02
3.341622e+06 -2.421190e+03 -1.633971e+02
3.341714e+06 -2.184899e+03 -4.535877e+02
3.341355e+06 -2.287172e+03 -1.709801e+02
3.341386e+06 -2.494338e+03 2.609756e+01
3.340908e+06 -2.471159e+03 -2.377394e+02
3.341399e+06 -2.486543e+03 -1.119972e+02
3.312430e+06 -1.633552e+03 1.129631e+03
3.313062e+06 -1.766891e+03 -5.110843e+02
3.313157e+06 -1.585643e+03 1.230957e+03
3.313879e+06 -1.712895e+03 3.800233e+02
3.342014e+06 -2.107432e+03 -5.904093e+02
3.341919e+06 -2.331797e+03 1.315471e+02
3.313947e+06 -1.537784e+03 1.329338e+03
3.314731e+06 -1.659784e+03 4.082985e+02
3.342393e+06 -2.015633e+03 -7.231689e+02
3.342256e+06 -2.241566e+03 1.647494e+02
3.314797e+06 -1.489967e+03 1.424786e+03
3.315642e+06 -1.606728e+03 4.357024e+02
3.342848e+06 -1.912159e+03 -8.509371e+02
3.342669e+06 -2.137071e+03 1.965578e+02
3.315705e+06 -1.442185e+03 1.517307e+03
3.316609e+06 -1.553705e+03 4.622374e+02
3.343375e+06 -1.799490e+03 -9.728079e+02
3.343157e+06 -2.020931e+03 2.267657e+02
3.343929e+06 -1.768658e+03 -1.148185e+03
3.316671e+06 -1.394434e+03 1.606903e+03
3.317632e+06 -1.500705e+03 4.878985e+02
3.343972e+06 -1.679776e+03 -1.087976e+03
3.343716e+06 -1.895595e+03 2.552057e+02
3.344651e+06 -1.630262e+03 -1.255493e+03
3.317692e+06 -1.346709e+03 1.693587e+03
3.318709e+06 -1.447736e+03 5.126869e+02
3.344634e+06 -1.554798e+03 -1.195770e+03
3.344342e+06 -1.763213e+03 2.817526e+02
3.318766e+06 -1.299000e+03 1.777360e+03
3.319837e+06 -1.394792e+03 5.366080e+02
3.345358e+06 -1.425983e+03 -1.295658e+03
3.345032e+06 -1.625577e+03 3.063164e+02
3.319892e+06 -1.251305e+03 1.858221e+03
3.321015e+06 -1.341863e+03 5.596629e+02
3.346138e+06 -1.294441e+03 -1.387235e+03
3.345780e+06 -1.484127e+03 3.288352e+02
3.321067e+06 -1.203623e+03 1.936175e+03
3.322241e+06 -1.288946e+03 5.818513e+02
3.346969e+06 -1.161014e+03 -1.470206e+03
3.346583e+06 -1.339984e+03 3.492691e+02
3.322291e+06 -1.155951e+03 2.011222e+03
3.323513e+06 -1.236042e+03 6.031739e+02
3.347848e+06 -1.026330e+03 -1.544359e+03
3.347435e+06 -1.193998e+03 3.675943e+02
3.323562e+06 -1.108290e+03 2.083362e+03
3.324830e+06 -1.183150e+03 6.236308e+02
3.348767e+06 -8.908398e+02 -1.609552e+03
3.348330e+06 -1.046796e+03 3.837969e+02
3.350054e+06 -7.569553e+02 1.648703e+03
3.324876e+06 -1.060640e+03 2.152595e+03
3.326190e+06 -1.130274e+03 6.432227e+02
3.351701e+06 -5.391694e+02 -6.652658e+02
3.351722e+06 -4.822495e+02 -1.750548e+03
3.349723e+06 -7.548562e+02 -1.665688e+03
3.349265e+06 -8.988340e+02 3.978673e+02
3.350057e+06 -7.518310e+02 -1.717143e+03
3.350683e+06 -6.911531e+02 -6.501047e+02
3.326234e+06 -1.013005e+03 2.218921e+03
3.327576e+06 -1.077829e+03 -9.589795e+02
3.327633e+06 -9.653886e+02 2.282338e+03
3.329031e+06 -1.024592e+03 6.798140e+02
3.352755e+06 -3.458819e+02 -1.779219e+03
3.352249e+06 -4.530195e+02 4.273222e+02
3.329071e+06 -9.177981e+02 2.342847e+03
3.330509e+06 -9.718025e+02 6.968152e+02
3.353802e+06 -2.095370e+02 -1.798700e+03
3.353286e+06 -3.042627e+02 4.328795e+02
3.330547e+06 -8.702433e+02 2.400447e+03
3.354858e+06 -7.322980e+01 -1.808976e+03
3.354334e+06 -1.555274e+02 4.363117e+02
3.332010e+06 -9.193837e+02 -1.032441e+03
3.332058e+06 -8.227384e+02 2.455139e+03
3.333570e+06 -8.664094e+02 7.282316e+02
3.355918e+06 6.302772e+01 -1.810040e+03
3.355389e+06 -6.841498e+00 4.376242e+02
3.333604e+06 -7.752978e+02 2.506929e+03
3.335150e+06 -8.138596e+02 7.426584e+02
3.356976e+06 1.992387e+02 -1.801886e+03
3.356445e+06 1.417985e+02 4.368136e+02
3.335181e+06 -7.279405e+02 2.555816e+03
3.336761e+06 -7.614197e+02 7.562370e+02
3.358027e+06 3.354171e+02 -1.784506e+03
3.357497e+06 2.904045e+02 4.338790e+02
3.359697e+06 5.895495e+02 -1.770048e+03
3.336790e+06 -6.806981e+02 2.601802e+03
3.338400e+06 -7.091208e+02 7.689592e+02
3.359065e+06 4.715812e+02 -1.757891e+03
3.358538e+06 4.389956e+02 4.288187e+02
3.360737e+06 7.385165e+02 -1.727595e+03
3.338426e+06 -6.336005e+02 2.644901e+03
3.340065e+06 -6.570207e+02 7.808272e+02
3.360085e+06 6.077519e+02 -1.722028e+03
3.359564e+06 5.875941e+02 4.216301e+02
3.340090e+06 -5.866747e+02 2.685115e+03
3.341757e+06 -6.051479e+02 7.918487e+02
3.361081e+06 7.439489e+02 -1.676905e+03
3.360569e+06 7.362234e+02 4.123100e+02
3.341779e+06 -5.399552e+02 2.722447e+03
3.343471e+06 -5.535157e+02 8.020227e+02
3.362048e+06 8.801920e+02 -1.622508e+03
3.361547e+06 8.849038e+02 4.008536e+02
3.363674e+06 1.193267e+03 1.479786e+03
3.343492e+06 -4.934712e+02 2.756903e+03
3.345207e+06 -5.021383e+02 8.113455e+02
3.364775e+06 1.436568e+03 -5.255320e+02
3.364717e+06 1.289189e+03 -1.403500e+03
3.362980e+06 1.016495e+03 -1.558818e+03
3.362493e+06 1.033645e+03 3.872524e+02
3.363673e+06 1.185747e+03 -1.541924e+03
3.363924e+06 1.284417e+03 -5.586019e+02
3.345226e+06 -4.472373e+02 2.788487e+03
3.346963e+06 -4.510155e+02 8.198139e+02
3.346979e+06 -4.012530e+02 2.817197e+03
3.365511e+06 1.425491e+03 -1.311867e+03
3.365084e+06 1.480151e+03 3.335562e+02
3.348731e+06 -4.001410e+02 -1.197239e+03
3.348751e+06 -3.555023e+02 2.843037e+03
3.350527e+06 -3.494708e+02 8.341789e+02
3.366247e+06 1.561655e+03 -1.210928e+03
3.365846e+06 1.628886e+03 3.113246e+02
3.350540e+06 -3.099582e+02 2.866009e+03
3.352332e+06 -2.989941e+02 8.400751e+02
3.366921e+06 1.697512e+03 -1.100711e+03
3.366548e+06 1.777355e+03 2.869180e+02
3.352342e+06 -2.645885e+02 2.886119e+03
3.367527e+06 1.832792e+03 -9.812807e+02
3.367184e+06 1.925292e+03 2.603348e+02
3.354146e+06 -2.485938e+02 -1.222724e+03
3.354158e+06 -2.193610e+02 2.903371e+03
3.355978e+06 -1.984709e+02 8.493039e+02
3.368059e+06 1.967101e+03 -8.527472e+02
3.367749e+06 2.072310e+03 2.315717e+02
3.369195e+06 2.367910e+03 -6.225097e+02
3.355984e+06 -1.742463e+02 2.917768e+03
3.357816e+06 -1.483621e+02 8.526391e+02
3.368512e+06 2.099875e+03 -7.152865e+02
3.368238e+06 2.217847e+03 2.006337e+02
3.369549e+06 2.508513e+03 -4.664715e+02
3.357820e+06 -1.292213e+02 2.929314e+03
3.359661e+06 -9.833479e+01 8.551236e+02
3.368880e+06 2.230329e+03 -5.691618e+02
3.368646e+06 2.361112e+03 1.675360e+02
3.359663e+06 -8.426228e+01 2.938012e+03
3.361511e+06 -4.837021e+01 8.567665e+02
3.369160e+06 2.357393e+03 -4.147529e+02
3.368966e+06 2.501025e+03 1.323088e+02
3.361511e+06 -3.935074e+01 2.943859e+03
3.363365e+06 1.574796e+00 8.575693e+02
3.369345e+06 2.479647e+03 -2.525841e+02
3.369195e+06 2.636147e+03 9.500299e+01
3.363364e+06 5.518750e+00 2.946847e+03
3.365222e+06 5.151157e+01 8.575191e+02
3.369433e+06 2.595249e+03 -8.335448e+01
3.369328e+06 2.764617e+03 5.569876e+01
3.365218e+06 5.035626e+01 2.946984e+03
3.367078e+06 1.014202e+02 8.566160e+02
3.369419e+06 2.701881e+03 9.204494e+01
3.369361e+06 2.884098e+03 1.451474e+01
3.369841e+06 3.116369e+03 -4.016067e+02
3.367072e+06 9.517557e+01 2.944260e+03
3.368933e+06 1.513092e+02 8.548673e+02
3.368862e+06 3.254975e+03 2.716649e+02
3.368738e+06 2.937534e+03 6.438151e+02
3.369299e+06 2.796717e+03 2.725349e+02
3.369291e+06 2.991763e+03 -2.838127e+01
3.369836e+06 3.096828e+03 4.123762e+02
3.369196e+06 3.190698e+03 2.023021e+02
3.368925e+06 1.399797e+02 2.938666e+03
3.370784e+06 2.011947e+02 8.522722e+02
3.370775e+06 1.847697e+02 2.930202e+03
3.372630e+06 2.510786e+02 8.488280e+02
3.368294e+06 2.976453e+03 8.321436e+02
3.368441e+06 3.210329e+03 -1.648547e+02
3.372619e+06 2.295504e+02 2.918860e+03
3.374469e+06 3.009627e+02 8.445329e+02
3.367739e+06 2.990433e+03 1.020899e+03
3.367940e+06 3.237404e+03 -2.118577e+02
3.374456e+06 2.743234e+02 2.904634e+03
3.367075e+06 2.978092e+03 1.209306e+03
3.367331e+06 3.237749e+03 -2.590147e+02
3.376305e+06 3.512488e+02 -1.214694e+03
3.376284e+06 3.190913e+02 2.887517e+03
3.366301e+06 2.939854e+03 1.396640e+03
3.366613e+06 3.210967e+03 -3.059612e+02
3.378125e+06 4.011657e+02 -1.206072e+03
3.378101e+06 3.638551e+02 2.867502e+03
3.379925e+06 4.506388e+02 8.265285e+02
3.365420e+06 2.877815e+03 1.582049e+03
3.365787e+06 3.158144e+03 -3.523290e+02
3.379906e+06 4.086171e+02 2.844584e+03
3.364430e+06 2.795179e+03 1.764459e+03
3.364855e+06 3.081651e+03 -3.977529e+02
3.381725e+06 5.010200e+02 -1.185126e+03
3.381696e+06 4.533788e+02 2.818754e+03
3.383493e+06 5.504656e+02 8.102408e+02
3.363336e+06 2.695548e+03 1.942631e+03
3.363816e+06 2.984691e+03 -4.418855e+02
3.383470e+06 4.981408e+02 2.790005e+03
3.385250e+06 6.003896e+02 8.008043e+02
3.362139e+06 2.582399e+03 2.115309e+03
3.362674e+06 2.870789e+03 -4.844208e+02
3.360696e+06 2.614926e+03 2.421809e+03
3.385225e+06 5.429082e+02 2.758335e+03
3.386988e+06 6.503197e+02 7.905112e+02
3.360843e+06 2.458812e+03 2.281334e+03
3.361432e+06 2.743368e+03 -5.251080e+02
3.359228e+06 2.468419e+03 2.581152e+03
3.386960e+06 5.876855e+02 2.723732e+03
3.388703e+06 7.002840e+02 7.793600e+02
3.359452e+06 2.327374e+03 2.439728e+03
3.360092e+06 2.605497e+03 -5.637548e+02
3.388673e+06 6.324689e+02 2.686185e+03
3.390394e+06 7.502856e+02 7.673369e+02
3.357971e+06 2.190167e+03 2.589705e+03
3.358660e+06 2.459775e+03 -6.002215e+02
3.356035e+06 2.173824e+03 -2.763703e+03
3.390363e+06 6.772608e+02 2.645696e+03
3.392059e+06 8.002986e+02 7.544414e+02
3.353117e+06 1.956314e+03 1.157358e+03
3.353036e+06 1.758396e+03 2.983890e+03
3.356404e+06 2.048816e+03 2.730666e+03
3.357140e+06 2.308317e+03 -6.344058e+02
3.356031e+06 2.160158e+03 2.873693e+03
3.354844e+06 2.119236e+03 1.108823e+03
3.392026e+06 7.220685e+02 2.602254e+03
3.393696e+06 8.503252e+02 7.406790e+02
3.393661e+06 7.668899e+02 2.555848e+03
3.395304e+06 9.003710e+02 7.260495e+02
3.351247e+06 1.610969e+03 3.095657e+03
3.352106e+06 1.834122e+03 -7.228459e+02
3.395267e+06 8.117196e+02 2.506475e+03
3.349396e+06 1.462741e+03 3.197342e+03
3.350290e+06 1.672658e+03 -7.475316e+02
3.396895e+06 9.511240e+02 -1.029324e+03
3.396841e+06 8.565509e+02 2.454129e+03
3.398422e+06 1.000468e+03 6.941868e+02
3.347489e+06 1.314021e+03 3.288865e+03
3.348414e+06 1.510444e+03 -7.698209e+02
3.398382e+06 9.013695e+02 2.398807e+03
3.399929e+06 1.050468e+03 6.769592e+02
3.345531e+06 1.165037e+03 3.370191e+03
3.346485e+06 1.347823e+03 -7.897281e+02
3.342718e+06 1.026630e+03 3.580304e+03
3.399886e+06 9.461494e+02 2.340506e+03
3.343529e+06 1.015932e+03 3.441319e+03
3.344509e+06 1.185003e+03 -8.072577e+02
3.340629e+06 8.634050e+02 3.639010e+03
3.401416e+06 1.101149e+03 -9.548785e+02
3.401354e+06 9.908507e+02 2.279232e+03
3.402828e+06 1.150111e+03 6.399462e+02
3.341490e+06 8.667878e+02 3.502261e+03
3.342493e+06 1.022114e+03 -8.224205e+02
3.402782e+06 1.035411e+03 2.214995e+03
3.404217e+06 1.199567e+03 6.201876e+02
3.339419e+06 7.176465e+02 3.553038e+03
3.340441e+06 8.592304e+02 -8.352276e+02
3.404168e+06 1.079740e+03 2.147814e+03
3.405562e+06 1.248585e+03 5.996231e+02
3.337322e+06 5.685226e+02 3.593680e+03
3.338360e+06 6.963867e+02 -8.456907e+02
3.405512e+06 1.123707e+03 2.077725e+03
3.406862e+06 1.296949e+03 5.782842e+02
3.335205e+06 4.194127e+02 3.624217e+03
3.336257e+06 5.335913e+02 -8.538198e+02
3.406810e+06 1.167132e+03 2.004779e+03
3.408115e+06 1.344356e+03 5.562145e+02
3.333075e+06 2.702966e+02 3.644681e+03
3.334137e+06 3.708351e+02 -8.596249e+02
3.329869e+06 4.750563e+01 -3.631103e+03
3.408061e+06 1.209771e+03 1.929057e+03
3.409320e+06 1.390426e+03 5.334757e+02
3.326656e+06 -2.035654e+02 1.424567e+03
3.326661e+06 -1.772810e+02 3.645861e+03
3.330937e+06 1.211409e+02 3.655099e+03
3.332006e+06 2.081084e+02 -8.631056e+02
3.329870e+06 4.780124e+01 3.773673e+03
3.328798e+06 -3.720780e+01 1.428296e+03
3.409264e+06 1.251303e+03 1.850663e+03
3.410474e+06 1.434691e+03 5.101369e+02
3.410416e+06 1.291306e+03 1.769739e+03
3.411576e+06 1.476559e+03 4.862718e+02
3.324536e+06 -3.265517e+02 3.626271e+03
3.325609e+06 -2.802114e+02 -8.597738e+02
3.411517e+06 1.329260e+03 1.686475e+03
3.412624e+06 1.515327e+03 4.619685e+02
3.322426e+06 -4.759118e+02 3.596733e+03
3.323495e+06 -4.430752e+02 -8.540588e+02
3.412564e+06 1.364541e+03 1.601089e+03
3.413618e+06 1.550250e+03 4.373149e+02
3.320338e+06 -6.253718e+02 3.557254e+03
3.321399e+06 -6.060227e+02 -8.460535e+02
3.413557e+06 1.396433e+03 1.513824e+03
3.414556e+06 1.580598e+03 4.123728e+02
3.318277e+06 -7.748969e+02 3.507853e+03
3.319328e+06 -7.690158e+02 -8.357690e+02
3.414494e+06 1.424178e+03 1.424935e+03
3.415438e+06 1.605740e+03 3.871674e+02
3.316249e+06 -9.244279e+02 3.448555e+03
3.317287e+06 -9.320179e+02 -8.231985e+02
3.415375e+06 1.447078e+03 1.334650e+03
3.314261e+06 -1.073870e+03 3.379396e+03
3.315282e+06 -1.094944e+03 -8.083421e+02
3.416287e+06 1.626371e+03 -5.231296e+02
3.416199e+06 1.464644e+03 1.243156e+03
3.312317e+06 -1.223070e+03 3.300424e+03
3.313319e+06 -1.257650e+03 -7.912000e+02
3.417054e+06 1.640141e+03 -4.853451e+02
3.416964e+06 1.476717e+03 1.150614e+03
3.417735e+06 1.647222e+03 3.097517e+02
3.310423e+06 -1.371796e+03 3.211711e+03
3.311404e+06 -1.419912e+03 -7.717731e+02
3.417671e+06 1.483519e+03 1.057187e+03
3.308585e+06 -1.519705e+03 3.113366e+03
3.309542e+06 -1.581394e+03 -7.500643e+02
3.418409e+06 1.651407e+03 -4.084057e+02
3.418318e+06 1.485589e+03 9.630717e+02
3.418971e+06 1.648935e+03 2.564496e+02
3.306809e+06 -1.666312e+03 3.005549e+03
3.307738e+06 -1.741614e+03 -7.260811e+02
3.303840e+06 -2.059860e+03 2.908355e+03
3.418906e+06 1.483643e+03 8.685041e+02
3.419498e+06 1.643853e+03 2.293883e+02
3.305099e+06 -1.810947e+03 2.888491e+03
3.305998e+06 -1.899897e+03 -6.998376e+02
3.302208e+06 -2.212105e+03 2.773451e+03
3.419433e+06 1.478437e+03 7.737399e+02
3.419965e+06 1.635799e+03 2.021624e+02
3.302731e+06 -2.206684e+03 -6.406757e+02
3.300321e+06 -2.475499e+03 9.651677e+02
3.300417e+06 -2.222349e+03 2.485656e+03
3.303460e+06 -1.952710e+03 2.762510e+03
3.304327e+06 -2.055320e+03 -6.713527e+02
3.419900e+06 1.470676e+03 6.790283e+02
3.420372e+06 1.625445e+03 1.748618e+02
3.420307e+06 1.460972e+03 5.845868e+02
3.420718e+06 1.613371e+03 1.475668e+02
3.299022e+06 -2.346696e+03 2.336123e+03
3.299778e+06 -2.490460e+03 -5.730548e+02
3.420654e+06 1.449826e+03 4.905974e+02
3.421004e+06 1.600042e+03 1.203440e+02
3.297714e+06 -2.461036e+03 2.180343e+03
3.298430e+06 -2.618486e+03 -5.363065e+02
3.420940e+06 1.437640e+03 3.972049e+02
3.421231e+06 1.585820e+03 9.324943e+01
3.296499e+06 -2.562550e+03 2.019357e+03
3.297171e+06 -2.733671e+03 -4.978318e+02
3.421168e+06 1.424726e+03 3.045162e+02
3.295377e+06 -2.648085e+03 1.854292e+03
3.296005e+06 -2.832905e+03 -4.578639e+02
3.421423e+06 1.571972e+03 -9.405512e+01
3.421336e+06 1.411316e+03 2.126103e+02
3.294350e+06 -2.714423e+03 1.686239e+03
3.294933e+06 -2.913044e+03 -4.166728e+02
3.292373e+06 -3.019135e+03 1.492970e+03
3.421531e+06 1.556724e+03 -5.551089e+01
3.421445e+06 1.397583e+03 1.215439e+02
3.421557e+06 1.540256e+03 1.312091e+01
3.293421e+06 -2.758734e+03 1.516136e+03
3.293957e+06 -2.971254e+03 -3.745670e+02
3.291588e+06 -3.028401e+03 1.322297e+03
3.421496e+06 1.383649e+03 3.135531e+01
3.421550e+06 1.524614e+03 -1.312336e+01
3.292588e+06 -2.779191e+03 1.344726e+03
3.293077e+06 -3.005460e+03 -3.318702e+02
3.421490e+06 1.369599e+03 -5.792987e+01
3.291854e+06 -2.775437e+03 1.172632e+03
3.292293e+06 -3.014721e+03 -2.889072e+02
3.421510e+06 1.509841e+03 5.799288e+01
3.421426e+06 1.355493e+03 -1.462951e+02
3.291217e+06 -2.748684e+03 1.000524e+03
3.291607e+06 -2.999406e+03 -2.460027e+02
3.421389e+06 1.494080e+03 9.507040e+01
3.421306e+06 1.341368e+03 -2.337302e+02
3.421189e+06 1.477385e+03 -9.028920e+01
3.290679e+06 -2.701390e+03 8.292475e+02
3.291018e+06 -2.961127e+03 -2.034814e+02
3.421131e+06 1.327248e+03 -3.202290e+02
3.420958e+06 1.461646e+03 -1.154711e+02
3.290238e+06 -2.636671e+03 6.598277e+02
3.290526e+06 -2.902435e+03 -1.616594e+02
3.289183e+06 -2.763431e+03 -4.560340e+02
3.420900e+06 1.313148e+03 -4.057878e+02
3.420672e+06 1.445932e+03 -1.403785e+02
3.289380e+06 -2.636903e+03 9.898925e+01
3.289485e+06 -2.368760e+03 1.735795e+02
3.289893e+06 -2.557746e+03 4.933770e+02
3.290130e+06 -2.826392e+03 -1.208258e+02
3.289189e+06 -2.745632e+03 4.681113e+02
3.289534e+06 -2.745112e+03 1.601936e+02
3.420614e+06 1.299075e+03 -4.904046e+02
3.420332e+06 1.430251e+03 -1.650101e+02
3.420275e+06 1.285034e+03 -5.740795e+02
3.419938e+06 1.414607e+03 -1.893675e+02
3.289416e+06 -2.263449e+03 2.199789e+01
3.289506e+06 -2.524546e+03 -6.485638e+00
3.419882e+06 1.271026e+03 -6.568115e+02
3.419492e+06 1.398993e+03 -2.134512e+02
3.289433e+06 -2.153375e+03 -1.231432e+02
3.289477e+06 -2.407930e+03 2.841276e+01
3.419436e+06 1.257052e+03 -7.385991e+02
3.418994e+06 1.383410e+03 -2.372586e+02
3.289532e+06 -2.039881e+03 -2.613660e+02
3.289532e+06 -2.286578e+03 6.155412e+01
3.418939e+06 1.243112e+03 -8.194452e+02
3.418444e+06 1.367865e+03 -2.607893e+02
3.289710e+06 -1.923999e+03 -3.923189e+02
3.289668e+06 -2.161854e+03 9.289243e+01
3.418390e+06 1.229206e+03 -8.993493e+02
3.417844e+06 1.352357e+03 -2.840460e+02
3.289961e+06 -1.806500e+03 -5.157552e+02
3.289879e+06 -2.034801e+03 1.224024e+02
3.417790e+06 1.215334e+03 -9.783110e+02
3.417193e+06 1.336885e+03 -3.070288e+02
3.290282e+06 -1.687947e+03 -6.315081e+02
3.290162e+06 -1.906195e+03 1.500705e+02
3.417139e+06 1.201496e+03 -1.056332e+03
3.416492e+06 1.321446e+03 -3.297375e+02
3.290668e+06 -1.568743e+03 -7.394696e+02
3.290513e+06 -1.776596e+03 1.758925e+02
3.416440e+06 1.187689e+03 -1.133413e+03
3.415743e+06 1.306036e+03 -3.521714e+02
3.291115e+06 -1.449166e+03 -8.395741e+02
3.290927e+06 -1.646403e+03 1.998692e+02
3.415691e+06 1.173911e+03 -1.209554e+03
3.291618e+06 -1.329405e+03 -9.317844e+02
3.291399e+06 -1.515887e+03 2.220043e+02
3.414966e+06 1.291509e+03 5.410669e+02
3.414894e+06 1.160154e+03 -1.284755e+03
3.292172e+06 -1.209576e+03 -1.016084e+03
3.291925e+06 -1.385225e+03 2.423031e+02
3.292860e+06 -1.126216e+03 -1.135042e+03
3.414120e+06 1.276117e+03 5.725949e+02
3.414049e+06 1.146402e+03 -1.359016e+03
3.413208e+06 1.259840e+03 -4.178029e+02
3.293550e+06 -9.952931e+02 -1.202742e+03
3.294062e+06 -9.483752e+02 -4.581884e+02
3.292774e+06 -1.089749e+03 -1.092466e+03
3.292500e+06 -1.254534e+03 2.607684e+02
3.293418e+06 -9.699641e+02 -1.160929e+03
3.293375e+06 -1.081802e+03 -4.337823e+02
3.413157e+06 1.132631e+03 -1.432332e+03
3.412288e+06 1.245202e+03 6.344274e+02
3.412219e+06 1.118803e+03 -1.504695e+03
3.411284e+06 1.228707e+03 -4.601086e+02
3.294814e+06 -7.306079e+02 -1.274105e+03
3.294476e+06 -8.627352e+02 3.052395e+02
3.411235e+06 1.104859e+03 -1.576092e+03
3.410255e+06 1.212816e+03 -4.807903e+02
3.295558e+06 -6.110243e+02 -1.318831e+03
3.295202e+06 -7.322731e+02 3.164230e+02
3.410206e+06 1.090709e+03 -1.646503e+03
3.409181e+06 1.196525e+03 -5.011337e+02
3.296325e+06 -4.914754e+02 -1.355646e+03
3.295955e+06 -6.018564e+02 3.257905e+02
3.409133e+06 1.076224e+03 -1.715891e+03
3.408063e+06 1.179601e+03 -5.211065e+02
3.297112e+06 -3.719495e+02 -1.384547e+03
3.296729e+06 -4.714749e+02 3.333448e+02
3.408016e+06 1.061233e+03 -1.784198e+03
3.406902e+06 1.161756e+03 -5.406577e+02
3.297914e+06 -2.524343e+02 -1.405529e+03
3.297521e+06 -3.411074e+02 3.390826e+02
3.406856e+06 1.045492e+03 -1.851356e+03
3.405700e+06 1.142627e+03 -5.597302e+02
3.298726e+06 -1.329182e+02 -1.418585e+03
3.298325e+06 -2.107378e+02 3.430010e+02
3.299963e+06 5.051211e+01 -1.445152e+03
3.405654e+06 1.028676e+03 -1.917254e+03
3.404456e+06 1.121723e+03 -5.782575e+02
3.299543e+06 -1.339653e+01 -1.423706e+03
3.299137e+06 -8.035608e+01 3.450972e+02
3.300807e+06 1.812129e+02 -1.438011e+03
3.404411e+06 1.010367e+03 -1.981748e+03
3.300362e+06 1.061258e+02 -1.420884e+03
3.299952e+06 5.003796e+01 3.453671e+02
3.403190e+06 1.099295e+03 8.616787e+02
3.403128e+06 9.900406e+02 -2.044654e+03
3.401850e+06 1.072046e+03 -6.133264e+02
3.301176e+06 2.256281e+02 -1.410113e+03
3.300766e+06 1.804298e+02 3.438060e+02
3.401807e+06 9.670504e+02 -2.105749e+03
3.400490e+06 1.041760e+03 -6.296774e+02
3.301983e+06 3.450703e+02 -1.391392e+03
3.301573e+06 3.107812e+02 3.404086e+02
3.303284e+06 5.764082e+02 1.311535e+03
3.400448e+06 9.406447e+02 -2.164770e+03
3.304336e+06 7.819748e+02 -4.849898e+02
3.304304e+06 7.020157e+02 -1.287651e+03
3.302776e+06 4.643804e+02 -1.364725e+03
3.302370e+06 4.410179e+02 3.351665e+02
3.303284e+06 5.727828e+02 -1.366728e+03
3.303578e+06 6.498334e+02 -5.019536e+02
3.399109e+06 1.007611e+03 9.335986e+02
3.399054e+06 9.100007e+02 -2.221443e+03
3.397663e+06 9.662599e+02 -6.596307e+02
3.397625e+06 8.743078e+02 -2.275509e+03
3.396201e+06 9.197206e+02 -6.731844e+02
3.305030e+06 8.198787e+02 -1.237363e+03
3.304650e+06 8.295547e+02 3.083659e+02
3.396165e+06 8.329080e+02 -2.326746e+03
3.394708e+06 8.668468e+02 -6.858220e+02
3.305725e+06 9.366496e+02 -1.179380e+03
3.305357e+06 9.574160e+02 2.957276e+02
3.394674e+06 7.854564e+02 -2.374975e+03
3.393187e+06 8.076875e+02 -6.975868e+02
3.306384e+06 1.051807e+03 -1.113869e+03
3.306031e+06 1.083696e+03 2.812497e+02
3.393155e+06 7.320128e+02 -2.420033e+03
3.391639e+06 7.426190e+02 -7.085026e+02
3.307003e+06 1.164643e+03 -1.041074e+03
3.306667e+06 1.207676e+03 2.649540e+02
3.391610e+06 6.730285e+02 -2.461731e+03
3.390067e+06 6.722885e+02 -7.185555e+02
3.307578e+06 1.274231e+03 -9.613312e+02
3.307261e+06 1.328420e+03 2.468701e+02
3.390040e+06 6.092193e+02 -2.499843e+03
3.388474e+06 5.974843e+02 -7.276966e+02
3.308105e+06 1.379385e+03 -8.750828e+02
3.307809e+06 1.444728e+03 2.270491e+02
3.388449e+06 5.414082e+02 -2.534102e+03
3.386861e+06 5.190086e+02 -7.358416e+02
3.308580e+06 1.478628e+03 -7.828878e+02
3.308307e+06 1.555110e+03 2.055662e+02
3.386839e+06 4.704075e+02 -2.564238e+03
3.385231e+06 4.376392e+02 -7.428855e+02
3.309001e+06 1.570181e+03 -6.854167e+02
3.308752e+06 1.657784e+03 1.825265e+02
3.385212e+06 3.969373e+02 -2.590017e+03
3.383587e+06 3.540832e+02 -7.487381e+02
3.309364e+06 1.651998e+03 -5.834206e+02
3.309141e+06 1.750726e+03 1.580685e+02
3.383572e+06 3.215993e+02 -2.611230e+03
3.381932e+06 2.689056e+02 -7.533273e+02
3.309668e+06 1.721881e+03 -4.776696e+02
3.309472e+06 1.831779e+03 1.323663e+02
3.381920e+06 2.448872e+02 -2.627711e+03
3.380269e+06 1.825502e+02 -7.565888e+02
3.309910e+06 1.777727e+03 -3.688678e+02
3.309744e+06 1.898872e+03 1.056223e+02
3.310565e+06 2.006735e+03 1.929004e+02
3.380261e+06 1.671887e+02 -2.639342e+03
3.378601e+06 9.536904e+01 -7.584705e+02
3.310649e+06 2.012106e+03 -8.803605e+01
3.310099e+06 1.985050e+03 4.989064e+01
3.310332e+06 2.048150e+03 -1.150409e+01
3.310089e+06 1.817917e+03 -2.575884e+02
3.309953e+06 1.950305e+03 7.805553e+01
3.378596e+06 8.879727e+01 -2.646035e+03
3.376932e+06 7.887237e+00 1.102816e+03
3.376930e+06 9.932315e+00 -2.647732e+03
3.310238e+06 1.842482e+03 8.650595e+01
3.310199e+06 2.004698e+03 -7.339809e+00
3.375263e+06 -8.027626e+01 1.101422e+03
3.375265e+06 -6.924692e+01 -2.644396e+03
3.373600e+06 -1.688284e+02 -7.555096e+02
3.310155e+06 1.822794e+03 2.028171e+02
3.310150e+06 1.991818e+03 -3.595995e+01
3.373605e+06 -1.486275e+02 -2.636008e+03
3.310005e+06 1.792576e+03 3.187579e+02
3.310035e+06 1.966268e+03 -6.429722e+01
3.371940e+06 -2.572035e+02 1.092256e+03
3.371953e+06 -2.281324e+02 -2.622559e+03
3.370299e+06 -3.458665e+02 -7.461835e+02
3.309788e+06 1.753952e+03 4.335563e+02
3.309853e+06 1.930202e+03 -9.216604e+01
3.370311e+06 -3.077106e+02 -2.604046e+03
3.368668e+06 -4.344639e+02 -7.392882e+02
3.309505e+06 1.708807e+03 5.465027e+02
3.309604e+06 1.885714e+03 -1.194132e+02
3.368684e+06 -3.873295e+02 -2.580474e+03
3.367054e+06 -5.230685e+02 -7.309005e+02
3.309158e+06 1.658733e+03 6.569907e+02
3.309291e+06 1.834684e+03 -1.459209e+02
3.367073e+06 -4.669733e+02 -2.551854e+03
3.365461e+06 -6.116719e+02 -7.210269e+02
3.308746e+06 1.605020e+03 7.645298e+02
3.308913e+06 1.778711e+03 -1.716018e+02
3.308356e+06 1.661409e+03 9.411563e+02
3.365484e+06 -5.466366e+02 -2.518189e+03
3.363891e+06 -7.002963e+02 -7.096672e+02
3.308274e+06 1.548684e+03 8.687411e+02
3.308473e+06 1.719101e+03 -1.963956e+02
3.307781e+06 1.597092e+03 1.044193e+03
3.363917e+06 -6.263129e+02 -2.479484e+03
3.362348e+06 -7.889473e+02 -6.968114e+02
3.307741e+06 1.490509e+03 9.693428e+02
3.307972e+06 1.656883e+03 -2.202617e+02
3.362378e+06 -7.060063e+02 -2.435757e+03
3.360835e+06 -8.776112e+02 -6.824603e+02
3.307151e+06 1.431079e+03 1.066134e+03
3.307412e+06 1.592850e+03 -2.431752e+02
3.306465e+06 1.474796e+03 -1.190980e+03
3.360869e+06 -7.857299e+02 -2.387008e+03
3.305114e+06 1.391424e+03 5.191218e+02
3.305058e+06 1.248961e+03 1.332466e+03
3.306505e+06 1.370819e+03 1.158977e+03
3.306796e+06 1.527595e+03 -2.651188e+02
3.306463e+06 1.465354e+03 1.238409e+03
3.305866e+06 1.459589e+03 4.850601e+02
3.359341e+06 -9.666158e+02 9.697896e+02
3.359392e+06 -8.654904e+02 -2.333241e+03
3.357911e+06 -1.055043e+03 -6.492937e+02
3.357952e+06 -9.452967e+02 -2.274462e+03
3.356506e+06 -1.143845e+03 -6.304775e+02
3.304260e+06 1.187743e+03 1.413029e+03
3.304632e+06 1.328207e+03 -3.251222e+02
3.356550e+06 -1.025159e+03 -2.210671e+03
3.303417e+06 1.126464e+03 1.489447e+03
3.303813e+06 1.261277e+03 -3.431737e+02
3.355125e+06 -1.233196e+03 8.884793e+02
3.355192e+06 -1.105085e+03 -2.141867e+03
3.353827e+06 -1.321666e+03 -5.883798e+02
3.302531e+06 1.065171e+03 1.561712e+03
3.302949e+06 1.194299e+03 -3.602575e+02
3.353878e+06 -1.185078e+03 -2.068048e+03
3.352558e+06 -1.410684e+03 -5.651012e+02
3.301603e+06 1.003901e+03 1.629825e+03
3.302044e+06 1.127335e+03 -3.763815e+02
3.352613e+06 -1.265131e+03 -1.989212e+03
3.351341e+06 -1.499751e+03 -5.403408e+02
3.300638e+06 9.426697e+02 1.693792e+03
3.301099e+06 1.060412e+03 -3.915469e+02
3.351400e+06 -1.345227e+03 -1.905357e+03
3.350179e+06 -1.588819e+03 -5.141062e+02
3.299636e+06 8.814824e+02 1.753621e+03
3.300117e+06 9.935402e+02 -4.057573e+02
3.350242e+06 -1.425325e+03 -1.816484e+03
3.349075e+06 -1.677807e+03 -4.864092e+02
3.298601e+06 8.203353e+02 1.809323e+03
3.299100e+06 9.267214e+02 -4.190161e+02
3.349141e+06 -1.505356e+03 -1.722597e+03
3.348032e+06 -1.766572e+03 -4.572708e+02
3.297535e+06 7.592213e+02 1.860904e+03
3.298051e+06 8.599496e+02 -4.313259e+02
3.348102e+06 -1.585208e+03 -1.623718e+03
3.347052e+06 -1.854902e+03 -4.267273e+02
3.296440e+06 6.981308e+02 1.908375e+03
3.296972e+06 7.932153e+02 -4.426893e+02
3.347126e+06 -1.664708e+03 -1.519876e+03
3.346140e+06 -1.942500e+03 -3.948247e+02
3.295319e+06 6.370515e+02 1.951743e+03
3.295865e+06 7.265085e+02 -4.531081e+02
3.293714e+06 5.988713e+02 -2.005818e+03
3.346217e+06 -1.743594e+03 -1.411129e+03
3.345298e+06 -2.028918e+03 -3.616245e+02
3.291844e+06 5.037640e+02 8.115711e+02
3.291823e+06 4.538059e+02 2.057274e+03
3.294174e+06 5.759669e+02 1.991015e+03
3.294734e+06 6.598236e+02 -4.625790e+02
3.293713e+06 5.952157e+02 2.083523e+03
3.293032e+06 5.718994e+02 7.989963e+02
3.345378e+06 -1.821498e+03 -1.297575e+03
3.344528e+06 -2.113522e+03 -3.272210e+02
3.344612e+06 -1.897905e+03 -1.179357e+03
3.343834e+06 -2.195468e+03 -2.917446e+02
3.290621e+06 3.927503e+02 2.084283e+03
3.291214e+06 4.597943e+02 -4.853736e+02
3.288858e+06 3.280047e+02 2.197184e+03
3.343921e+06 -1.972108e+03 -1.056687e+03
3.343219e+06 -2.273645e+03 -2.553612e+02
3.289406e+06 3.317029e+02 2.107228e+03
3.290007e+06 3.931434e+02 -4.910842e+02
3.343308e+06 -2.043167e+03 -9.298670e+02
3.342683e+06 -2.346617e+03 -2.182806e+02
3.288178e+06 2.706717e+02 2.126109e+03
3.288787e+06 3.265107e+02 -4.958553e+02
3.342776e+06 -2.109857e+03 -7.993031e+02
3.286942e+06 2.096947e+02 2.140940e+03
3.287556e+06 2.599398e+02 -4.996923e+02
3.342194e+06 -2.413992e+03 2.669695e+02
3.342325e+06 -2.170624e+03 -6.655279e+02
3.285698e+06 1.488258e+02 2.151739e+03
3.286317e+06 1.934752e+02 -5.025924e+02
3.341825e+06 -2.470903e+03 2.115844e+02
3.341958e+06 -2.223556e+03 -5.292060e+02
3.341578e+06 -2.514647e+03 -1.055624e+02
3.284449e+06 8.813912e+01 2.158535e+03
3.285073e+06 1.271891e+02 -5.045561e+02
3.341675e+06 -2.266385e+03 -3.911209e+02
3.283199e+06 2.773972e+01 2.161364e+03
3.283824e+06 6.118580e+01 -5.055862e+02
3.341342e+06 -2.547267e+03 1.010394e+02
3.341477e+06 -2.296567e+03 -2.521319e+02
3.341268e+06 -2.559873e+03 -3.202130e+01
3.281948e+06 -3.222772e+01 2.160281e+03
3.282575e+06 -4.388262e+00 -5.056864e+02
3.341365e+06 -2.311466e+03 -1.130962e+02
3.341240e+06 -2.555222e+03 3.734447e+00
3.280699e+06 -9.156691e+01 2.155359e+03
3.281327e+06 -6.933612e+01 -5.048635e+02
3.341337e+06 -2.308723e+03 2.522307e+01
3.341297e+06 -2.530345e+03 3.885419e+01
3.279454e+06 -1.500198e+02 2.146696e+03
3.280081e+06 -1.333953e+02 -5.031275e+02
3.277544e+06 -2.578519e+02 2.210317e+03
3.341392e+06 -2.286744e+03 1.622018e+02
3.341436e+06 -2.484901e+03 7.347310e+01
3.278216e+06 -2.072577e+02 2.134424e+03
3.278841e+06 -1.962296e+02 -5.004931e+02
3.276307e+06 -3.171789e+02 2.193018e+03
3.341530e+06 -2.245114e+03 2.973055e+02
3.341658e+06 -2.419612e+03 1.077101e+02
3.274545e+06 -4.082291e+02 8.240675e+02
3.274559e+06 -3.670553e+02 2.077710e+03
3.276986e+06 -2.628715e+02 2.118703e+03
3.275767e+06 -3.163406e+02 2.099724e+03
3.277609e+06 -2.574124e+02 -4.969770e+02
3.341750e+06 -2.184708e+03 4.299765e+02
3.341959e+06 -2.336133e+03 1.415829e+02
3.342049e+06 -2.107455e+03 5.595400e+02
3.342340e+06 -2.236778e+03 1.749727e+02
3.273366e+06 -4.143613e+02 2.052913e+03
3.273974e+06 -4.256261e+02 -4.815417e+02
3.342426e+06 -2.015869e+03 6.851879e+02
3.342796e+06 -2.124153e+03 2.076456e+02
3.272187e+06 -4.576163e+02 2.025560e+03
3.272789e+06 -4.744734e+02 -4.749138e+02
3.342879e+06 -1.912586e+03 8.060468e+02
3.271025e+06 -4.962597e+02 1.995838e+03
3.271620e+06 -5.187179e+02 -4.676520e+02
3.343296e+06 -2.002024e+03 -3.587101e+02
3.343404e+06 -1.800069e+03 9.212733e+02
3.343926e+06 -1.869213e+03 2.696473e+02
3.269880e+06 -5.299334e+02 1.963902e+03
3.270467e+06 -5.579387e+02 -4.598291e+02
3.343999e+06 -1.680460e+03 1.030119e+03
3.344591e+06 -1.731279e+03 2.983896e+02
3.268755e+06 -5.585911e+02 1.929885e+03
3.269333e+06 -5.919698e+02 -4.515094e+02
3.344659e+06 -1.555543e+03 1.131961e+03
3.267650e+06 -5.825097e+02 1.893934e+03
3.268218e+06 -6.209131e+02 -4.427609e+02
3.345294e+06 -1.589553e+03 -4.843778e+02
3.345381e+06 -1.426749e+03 1.226308e+03
3.346101e+06 -1.442800e+03 3.501586e+02
3.266566e+06 -6.022131e+02 1.856229e+03
3.267124e+06 -6.451214e+02 -4.336520e+02
3.346158e+06 -1.295195e+03 1.312786e+03
3.346937e+06 -1.294583e+03 3.728367e+02
3.265504e+06 -6.183502e+02 1.816990e+03
3.266051e+06 -6.651343e+02 -4.242486e+02
3.346988e+06 -1.161731e+03 1.391123e+03
3.347819e+06 -1.144808e+03 3.932104e+02
3.264465e+06 -6.315838e+02 1.776451e+03
3.265001e+06 -6.815888e+02 -4.146113e+02
3.347864e+06 -1.026990e+03 1.461125e+03
3.348742e+06 -9.940277e+02 4.111935e+02
3.263450e+06 -6.425285e+02 1.734840e+03
3.263974e+06 -6.951363e+02 -4.047910e+02
3.261822e+06 -7.221822e+02 -1.688368e+03
3.348782e+06 -8.914307e+02 1.522659e+03
3.349702e+06 -8.426400e+02 4.267247e+02
3.260524e+06 -7.436775e+02 6.461273e+02
3.260554e+06 -6.664557e+02 1.605366e+03
3.262460e+06 -6.517190e+02 1.692353e+03
3.262971e+06 -7.063789e+02 -3.948247e+02
3.261824e+06 -7.173569e+02 1.751467e+03
3.261465e+06 -7.358762e+02 6.635168e+02
3.349735e+06 -7.553761e+02 1.575640e+03
3.350693e+06 -6.909156e+02 4.397653e+02
3.350720e+06 -6.190481e+02 1.620009e+03
3.351709e+06 -5.390178e+02 4.502867e+02
3.259639e+06 -6.726195e+02 1.561108e+03
3.260113e+06 -7.311836e+02 -3.643617e+02
3.258161e+06 -7.450421e+02 1.566936e+03
3.351730e+06 -4.825971e+02 1.655730e+03
3.352745e+06 -3.870581e+02 4.582616e+02
3.258750e+06 -6.782986e+02 1.516449e+03
3.259211e+06 -7.376645e+02 -3.540560e+02
3.257311e+06 -7.507307e+02 1.519608e+03
3.352760e+06 -3.461154e+02 1.682787e+03
3.353796e+06 -2.351150e+02 4.636775e+02
3.257887e+06 -6.836549e+02 1.471434e+03
3.258335e+06 -7.436748e+02 -3.436908e+02
3.353805e+06 -2.096519e+02 1.701167e+03
3.354856e+06 -8.321783e+01 4.665302e+02
3.257051e+06 -6.887987e+02 1.426097e+03
3.257486e+06 -7.493629e+02 -3.332727e+02
3.354859e+06 -7.323322e+01 1.710858e+03
3.355920e+06 6.863246e+01 4.668142e+02
3.256241e+06 -6.938094e+02 1.380462e+03
3.256663e+06 -7.548477e+02 -3.227995e+02
3.355917e+06 6.313294e+01 1.711857e+03
3.356982e+06 2.204417e+02 4.645244e+02
3.255458e+06 -6.987449e+02 1.334543e+03
3.255866e+06 -7.602115e+02 -3.122707e+02
3.356973e+06 1.994531e+02 1.704159e+03
3.254701e+06 -7.036436e+02 1.288344e+03
3.255096e+06 -7.655107e+02 -3.016852e+02
3.358043e+06 3.725291e+02 -6.787713e+02
3.358021e+06 3.357412e+02 1.687755e+03
3.253971e+06 -7.085317e+02 1.241871e+03
3.254353e+06 -7.707840e+02 -2.910422e+02
3.359087e+06 5.243928e+02 -6.680493e+02
3.359057e+06 4.720159e+02 1.662636e+03
3.360102e+06 6.758127e+02 4.421814e+02
3.253269e+06 -7.134263e+02 1.195121e+03
3.253637e+06 -7.760561e+02 -2.803397e+02
3.360075e+06 6.082976e+02 1.628791e+03
3.252593e+06 -7.183387e+02 1.148094e+03
3.252948e+06 -7.813431e+02 -2.695765e+02
3.251466e+06 -7.987760e+02 -1.088702e+03
3.361115e+06 8.282078e+02 -6.354481e+02
3.361069e+06 7.446055e+02 1.586208e+03
3.362073e+06 9.795746e+02 4.143641e+02
3.250861e+06 -7.989015e+02 1.079219e+03
3.251652e+06 -7.919940e+02 -2.478573e+02
3.250699e+06 -8.175373e+02 4.045370e+02
3.251945e+06 -7.232793e+02 1.100784e+03
3.252286e+06 -7.866510e+02 -2.587483e+02
3.362033e+06 8.809547e+02 1.534870e+03
3.363009e+06 1.131553e+03 3.965730e+02
3.362963e+06 1.017354e+03 1.474767e+03
3.363904e+06 1.283588e+03 3.761990e+02
3.250166e+06 -7.382182e+02 9.571095e+02
3.250466e+06 -8.027665e+02 -2.258918e+02
3.363852e+06 1.153799e+03 1.405880e+03
3.364753e+06 1.435655e+03 3.532471e+02
3.249629e+06 -7.432448e+02 9.086286e+02
3.249915e+06 -8.081992e+02 -2.148022e+02
3.364696e+06 1.290259e+03 1.328199e+03
3.365551e+06 1.587680e+03 3.277226e+02
3.249120e+06 -7.483013e+02 8.598421e+02
3.249392e+06 -8.136684e+02 -2.036435e+02
3.365487e+06 1.426675e+03 1.241724e+03
3.366291e+06 1.739517e+03 2.996462e+02
3.248639e+06 -7.533822e+02 8.107460e+02
3.248897e+06 -8.191662e+02 -1.924171e+02
3.366222e+06 1.562943e+03 1.146462e+03
3.366969e+06 1.890951e+03 2.690542e+02
3.248187e+06 -7.584824e+02 7.613366e+02
3.248431e+06 -8.246909e+02 -1.811194e+02
3.366893e+06 1.698888e+03 1.042439e+03
3.367578e+06 2.041656e+03 2.359970e+02
3.247763e+06 -7.635945e+02 7.116108e+02
3.247993e+06 -8.302361e+02 -1.697489e+02
3.367497e+06 1.834240e+03 9.297149e+02
3.247368e+06 -7.687075e+02 6.615667e+02
3.247583e+06 -8.357909e+02 -1.583040e+02
3.368147e+06 2.192461e+03 -3.051740e+02
3.368026e+06 1.968601e+03 8.083894e+02
3.368570e+06 2.338722e+03 1.628161e+02
3.247002e+06 -7.738028e+02 6.112041e+02
3.247203e+06 -8.413381e+02 -1.467835e+02
3.368477e+06 2.101403e+03 6.786226e+02
3.368942e+06 2.483430e+03 1.229458e+02
3.246665e+06 -7.788521e+02 5.605262e+02
3.246852e+06 -8.468500e+02 -1.351857e+02
3.368843e+06 2.231851e+03 5.406566e+02
3.246358e+06 -7.838143e+02 5.095410e+02
3.246530e+06 -8.522845e+02 -1.235095e+02
3.245772e+06 -8.702994e+02 -4.361521e+02
3.369265e+06 2.625602e+03 -1.319503e+02
3.369120e+06 2.358866e+03 3.948406e+02
3.369413e+06 2.758661e+03 3.763720e+01
3.245577e+06 -8.885572e+02 1.421997e+02
3.245612e+06 -7.974181e+02 3.549272e+02
3.246080e+06 -7.886295e+02 4.582621e+02
3.246237e+06 -8.575805e+02 -1.117528e+02
3.245774e+06 -8.646077e+02 4.525564e+02
3.245796e+06 -8.839673e+02 1.629870e+02
3.369304e+06 2.481018e+03 2.416588e+02
3.369502e+06 2.885331e+03 -7.230202e+00
3.369389e+06 2.596458e+03 8.175724e+01
3.369490e+06 3.001330e+03 -5.309303e+01
3.245423e+06 -8.011105e+02 3.029644e+02
3.245536e+06 -8.715958e+02 -7.602009e+01
3.369373e+06 2.702861e+03 -8.403783e+01
3.369372e+06 3.103543e+03 -9.953874e+01
3.245264e+06 -8.040710e+02 2.508965e+02
3.245362e+06 -8.750824e+02 -6.396256e+01
3.369253e+06 2.797409e+03 -2.547235e+02
3.369147e+06 3.188509e+03 -1.461599e+02
3.245135e+06 -8.060192e+02 1.988232e+02
3.245218e+06 -8.775593e+02 -5.184690e+01
3.244816e+06 -8.805885e+02 1.276808e+02
3.369025e+06 2.876832e+03 -4.291554e+02
3.368813e+06 3.252691e+03 -1.926222e+02
3.245035e+06 -8.066010e+02 1.468753e+02
3.245104e+06 -8.786666e+02 -3.968856e+01
3.244761e+06 -8.777379e+02 7.458656e+01
3.368689e+06 2.937589e+03 -6.061331e+02
3.368368e+06 3.292906e+03 -2.387392e+02
3.244965e+06 -8.053828e+02 9.521578e+01
3.245020e+06 -8.779674e+02 -2.750980e+01
3.368244e+06 2.976242e+03 -7.845310e+02
3.367814e+06 3.306818e+03 -2.845131e+02
3.244925e+06 -8.018484e+02 4.403647e+01
3.244964e+06 -8.749460e+02 -1.534076e+01
3.367689e+06 2.990072e+03 -9.633971e+02
3.367149e+06 3.293324e+03 -3.300908e+02
3.244913e+06 -7.954138e+02 -6.451108e+00
3.244938e+06 -8.690238e+02 -3.222026e+00
3.367025e+06 2.977748e+03 -1.141948e+03
3.366376e+06 3.252760e+03 -3.756520e+02
3.244930e+06 -7.854615e+02 -5.603455e+01
3.244941e+06 -8.595949e+02 8.796696e+00
3.366252e+06 2.939681e+03 -1.319447e+03
3.365493e+06 3.186846e+03 -4.212873e+02
3.244974e+06 -7.714135e+02 -1.045224e+02
3.244971e+06 -8.460892e+02 2.065854e+01
3.365372e+06 2.877912e+03 -1.495046e+03
3.364503e+06 3.098372e+03 -4.669156e+02
3.245046e+06 -7.528405e+02 -1.517604e+02
3.245029e+06 -8.280500e+02 3.230179e+01
3.245041e+06 -7.856109e+02 2.103817e+02
3.364384e+06 2.795580e+03 -1.667709e+03
3.363408e+06 2.990744e+03 -5.122770e+02
3.245386e+06 -7.431394e+02 -1.053199e+02
3.245415e+06 -6.696672e+02 -2.847116e+02
3.245144e+06 -7.295658e+02 -1.976243e+02
3.245042e+06 -7.806439e+02 -2.197728e+02
3.245113e+06 -8.052139e+02 4.366367e+01
3.363291e+06 2.696233e+03 -1.836268e+03
3.362253e+06 2.869477e+03 8.163489e+02
3.362096e+06 2.583316e+03 -1.999546e+03
3.245587e+06 -6.339997e+02 -3.256015e+02
3.245517e+06 -7.088756e+02 7.544412e+01
3.245757e+06 -6.278602e+02 -3.856525e+02
3.360953e+06 2.733833e+03 8.804070e+02
3.360802e+06 2.459898e+03 -2.156467e+03
3.359517e+06 2.587056e+03 -6.428665e+02
3.245781e+06 -5.953230e+02 -3.644505e+02
3.245699e+06 -6.688347e+02 8.506390e+01
3.359414e+06 2.328566e+03 -2.306121e+03
3.245997e+06 -5.542275e+02 -4.010435e+02
3.245903e+06 -6.257814e+02 9.410617e+01
3.358070e+06 2.436831e+03 1.000941e+03
3.357935e+06 2.191416e+03 -2.447779e+03
3.356462e+06 2.278283e+03 -7.216041e+02
3.246232e+06 -5.112444e+02 -4.351824e+02
3.246128e+06 -5.803048e+02 1.025291e+02
3.356370e+06 2.050088e+03 -2.580893e+03
3.354812e+06 2.117868e+03 -7.576321e+02
3.246487e+06 -4.668241e+02 -4.666971e+02
3.246372e+06 -5.329335e+02 1.102999e+02
3.354726e+06 1.905836e+03 -2.705056e+03
3.353087e+06 1.955038e+03 -7.911927e+02
3.246759e+06 -4.213336e+02 -4.954497e+02
3.246634e+06 -4.841195e+02 1.173939e+02
3.353008e+06 1.759605e+03 -2.819981e+03
3.351294e+06 1.790619e+03 -8.221501e+02
3.247046e+06 -3.750650e+02 -5.213321e+02
3.246912e+06 -4.342350e+02 1.237945e+02
3.351221e+06 1.612074e+03 -2.925494e+03
3.349439e+06 1.625228e+03 -8.504169e+02
3.247348e+06 -3.282436e+02 -5.442633e+02
3.247206e+06 -3.835750e+02 1.294894e+02
3.349372e+06 1.463722e+03 -3.021475e+03
3.347528e+06 1.459271e+03 -8.759413e+02
3.247662e+06 -2.810400e+02 -5.641842e+02
3.247512e+06 -3.323683e+02 1.344720e+02
3.347467e+06 1.314883e+03 -3.107857e+03
3.247986e+06 -2.335794e+02 -5.810531e+02
3.247830e+06 -2.807865e+02 1.387378e+02
3.248452e+06 -1.785340e+02 5.868985e+02
3.345586e+06 1.294015e+03 1.312426e+03
3.345512e+06 1.165782e+03 -3.184617e+03
3.343561e+06 1.126626e+03 -9.186242e+02
3.249002e+06 -1.010173e+02 -2.338051e+02
3.249006e+06 -9.043158e+01 -6.131024e+02
3.248320e+06 -1.859503e+02 -5.948419e+02
3.248158e+06 -2.289581e+02 1.422833e+02
3.248452e+06 -1.773291e+02 -6.114068e+02
3.248654e+06 -1.542736e+02 -2.307616e+02
3.343513e+06 1.016556e+03 -3.251750e+03
3.341517e+06 9.602178e+02 -9.357454e+02
3.341476e+06 8.672900e+02 -3.309270e+03
3.249355e+06 -4.261672e+01 -6.175569e+02
3.249182e+06 -7.274313e+01 1.486090e+02
3.339454e+06 7.945893e+02 1.386337e+03
3.339408e+06 7.180252e+02 -3.357198e+03
3.337341e+06 6.275176e+02 -9.615192e+02
3.249706e+06 5.216985e+00 -6.188873e+02
3.249531e+06 -2.057245e+01 1.492767e+02
3.337313e+06 5.687774e+02 -3.395561e+03
3.335220e+06 4.612450e+02 -9.701739e+02
3.250056e+06 5.306635e+01 -6.170886e+02
3.249881e+06 3.162126e+01 1.492254e+02
3.335199e+06 4.195450e+02 -3.424387e+03
3.333086e+06 2.950055e+02 -9.760101e+02
3.250405e+06 1.009303e+02 -6.121562e+02
3.250229e+06 8.383039e+01 1.484571e+02
3.333071e+06 2.703164e+02 -3.443703e+03
3.330943e+06 1.287922e+02 -9.790330e+02
3.250750e+06 1.488119e+02 -6.040874e+02
3.250575e+06 1.360591e+02 1.469706e+02
3.251306e+06 2.411830e+02 -5.960761e+02
3.330936e+06 1.210697e+02 -3.453542e+03
3.328799e+06 -3.742028e+01 -9.792576e+02
3.251090e+06 1.967191e+02 -5.928780e+02
3.250916e+06 1.883150e+02 1.447651e+02
3.251645e+06 2.936340e+02 -5.793189e+02
3.328798e+06 -2.821891e+01 -3.453922e+03
3.326659e+06 -2.036880e+02 -9.766896e+02
3.251422e+06 2.446619e+02 -5.785224e+02
3.251251e+06 2.406085e+02 1.418398e+02
3.326665e+06 -1.775619e+02 -3.444861e+03
3.324529e+06 -3.700317e+02 -9.713204e+02
3.251745e+06 2.926497e+02 -5.610140e+02
3.251578e+06 2.929509e+02 1.381934e+02
3.324542e+06 -3.269756e+02 -3.426391e+03
3.322415e+06 -5.364291e+02 -9.631570e+02
3.252058e+06 3.406917e+02 -5.403457e+02
3.251894e+06 3.453529e+02 1.338239e+02
3.322434e+06 -4.764761e+02 -3.398524e+03
3.320323e+06 -7.028781e+02 -9.522170e+02
3.252357e+06 3.887941e+02 -5.165092e+02
3.252199e+06 3.978227e+02 1.287290e+02
3.252882e+06 5.073722e+02 4.592481e+02
3.320348e+06 -6.260556e+02 -3.361273e+03
3.318258e+06 -8.693638e+02 -9.385116e+02
3.253184e+06 5.946696e+02 -1.580329e+02
3.253160e+06 5.333785e+02 -4.259139e+02
3.252642e+06 4.369569e+02 -4.894963e+02
3.252490e+06 4.503614e+02 1.229041e+02
3.252881e+06 5.040965e+02 -4.790408e+02
3.252932e+06 5.408672e+02 -1.715189e+02
3.318290e+06 -7.756874e+02 -3.314660e+03
3.316226e+06 -1.035819e+03 -9.220553e+02
3.316265e+06 -9.253186e+02 -3.258708e+03
3.314233e+06 -1.202129e+03 -9.028705e+02
3.253389e+06 5.815496e+02 -3.893467e+02
3.253262e+06 6.082168e+02 1.010231e+02
3.314279e+06 -1.074854e+03 -3.193445e+03
3.312285e+06 -1.368107e+03 -8.809906e+02
3.253597e+06 6.295865e+02 -3.496093e+02
3.253479e+06 6.607293e+02 9.224146e+01
3.254022e+06 7.667338e+02 -2.791638e+02
3.312337e+06 -1.224138e+03 -3.118916e+03
3.310387e+06 -1.533467e+03 -8.564636e+02
3.253781e+06 6.773421e+02 -3.067304e+02
3.253674e+06 7.129959e+02 8.270930e+01
3.254178e+06 8.180006e+02 -2.296362e+02
3.310446e+06 -1.372935e+03 -3.035186e+03
3.308545e+06 -1.697791e+03 -8.293569e+02
3.253940e+06 7.245951e+02 -2.607635e+02
3.253844e+06 7.647981e+02 7.242476e+01
3.308611e+06 -1.520898e+03 -2.942356e+03
3.254071e+06 7.710282e+02 -2.117976e+02
3.253987e+06 8.158218e+02 6.138616e+01
3.306736e+06 -1.861285e+03 1.169125e+03
3.306836e+06 -1.667535e+03 -2.840569e+03
3.254173e+06 8.161946e+02 -1.599695e+02
3.254103e+06 8.656197e+02 4.959824e+01
3.305019e+06 -2.021658e+03 1.122781e+03
3.305129e+06 -1.812163e+03 -2.730037e+03
3.303408e+06 -2.177453e+03 -7.336655e+02
3.254245e+06 8.594827e+02 -1.054805e+02
3.254188e+06 9.135740e+02 3.707170e+01
3.303493e+06 -1.953867e+03 -2.611059e+03
3.254285e+06 9.000713e+02 -4.861587e+01
3.254243e+06 9.588540e+02 2.382885e+01
3.301807e+06 -2.330425e+03 1.020494e+03
3.301933e+06 -2.091432e+03 -2.484035e+03
3.300359e+06 -2.474113e+03 -6.597405e+02
3.254292e+06 9.368821e+02 1.023444e+01
3.254265e+06 1.000366e+03 9.906323e+00
3.300454e+06 -2.223288e+03 -2.349499e+03
3.298960e+06 -2.610006e+03 -6.205415e+02
3.254265e+06 9.685358e+02 7.055568e+01
3.254254e+06 1.036711e+03 -4.638349e+00
3.254390e+06 1.099270e+03 -1.711415e+02
3.299061e+06 -2.347467e+03 -2.208148e+03
3.297650e+06 -2.734154e+03 -5.803181e+02
3.254021e+06 1.117746e+03 1.010940e+02
3.253981e+06 1.013503e+03 2.531707e+02
3.254204e+06 9.933064e+02 1.316965e+02
3.254209e+06 1.066145e+03 -1.971960e+01
3.254389e+06 1.092410e+03 1.767295e+02
3.254151e+06 1.115733e+03 8.048641e+01
3.297755e+06 -2.461577e+03 -2.060819e+03
3.296433e+06 -2.843540e+03 -5.394480e+02
3.296541e+06 -2.562807e+03 -1.908487e+03
3.295309e+06 -2.934991e+03 -4.982615e+02
3.253819e+06 1.003851e+03 3.116625e+02
3.253871e+06 1.090546e+03 -6.680548e+01
3.295421e+06 -2.648041e+03 -1.752209e+03
3.253627e+06 9.774910e+02 3.674499e+02
3.253694e+06 1.068880e+03 -8.245124e+01
3.294237e+06 -3.007431e+03 6.642326e+02
3.294395e+06 -2.714111e+03 -1.593014e+03
3.293352e+06 -3.052553e+03 -4.156633e+02
3.253405e+06 9.321836e+02 4.197787e+02
3.253487e+06 1.028310e+03 -9.765754e+01
3.293466e+06 -2.758249e+03 -1.431808e+03
3.292519e+06 -3.074708e+03 -3.742220e+02
3.253156e+06 8.666164e+02 4.680535e+02
3.253253e+06 9.672702e+02 -1.121534e+02
3.292634e+06 -2.778671e+03 -1.269331e+03
3.252883e+06 7.807379e+02 5.117539e+02
3.252994e+06 8.851749e+02 -1.256655e+02
3.291737e+06 -3.073698e+03 4.767363e+02
3.291899e+06 -2.775030e+03 -1.106222e+03
3.291147e+06 -3.044401e+03 -2.903245e+02
3.252588e+06 6.757727e+02 5.502989e+02
3.252712e+06 7.825301e+02 -1.379222e+02
3.291262e+06 -2.748508e+03 -9.431609e+02
3.290609e+06 -2.994997e+03 -2.477172e+02
3.252275e+06 5.539025e+02 5.829542e+02
3.252411e+06 6.608397e+02 -1.486513e+02
3.290723e+06 -2.701507e+03 -7.809725e+02
3.290168e+06 -2.926280e+03 -2.048170e+02
3.251946e+06 4.177740e+02 6.088419e+02
3.252094e+06 5.223346e+02 -1.575904e+02
3.290281e+06 -2.637086e+03 -6.206348e+02
3.289825e+06 -2.841404e+03 -1.619114e+02
3.251606e+06 2.700641e+02 6.270266e+02
3.251764e+06 3.696099e+02 -1.645013e+02
3.251097e+06 3.412385e+01 6.033129e+02
3.289935e+06 -2.558422e+03 -4.631947e+02
3.289576e+06 -2.743491e+03 -1.193592e+02
3.251259e+06 1.132261e+02 6.366140e+02
3.251425e+06 2.052960e+02 -1.691836e+02
3.250712e+06 -1.473076e+02 5.961298e+02
3.289683e+06 -2.468476e+03 -3.096582e+02
3.289420e+06 -2.635385e+03 -7.752626e+01
3.250739e+06 -1.486771e+02 -1.712676e+02
3.250212e+06 -4.380561e+02 1.945574e+02
3.250230e+06 -3.927543e+02 6.065701e+02
3.250911e+06 -5.062803e+01 6.368147e+02
3.251081e+06 3.182923e+01 -1.714780e+02
3.289524e+06 -2.369829e+03 -1.609173e+02
3.289353e+06 -2.519529e+03 -3.674929e+01
3.289453e+06 -2.264631e+03 -1.771282e+01
3.289373e+06 -2.397929e+03 2.681878e+00
3.249909e+06 -5.685817e+02 5.752086e+02
3.250079e+06 -5.241571e+02 -1.630333e+02
3.289468e+06 -2.154616e+03 1.193721e+02
3.289475e+06 -2.272185e+03 4.053158e+01
3.249610e+06 -7.464715e+02 5.325861e+02
3.249774e+06 -7.166986e+02 -1.549140e+02
3.248994e+06 -1.109586e+03 3.957189e+02
3.289566e+06 -2.041144e+03 2.498947e+02
3.289656e+06 -2.143536e+03 7.661546e+01
3.249339e+06 -9.259081e+02 4.784729e+02
3.249493e+06 -9.113523e+02 -1.440984e+02
3.248737e+06 -1.307751e+03 3.199099e+02
3.289741e+06 -1.925252e+03 3.735323e+02
3.289910e+06 -2.012911e+03 1.107938e+02
3.249104e+06 -1.106598e+03 4.126844e+02
3.249244e+06 -1.107650e+03 -1.305768e+02
3.289990e+06 -1.807721e+03 4.900587e+02
3.290234e+06 -1.880997e+03 1.429639e+02
3.248909e+06 -1.288453e+03 3.350577e+02
3.249033e+06 -1.305374e+03 -1.143435e+02
3.290309e+06 -1.689118e+03 5.993212e+02
3.290624e+06 -1.748283e+03 1.730521e+02
3.248763e+06 -1.471584e+03 2.454234e+02
3.248867e+06 -1.504546e+03 -9.539329e+01
3.290693e+06 -1.569851e+03 7.012219e+02
3.291074e+06 -1.615111e+03 2.010070e+02
3.248672e+06 -1.656304e+03 1.435807e+02
3.248753e+06 -1.705419e+03 -7.371787e+01
3.291138e+06 -1.450202e+03 7.957012e+02
3.291580e+06 -1.481708e+03 2.267939e+02
3.248644e+06 -1.843139e+03 2.927039e+01
3.248697e+06 -1.908494e+03 -4.930072e+01
3.291639e+06 -1.330360e+03 8.827263e+02
3.248686e+06 -2.032854e+03 -9.785663e+01
3.248708e+06 -2.114538e+03 -2.211128e+01
3.292118e+06 -1.348880e+03 -3.753934e+02
3.292192e+06 -1.210450e+03 9.622816e+02
3.248806e+06 -2.226481e+03 -2.382713e+02
3.248793e+06 -2.324619e+03 7.900470e+00
3.248577e+06 -2.784461e+03 5.741900e+02
3.292725e+06 -1.215320e+03 -4.061823e+02
3.292791e+06 -1.090543e+03 1.034364e+03
3.293390e+06 -1.081322e+03 2.909626e+02
3.249580e+06 -3.185149e+03 -3.662640e+02
3.249712e+06 -2.845793e+03 -7.466012e+02
3.249011e+06 -2.425349e+03 -3.926064e+02
3.248959e+06 -2.540142e+03 4.081041e+01
3.248584e+06 -2.766126e+03 -5.837964e+02
3.249189e+06 -2.941509e+03 -2.883046e+02
3.293433e+06 -9.706787e+02 1.098972e+03
3.293780e+06 -9.932605e+02 2.922328e+02
3.294113e+06 -8.508763e+02 1.156108e+03
3.294794e+06 -8.146760e+02 3.226745e+02
3.250228e+06 -3.071764e+03 -9.487127e+02
3.250034e+06 -3.239153e+03 1.583635e+02
3.294826e+06 -7.311377e+02 1.205778e+03
3.295541e+06 -6.814500e+02 3.351963e+02
3.250866e+06 -3.311677e+03 -1.169735e+03
3.250617e+06 -3.498265e+03 2.045960e+02
3.295568e+06 -6.114518e+02 1.247984e+03
3.296312e+06 -5.482704e+02 3.454974e+02
3.251641e+06 -3.568352e+03 -1.411726e+03
3.251329e+06 -3.775602e+03 2.549594e+02
3.296333e+06 -4.918068e+02 1.282723e+03
3.297102e+06 -4.151132e+02 3.535773e+02
3.252564e+06 -3.844581e+03 -1.677111e+03
3.252185e+06 -4.074514e+03 3.099938e+02
3.297118e+06 -3.721880e+02 1.309995e+03
3.297907e+06 -2.819602e+02 3.594351e+02
3.253649e+06 -4.142727e+03 -1.968637e+03
3.253198e+06 -4.398052e+03 3.703836e+02
3.297918e+06 -2.525803e+02 1.329793e+03
3.254914e+06 -4.464108e+03 -2.289263e+03
3.254385e+06 -4.748397e+03 4.369840e+02
3.298721e+06 -1.488118e+02 -5.375408e+02
3.298728e+06 -1.329724e+02 1.342112e+03
3.299543e+06 -1.561872e+01 3.644844e+02
3.256375e+06 -4.808067e+03 -2.641934e+03
3.255762e+06 -5.125927e+03 5.108402e+02
3.299543e+06 -1.335932e+01 1.346943e+03
3.300365e+06 1.175695e+02 3.636784e+02
3.258051e+06 -5.170608e+03 -3.029194e+03
3.257348e+06 -5.527848e+03 5.931926e+02
3.300360e+06 1.062534e+02 1.344277e+03
3.259961e+06 -5.542437e+03 -3.452566e+03
3.259163e+06 -5.946207e+03 6.854694e+02
3.301187e+06 2.509398e+02 -5.340609e+02
3.301172e+06 2.258440e+02 1.334107e+03
3.301992e+06 3.838427e+02 3.554283e+02
3.262122e+06 -5.906237e+03 -3.911599e+03
3.261228e+06 -6.365101e+03 7.892516e+02
3.263893e+06 -7.194549e+03 4.822650e+03
3.301977e+06 3.453679e+02 1.316432e+03
3.302789e+06 5.167729e+02 3.480060e+02
3.266566e+06 -7.342697e+03 -5.469726e+03
3.266173e+06 -7.076813e+03 1.037945e+03
3.269886e+06 -7.480370e+03 -2.213639e+03
3.264551e+06 -6.232947e+03 -4.402481e+03
3.263560e+06 -6.756849e+03 9.061911e+02
3.302768e+06 4.647479e+02 1.291258e+03
3.303568e+06 6.493796e+02 3.384165e+02
3.303541e+06 5.838615e+02 1.258601e+03
3.304324e+06 7.814453e+02 3.266939e+02
3.273469e+06 -6.408446e+03 -5.932322e+03
3.272258e+06 -7.197133e+03 1.351880e+03
3.304292e+06 7.025182e+02 1.218496e+03
3.305053e+06 9.126372e+02 3.128829e+02
3.276909e+06 -5.850771e+03 -6.364788e+03
3.275703e+06 -6.755989e+03 1.537119e+03
3.305017e+06 8.204454e+02 1.171014e+03
3.305751e+06 1.042479e+03 2.970542e+02
3.280449e+06 -4.698086e+03 -6.663383e+03
3.279377e+06 -5.739581e+03 1.745233e+03
3.284728e+06 -1.243442e+03 5.307157e+03
3.305710e+06 9.372617e+02 1.116256e+03
3.306413e+06 1.170336e+03 2.793073e+02
3.286909e+06 5.280956e+00 -5.961316e+03
3.283888e+06 -2.734018e+03 -6.678574e+03
3.283354e+06 -3.840288e+03 2.010691e+03
3.306367e+06 1.052437e+03 1.054377e+03
3.307035e+06 1.295365e+03 2.597691e+02
3.287458e+06 6.764023e+03 -3.260076e+03
3.287609e+06 1.000301e+02 5.851301e+03
3.306984e+06 1.165262e+03 9.856038e+02
3.307612e+06 1.416466e+03 2.386021e+02
3.307557e+06 1.274805e+03 9.102456e+02
3.308142e+06 1.532258e+03 2.160061e+02
3.308082e+06 1.379877e+03 8.287110e+02
3.308619e+06 1.641061e+03 1.922146e+02
3.308555e+06 1.478999e+03 7.415185e+02
3.309041e+06 1.740924e+03 1.674800e+02
3.308974e+06 1.570396e+03 6.492904e+02
3.309406e+06 1.829711e+03 1.420469e+02
3.309336e+06 1.652035e+03 5.527277e+02
3.309711e+06 1.905277e+03 1.161084e+02
3.309639e+06 1.721747e+03 4.525545e+02
3.309954e+06 1.965724e+03 8.976088e+01
3.309880e+06 1.777463e+03 3.494417e+02
3.310165e+06 2.011144e+03 -9.469393e+01
3.310059e+06 1.817602e+03 2.439530e+02
3.310281e+06 2.038055e+03 -5.351144e+01
3.310174e+06 1.841449e+03 1.365539e+02
3.310300e+06 2.046701e+03 7.775792e+00
3.310223e+06 1.849340e+03 2.769445e+01
3.310316e+06 2.042531e+03 3.131723e+01
3.310207e+06 1.842583e+03 -8.210208e+01
3.310202e+06 2.021573e+03 -5.005498e+01
3.310124e+06 1.823114e+03 -1.921986e+02
3.310052e+06 1.990158e+03 -7.974453e+01
3.309975e+06 1.793104e+03 -3.018784e+02
3.309835e+06 1.949036e+03 -1.096638e+02
3.309759e+06 1.754656e+03 -4.104204e+02
3.309551e+06 1.900243e+03 -1.395584e+02
3.309477e+06 1.709650e+03 -5.171648e+02
3.309203e+06 1.845562e+03 -1.691842e+02
3.309130e+06 1.659675e+03 -6.215486e+02
3.308818e+06 1.787568e+03 2.921515e+02
3.308720e+06 1.606026e+03 -7.231179e+02
3.308317e+06 1.724214e+03 -2.268090e+02
3.308248e+06 1.549726e+03 -8.215227e+02
3.307783e+06 1.659683e+03 -2.544887e+02
3.307716e+06 1.491562e+03 -9.165030e+02
3.307215e+06 1.594549e+03 4.121983e+02
3.307127e+06 1.432126e+03 -1.007873e+03
3.306544e+06 1.526499e+03 -3.070341e+02
3.306483e+06 1.371852e+03 -1.095507e+03
3.305844e+06 1.458757e+03 -3.317644e+02
3.305785e+06 1.311050e+03 -1.179319e+03
3.305093e+06 1.390627e+03 -3.554080e+02
3.305037e+06 1.249941e+03 -1.259255e+03
3.304294e+06 1.322291e+03 -3.779321e+02
3.304241e+06 1.188670e+03 -1.335291e+03
3.303449e+06 1.253876e+03 -3.993189e+02
3.303399e+06 1.127331e+03 -1.407410e+03
3.302561e+06 1.185454e+03 -4.195610e+02
3.302513e+06 1.065984e+03 -1.475608e+03
3.301632e+06 1.117063e+03 -4.386523e+02
3.301587e+06 1.004661e+03 -1.539888e+03
3.300664e+06 1.048721e+03 -4.565900e+02
3.300622e+06 9.433773e+02 -1.600256e+03
3.299661e+06 9.804357e+02 -4.733730e+02
3.299622e+06 8.821374e+02 -1.656719e+03
3.298624e+06 9.122030e+02 -4.890020e+02
3.298587e+06 8.209376e+02 -1.709287e+03
3.297556e+06 8.440150e+02 -5.034784e+02
3.297522e+06 7.597710e+02 -1.757967e+03
3.296460e+06 7.758612e+02 -5.168038e+02
3.296428e+06 6.986288e+02 -1.802767e+03
3.295337e+06 7.077295e+02 -5.289789e+02
3.295309e+06 6.375024e+02 -1.843693e+03
3.294191e+06 6.396187e+02 -5.400061e+02
3.294165e+06 5.763819e+02 -1.880756e+03
3.293023e+06 5.715222e+02 -5.498926e+02
3.293000e+06 5.152600e+02 -1.913956e+03
3.292406e+06 5.264530e+02 -4.787112e+02
3.291816e+06 4.541385e+02 -1.943298e+03
3.290640e+06 4.356652e+02 8.225057e+02
3.290615e+06 3.930194e+02 -1.968794e+03
3.289416e+06 3.672361e+02 -5.727154e+02
3.289401e+06 3.319081e+02 -1.990448e+03
3.288191e+06 2.995012e+02 8.394772e+02
3.288174e+06 2.708247e+02 -2.008265e+03
3.286948e+06 2.312586e+02 -5.822765e+02
3.286938e+06 2.098037e+02 -2.022260e+03
3.285703e+06 1.634544e+02 -5.853881e+02
3.285696e+06 1.488939e+02 -2.032451e+03
3.284453e+06 9.588492e+01 -5.874057e+02
3.284448e+06 8.817063e+01 -2.038861e+03
3.283200e+06 2.867822e+01 -5.883508e+02
3.283198e+06 2.773949e+01 -2.041524e+03
3.281948e+06 -3.798940e+01 -5.882512e+02
3.281948e+06 -3.225297e+01 -2.040491e+03
3.280697e+06 -1.038821e+02 -5.871447e+02
3.280700e+06 -9.160915e+01 -2.035828e+03
3.279449e+06 -1.686751e+02 8.490751e+02
3.279457e+06 -1.500690e+02 -2.027627e+03
3.278212e+06 -2.320336e+02 -5.821083e+02
3.278220e+06 -2.072970e+02 -2.016006e+03
3.276981e+06 -2.934179e+02 -5.783048e+02
3.276991e+06 -2.628769e+02 -2.001118e+03
3.276386e+06 -3.164505e+02 -4.926145e+02
3.275772e+06 -3.163036e+02 -1.983144e+03
3.274551e+06 -4.080093e+02 -5.685206e+02
3.274566e+06 -3.669824e+02 -1.962290e+03
3.273356e+06 -4.599463e+02 -5.626765e+02
3.273373e+06 -4.142649e+02 -1.938786e+03
3.272177e+06 -5.074553e+02 -5.562616e+02
3.272195e+06 -4.575041e+02 -1.912845e+03
3.271013e+06 -5.500483e+02 -5.492912e+02
3.271033e+06 -4.961419e+02 -1.884652e+03
3.269868e+06 -5.874455e+02 -5.417451e+02
3.269889e+06 -5.298341e+02 -1.854364e+03
3.268742e+06 -6.196125e+02 -5.335881e+02
3.268764e+06 -5.585401e+02 -1.822118e+03
3.267635e+06 -6.467739e+02 -5.247941e+02
3.267659e+06 -5.825299e+02 -1.788058e+03
3.266551e+06 -6.693760e+02 -5.153639e+02
3.266576e+06 -6.023166e+02 -1.752363e+03
3.265488e+06 -6.880110e+02 -5.053320e+02
3.265514e+06 -6.185370e+02 -1.715241e+03
3.264449e+06 -7.033340e+02 -4.947598e+02
3.264476e+06 -6.318464e+02 -1.676910e+03
3.263433e+06 -7.159884e+02 -4.837219e+02
3.263461e+06 -6.428514e+02 -1.637582e+03
3.262442e+06 -7.265503e+02 -4.722947e+02
3.262470e+06 -6.520808e+02 -1.597443e+03
3.261476e+06 -7.355195e+02 -4.605524e+02
3.261505e+06 -6.599753e+02 -1.556644e+03
3.260536e+06 -7.433210e+02 -4.485544e+02
3.260565e+06 -6.668845e+02 -1.515306e+03
3.259609e+06 -7.506067e+02 6.284687e+02
3.259650e+06 -6.730855e+02 -1.473526e+03
3.258720e+06 -7.569534e+02 6.105876e+02
3.258761e+06 -6.787939e+02 -1.431366e+03
3.257869e+06 -7.625899e+02 -4.114280e+02
3.257899e+06 -6.841672e+02 -1.388875e+03
3.257021e+06 -7.685942e+02 5.742893e+02
3.257062e+06 -6.893206e+02 -1.346084e+03
3.256222e+06 -7.737964e+02 -3.860217e+02
3.256252e+06 -6.943382e+02 -1.303013e+03
3.255438e+06 -7.792254e+02 -3.731686e+02
3.255469e+06 -6.992783e+02 -1.259675e+03
3.254681e+06 -7.846101e+02 -3.602257e+02
3.254712e+06 -7.041806e+02 -1.216076e+03
3.253952e+06 -7.899829e+02 -3.471974e+02
3.253983e+06 -7.090713e+02 -1.172216e+03
3.253249e+06 -7.953643e+02 -3.340856e+02
3.253280e+06 -7.139674e+02 -1.128096e+03
3.252573e+06 -8.007677e+02 -3.208912e+02
3.252605e+06 -7.188783e+02 -1.083713e+03
3.251913e+06 -8.065531e+02 4.430897e+02
3.251957e+06 -7.238109e+02 -1.039065e+03
3.251304e+06 -8.116515e+02 -2.942565e+02
3.251336e+06 -7.287688e+02 -9.941461e+02
3.250711e+06 -8.171473e+02 -2.808174e+02
3.250743e+06 -7.337516e+02 -9.489513e+02
3.250133e+06 -8.230580e+02 3.850809e+02
3.250178e+06 -7.387596e+02 -9.034798e+02
3.249608e+06 -8.282489e+02 -2.536794e+02
3.249641e+06 -7.437947e+02 -8.577251e+02
3.249099e+06 -8.338448e+02 -2.399808e+02
3.249132e+06 -7.488550e+02 -8.116817e+02
3.248618e+06 -8.394719e+02 -2.261957e+02
3.248651e+06 -7.539379e+02 -7.653470e+02
3.248165e+06 -8.451246e+02 -2.123231e+02
3.248199e+06 -7.590396e+02 -7.187168e+02
3.247742e+06 -8.507943e+02 -1.983632e+02
3.247775e+06 -7.641531e+02 -6.717877e+02
3.247346e+06 -8.564665e+02 -1.843173e+02
3.247380e+06 -7.692665e+02 -6.245578e+02
3.246980e+06 -8.621187e+02 -1.701880e+02
3.247015e+06 -7.743617e+02 -5.770265e+02
3.246643e+06 -8.677155e+02 -1.559801e+02
3.246678e+06 -7.794090e+02 -5.291965e+02
3.246336e+06 -8.732051e+02 -1.417002e+02
3.246370e+06 -7.843658e+02 -4.810745e+02
3.246057e+06 -8.785102e+02 -1.273598e+02
3.246092e+06 -7.891700e+02 -4.326740e+02
3.245809e+06 -8.835248e+02 -1.129757e+02
3.245844e+06 -7.937337e+02 -3.840157e+02
3.245590e+06 -8.881055e+02 -9.856936e+01
3.245625e+06 -7.979347e+02 -3.351327e+02
3.245401e+06 -8.920565e+02 -8.416885e+01
3.245436e+06 -8.016096e+02 -2.860753e+02
3.245242e+06 -8.951159e+02 -6.981265e+01
3.245277e+06 -8.045417e+02 -2.369111e+02
3.245099e+06 -8.974295e+02 7.994802e+01
3.245148e+06 -8.064506e+02 -1.877332e+02
3.245000e+06 -8.976559e+02 5.943891e+01
3.245048e+06 -8.069826e+02 -1.386628e+02
3.244943e+06 -8.952680e+02 -2.754862e+01
3.244978e+06 -8.057039e+02 -8.985075e+01
3.244890e+06 -8.911987e+02 1.928518e+01
3.244938e+06 -8.020997e+02 -4.147513e+01
3.244892e+06 -8.828290e+02 -7.026351e-01
3.244926e+06 -7.955903e+02 6.266213e+00
3.244909e+06 -8.710920e+02 1.213478e+01
3.244942e+06 -7.855666e+02 5.317326e+01
3.244954e+06 -8.549617e+02 2.454244e+01
3.244987e+06 -7.714613e+02 9.906321e+01
3.245026e+06 -8.340796e+02 3.652847e+01
3.245058e+06 -7.528555e+02 1.437836e+02
3.245125e+06 -8.083044e+02 4.812214e+01
3.245155e+06 -7.295772e+02 1.872077e+02
3.245249e+06 -7.777353e+02 5.935487e+01
3.245278e+06 -7.017461e+02 2.292104e+02
3.245358e+06 -7.453006e+02 6.529686e+01
3.245426e+06 -6.697434e+02 2.696443e+02
3.245570e+06 -7.036683e+02 8.075961e+01
3.245597e+06 -6.341175e+02 3.083319e+02
3.245765e+06 -6.612525e+02 9.086734e+01
3.245791e+06 -5.954763e+02 3.450738e+02
3.245972e+06 -6.164036e+02 -1.498930e+02
3.246006e+06 -5.544096e+02 3.796689e+02
3.246218e+06 -5.686384e+02 1.095827e+02
3.246241e+06 -5.114459e+02 4.119336e+02
3.246474e+06 -5.195141e+02 1.180504e+02
3.246495e+06 -4.670342e+02 4.417102e+02
3.246747e+06 -4.691030e+02 1.258413e+02
3.246766e+06 -4.215427e+02 4.688708e+02
3.247036e+06 -4.177468e+02 1.329043e+02
3.247053e+06 -3.752640e+02 4.933154e+02
3.247339e+06 -3.657157e+02 1.391987e+02
3.247353e+06 -3.284263e+02 5.149695e+02
3.247654e+06 -3.132146e+02 1.446930e+02
3.247666e+06 -2.812009e+02 5.337783e+02
3.247980e+06 -2.603962e+02 1.493630e+02
3.247990e+06 -2.337156e+02 5.497036e+02
3.248314e+06 -2.073736e+02 1.531907e+02
3.248323e+06 -1.860619e+02 5.627196e+02
3.248656e+06 -1.542244e+02 1.561652e+02
3.248662e+06 -1.383032e+02 5.728087e+02
3.249003e+06 -1.009958e+02 1.582775e+02
3.249007e+06 -9.048345e+01 5.799584e+02
3.249354e+06 -4.772045e+01 1.595186e+02
3.249355e+06 -4.263016e+01 5.841639e+02
3.249706e+06 5.578647e+00 1.598838e+02
3.249706e+06 5.243618e+00 5.854193e+02
3.250058e+06 5.889396e+01 1.593716e+02
3.250055e+06 5.313078e+01 5.837207e+02
3.250408e+06 1.122280e+02 1.579795e+02
3.250404e+06 1.010311e+02 5.790658e+02
3.250757e+06 1.656856e+02 -2.301228e+02
3.250748e+06 1.489495e+02 5.714509e+02
3.251099e+06 2.191046e+02 -2.255827e+02
3.251087e+06 1.968937e+02 5.608722e+02
3.251429e+06 2.724149e+02 1.485002e+02
3.251418e+06 2.448736e+02 5.473243e+02
3.251759e+06 3.260891e+02 -2.126785e+02
3.251741e+06 2.928988e+02 5.308011e+02
3.252067e+06 3.794698e+02 1.377444e+02
3.252052e+06 3.409778e+02 5.112957e+02
3.252368e+06 4.331045e+02 1.310315e+02
3.252351e+06 3.891153e+02 4.887996e+02
3.252654e+06 4.868082e+02 1.234289e+02
3.252634e+06 4.373094e+02 4.633058e+02
3.252923e+06 5.405634e+02 1.149404e+02
3.252902e+06 4.855469e+02 4.348071e+02
3.253175e+06 5.943362e+02 1.055715e+02
3.253151e+06 5.337962e+02 4.032986e+02
3.253406e+06 6.480552e+02 9.533109e+01
3.253380e+06 5.819987e+02 3.687842e+02
3.253626e+06 7.019842e+02 -1.272902e+02
3.253587e+06 6.300605e+02 3.312741e+02
3.253800e+06 7.547873e+02 7.231744e+01
3.253770e+06 6.778311e+02 2.907944e+02
3.253960e+06 8.073497e+02 5.961410e+01
3.253928e+06 7.250883e+02 2.473937e+02
3.254105e+06 8.593924e+02 -7.223734e+01
3.254058e+06 7.715098e+02 2.011527e+02
3.254195e+06 9.088798e+02 3.211808e+01
3.254159e+06 8.166455e+02 1.521967e+02
3.254268e+06 9.565593e+02 1.752190e+01
3.254230e+06 8.598773e+02 1.007100e+02
3.254309e+06 1.000946e+03 2.548250e+00
3.254270e+06 9.003770e+02 4.695608e+01
3.254317e+06 1.040761e+03 -1.261186e+01
3.254276e+06 9.370604e+02 -8.705882e+00
3.254290e+06 1.074386e+03 -2.772124e+01
3.254249e+06 9.685409e+02 -6.579964e+01
3.254229e+06 1.099854e+03 -4.250197e+01
3.254188e+06 9.930908e+02 -1.237219e+02
3.254134e+06 1.114850e+03 -5.664726e+01
3.254092e+06 1.008625e+03 -1.817404e+02
3.254004e+06 1.116803e+03 -6.985029e+01
3.253963e+06 1.012730e+03 -2.390181e+02
3.253841e+06 1.103060e+03 -8.184831e+01
3.253802e+06 1.002774e+03 -2.946703e+02
3.253647e+06 1.071167e+03 -9.248155e+01
3.253610e+06 9.761461e+02 -3.478489e+02
3.253424e+06 1.019208e+03 -1.017275e+02
3.253389e+06 9.306603e+02 -3.978223e+02
3.253173e+06 9.461163e+02 -1.096807e+02
3.253141e+06 8.650355e+02 -4.439936e+02
3.252898e+06 8.518521e+02 -1.164839e+02
3.252870e+06 7.792213e+02 -4.858284e+02
3.252601e+06 7.374116e+02 -1.222395e+02
3.252576e+06 6.744109e+02 -5.227408e+02
3.252285e+06 6.046613e+02 -1.269374e+02
3.252265e+06 5.527396e+02 -5.540167e+02
3.251954e+06 4.560344e+02 -1.304303e+02
3.251939e+06 4.168092e+02 -5.788212e+02
3.251616e+06 2.946150e+02 2.094356e+02
3.251601e+06 2.692671e+02 -5.962776e+02
3.251263e+06 1.219981e+02 2.108953e+02
3.251257e+06 1.125538e+02 -6.055515e+02
3.250908e+06 -5.906538e+01 -1.309400e+02
3.250911e+06 -5.122054e+01 -6.059116e+02
3.250555e+06 -2.461447e+02 2.037952e+02
3.250568e+06 -2.203107e+02 -5.967502e+02
3.250218e+06 -4.379303e+02 -1.200458e+02
3.250235e+06 -3.933256e+02 -5.775869e+02
3.249893e+06 -6.331624e+02 -1.104998e+02
3.249918e+06 -5.692040e+02 -5.480560e+02
3.249577e+06 -8.312703e+02 1.634410e+02
3.249622e+06 -7.471723e+02 -5.078802e+02
3.249314e+06 -1.030583e+03 -8.237044e+01
3.249354e+06 -9.267101e+02 -4.568475e+02
3.249072e+06 -1.231804e+03 -6.353169e+01
3.249121e+06 -1.107521e+03 -3.947905e+02
3.248852e+06 -1.435160e+03 8.257457e+01
3.248930e+06 -1.289520e+03 -3.215600e+02
3.248722e+06 -1.638762e+03 -1.574929e+01
3.248786e+06 -1.472815e+03 -2.369994e+02
3.248626e+06 -1.845031e+03 1.342790e+01
3.248699e+06 -1.657722e+03 -1.409239e+02
3.248592e+06 -2.053947e+03 4.631437e+01
3.248674e+06 -1.844770e+03 -3.309413e+01
3.248628e+06 -2.266459e+03 8.309019e+01
3.248719e+06 -2.034729e+03 8.681489e+01
3.248742e+06 -2.483848e+03 1.239789e+02
3.248841e+06 -2.228637e+03 2.192419e+02
3.248940e+06 -2.707764e+03 1.692604e+02
3.249050e+06 -2.427829e+03 3.647775e+02
3.249233e+06 -2.940268e+03 2.192819e+02
3.249352e+06 -2.633978e+03 5.242019e+02
3.249628e+06 -3.183837e+03 2.744639e+02
3.249758e+06 -2.849101e+03 6.985262e+02
3.250135e+06 -3.441380e+03 3.352979e+02
3.250278e+06 -3.075562e+03 8.890403e+02
3.250765e+06 -3.716174e+03 4.023469e+02
3.250921e+06 -3.316014e+03 1.097348e+03
3.251529e+06 -4.011699e+03 4.762255e+02
3.251700e+06 -3.573286e+03 1.325393e+03
3.252442e+06 -4.331354e+03 5.575546e+02
3.252629e+06 -3.850147e+03 1.575472e+03
3.253516e+06 -4.677981e+03 6.468903e+02
3.253722e+06 -4.148914e+03 1.850191e+03
3.254769e+06 -5.053092e+03 7.446066e+02
3.254995e+06 -4.470833e+03 2.152371e+03
3.256217e+06 -5.455698e+03 8.507145e+02
3.256466e+06 -4.815130e+03 2.484838e+03
3.257880e+06 -5.880591e+03 9.645965e+02
3.258153e+06 -5.177624e+03 2.850075e+03
3.259779e+06 -6.315905e+03 1.084629e+03
3.260076e+06 -5.548743e+03 3.249638e+03
3.261932e+06 -6.739735e+03 1.207667e+03
3.262253e+06 -5.910770e+03 3.683286e+03
3.264208e+06 -7.122743e+03 -1.881571e+03
3.264698e+06 -6.234083e+03 4.147688e+03
3.266902e+06 -7.395931e+03 -2.058379e+03
3.267420e+06 -6.472196e+03 4.634588e+03
3.270066e+06 -7.468096e+03 1.526011e+03
3.270416e+06 -6.555392e+03 5.128354e+03
3.273147e+06 -7.255911e+03 -2.327984e+03
3.273663e+06 -6.382849e+03 5.602896e+03
3.276838e+06 -6.540020e+03 1.566760e+03
3.277112e+06 -5.814024e+03 6.017941e+03
3.280481e+06 -5.160822e+03 1.486762e+03
3.280663e+06 -4.664475e+03 6.314339e+03
3.284222e+06 -2.626677e+03 -2.162106e+03
3.284327e+06 -2.683492e+03 6.413127e+03
3.291933e+06 5.653995e+03 -3.713919e+03
3.287456e+06 6.653833e+03 3.126921e+03
3.287261e+06 1.635407e+03 1.234857e+03
3.287715e+06 2.041369e+03 -1.686767e+03
3.293341e+06 5.658701e+03 3.405149e+03
3.284016e+06 -2.798191e+03 1.367519e+03
3.287299e+06 -6.276973e+02 -3.143497e+03
3.280344e+06 -5.156608e+03 -2.343987e+03
3.283260e+06 -3.883004e+03 -2.865227e+03
3.276650e+06 -6.559598e+03 -2.379353e+03
3.279388e+06 -5.727136e+03 -2.617304e+03
3.273337e+06 -7.239966e+03 1.574920e+03
3.275714e+06 -6.724966e+03 -2.380066e+03
3.269074e+06 -7.256863e+03 1.186059e+03
3.272276e+06 -7.149573e+03 -2.150136e+03
3.267068e+06 -7.386618e+03 1.438500e+03
3.269096e+06 -7.199834e+03 -1.926195e+03
3.264357e+06 -7.115619e+03 1.328383e+03
3.266196e+06 -7.015798e+03 -1.712786e+03
3.261798e+06 -6.745187e+03 -1.697459e+03
3.263583e+06 -6.695773e+03 -1.513574e+03
3.259660e+06 -6.320103e+03 -1.515517e+03
3.261250e+06 -6.306451e+03 -1.330480e+03
3.257775e+06 -5.883895e+03 -1.341515e+03
3.259185e+06 -5.891251e+03 -1.163874e+03
3.256123e+06 -5.458375e+03 -1.178582e+03
3.257367e+06 -5.477146e+03 -1.013104e+03
3.254684e+06 -5.055336e+03 -1.028070e+03
3.255779e+06 -5.079584e+03 -8.769717e+02
3.253440e+06 -4.679927e+03 -8.901973e+02
3.254401e+06 -4.706255e+03 -7.540351e+02
3.252373e+06 -4.333095e+03 -7.645146e+02
3.253213e+06 -4.359814e+03 -6.428146e+02
3.251467e+06 -4.013296e+03 -6.502220e+02
3.252199e+06 -4.039830e+03 -5.419204e+02
3.250708e+06 -3.717666e+03 -5.463762e+02
3.251342e+06 -3.744122e+03 -4.501149e+02
3.250083e+06 -3.442781e+03 -4.520223e+02
3.250628e+06 -3.469659e+03 -3.663383e+02
3.249571e+06 -2.995014e+03 1.158446e+02
3.250045e+06 -3.213157e+03 -2.897166e+02
3.249216e+06 -2.762881e+03 7.673485e+01
3.249580e+06 -2.971364e+03 -2.195431e+02
3.248900e+06 -2.708949e+03 -2.174734e+02
3.249224e+06 -2.741325e+03 -1.552501e+02
3.248705e+06 -2.484966e+03 -1.532124e+02
3.248967e+06 -2.520531e+03 -9.640510e+01
3.248595e+06 -2.267501e+03 -9.506434e+01
3.248800e+06 -2.306842e+03 -4.268749e+01
3.248562e+06 -2.054906e+03 -4.266607e+01
3.248715e+06 -2.098492e+03 6.147115e+00
3.248598e+06 -1.845901e+03 4.265527e+00
3.248703e+06 -1.894101e+03 5.027747e+01
3.248697e+06 -1.639537e+03 4.595338e+01
3.248758e+06 -1.692620e+03 8.982877e+01
3.248873e+06 -1.434483e+03 -4.136176e+01
3.248871e+06 -1.493295e+03 1.248895e+02
3.249054e+06 -1.232378e+03 1.142759e+02
3.249037e+06 -1.295636e+03 1.555228e+02
3.249298e+06 -1.031048e+03 1.411884e+02
3.249247e+06 -1.099391e+03 1.817758e+02
3.249589e+06 -8.309190e+02 -9.798695e+01
3.249496e+06 -9.045410e+02 2.036882e+02
3.249884e+06 -6.333989e+02 1.811746e+02
3.249776e+06 -7.113026e+02 2.213017e+02
3.250403e+06 -3.344699e+02 -1.684718e+02
3.250081e+06 -5.201329e+02 2.346701e+02
3.250559e+06 -2.461483e+02 -1.267905e+02
3.250404e+06 -3.317570e+02 2.438725e+02
3.250908e+06 -5.891730e+01 2.091381e+02
3.250739e+06 -1.472131e+02 2.490049e+02
3.251261e+06 1.217089e+02 -1.327380e+02
3.251082e+06 3.212925e+01 2.502019e+02
3.251611e+06 2.941875e+02 -1.324654e+02
3.251424e+06 2.045386e+02 2.476551e+02
3.251962e+06 4.566002e+02 2.051664e+02
3.251763e+06 3.679081e+02 2.416057e+02
3.252295e+06 6.053589e+02 1.985034e+02
3.252093e+06 5.198098e+02 2.323428e+02
3.252613e+06 7.382277e+02 1.898148e+02
3.252410e+06 6.576064e+02 2.201987e+02
3.252911e+06 8.527645e+02 1.793534e+02
3.252711e+06 7.786767e+02 2.055247e+02
3.253188e+06 9.470972e+02 1.672157e+02
3.252992e+06 8.807544e+02 1.886630e+02
3.253439e+06 1.020224e+03 1.533664e+02
3.253251e+06 9.623035e+02 1.699260e+02
3.253664e+06 1.072187e+03 1.377235e+02
3.253485e+06 1.022807e+03 1.496041e+02
3.253858e+06 1.104053e+03 1.202618e+02
3.253691e+06 1.062866e+03 1.279870e+02
3.254017e+06 1.095575e+03 -5.098195e+01
3.253868e+06 1.084081e+03 1.053934e+02
3.254129e+06 1.086571e+03 -3.521977e+01
3.254014e+06 1.088750e+03 8.217030e+01
3.254246e+06 1.100677e+03 5.881660e+01
3.254127e+06 1.079493e+03 5.866840e+01
3.254307e+06 1.075148e+03 3.650556e+01
3.254206e+06 1.058941e+03 3.522108e+01
3.254333e+06 1.041460e+03 1.395994e+01
3.254251e+06 1.029502e+03 1.212169e+01
3.254325e+06 1.001589e+03 -8.459804e+00
3.254262e+06 9.932515e+02 -1.039032e+01
3.254283e+06 9.571485e+02 -3.045104e+01
3.254240e+06 9.519171e+02 -3.212885e+01
3.254209e+06 9.094203e+02 -5.177220e+01
3.254186e+06 9.068805e+02 -5.295336e+01
3.254092e+06 8.588953e+02 4.618643e+01
3.254100e+06 8.592189e+02 -7.276290e+01
3.253972e+06 8.078062e+02 -9.170747e+01
3.253985e+06 8.097504e+02 -9.148844e+01
3.253812e+06 7.552072e+02 -1.100820e+02
3.253841e+06 7.590815e+02 -1.090837e+02
3.253615e+06 7.015996e+02 8.423671e+01
3.253672e+06 7.076514e+02 -1.255208e+02
3.253416e+06 6.484111e+02 -1.432841e+02
3.253477e+06 6.557704e+02 -1.407826e+02
3.253023e+06 5.556002e+02 1.090559e+02
3.253260e+06 6.036457e+02 -1.548627e+02
3.252765e+06 5.029632e+02 1.163470e+02
3.253021e+06 5.514162e+02 -1.677629e+02
3.252661e+06 4.870734e+02 -1.837299e+02
3.252764e+06 4.991798e+02 -1.794823e+02
3.252374e+06 4.333385e+02 -1.946604e+02
3.252489e+06 4.469803e+02 -1.900194e+02
3.252073e+06 3.796774e+02 -2.043097e+02
3.252198e+06 3.948371e+02 -1.993815e+02
3.251754e+06 3.259088e+02 1.435669e+02
3.251893e+06 3.427635e+02 -2.075748e+02
3.251433e+06 2.725683e+02 -2.197688e+02
3.251577e+06 2.907566e+02 -2.146017e+02
3.251096e+06 2.189780e+02 1.525455e+02
3.251251e+06 2.388087e+02 -2.204660e+02
3.250755e+06 1.655862e+02 1.557047e+02
3.250916e+06 1.869086e+02 -2.251705e+02
3.250410e+06 1.123001e+02 -2.333916e+02
3.250575e+06 1.350449e+02 -2.287173e+02
3.250059e+06 5.893886e+01 -2.353915e+02
3.250229e+06 8.320774e+01 -2.311082e+02
3.249706e+06 5.595423e+00 -2.361247e+02
3.249880e+06 3.138971e+01 -2.323445e+02
3.249353e+06 -4.772609e+01 -2.355946e+02
3.249531e+06 -2.041188e+01 -2.324253e+02
3.248836e+06 -1.248807e+02 1.472188e+02
3.249182e+06 -7.219972e+01 -2.313532e+02
3.248494e+06 -1.769682e+02 1.451092e+02
3.248836e+06 -1.239577e+02 -2.291332e+02
3.248311e+06 -2.074637e+02 -2.264702e+02
3.248494e+06 -1.756490e+02 -2.257618e+02
3.247976e+06 -2.605204e+02 -2.209415e+02
3.248159e+06 -2.272477e+02 -2.212362e+02
3.247649e+06 -3.133675e+02 -2.141918e+02
3.247831e+06 -2.786984e+02 -2.155649e+02
3.247333e+06 -3.658988e+02 -2.062417e+02
3.247513e+06 -3.299045e+02 -2.087556e+02
3.247030e+06 -4.179616e+02 -1.971204e+02
3.247207e+06 -3.807436e+02 -2.008160e+02
3.246740e+06 -4.693499e+02 -1.868669e+02
3.246914e+06 -4.310463e+02 -1.917599e+02
3.246466e+06 -5.197952e+02 -1.755324e+02
3.246635e+06 -4.805878e+02 -1.816085e+02
3.246210e+06 -5.689539e+02 -1.631818e+02
3.246373e+06 -5.290762e+02 -1.703906e+02
3.245982e+06 -6.160521e+02 1.004988e+02
3.246129e+06 -5.761438e+02 -1.581453e+02
3.245755e+06 -6.616397e+02 -1.357561e+02
3.245905e+06 -6.213425e+02 -1.449229e+02
3.245559e+06 -7.040883e+02 -1.208677e+02
3.245701e+06 -6.641448e+02 -1.307855e+02
3.245519e+06 -7.039662e+02 -1.158075e+02
3.245397e+06 -7.426925e+02 7.024009e+01
3.245223e+06 -7.775567e+02 5.468232e+01
3.245360e+06 -7.401940e+02 -1.000701e+02
3.245113e+06 -8.088061e+02 -7.249790e+01
3.245225e+06 -7.722620e+02 -8.365107e+01
3.245014e+06 -8.345982e+02 -5.526697e+01
3.245115e+06 -7.997427e+02 -6.662438e+01
3.244941e+06 -8.554874e+02 -3.747483e+01
3.245031e+06 -8.224080e+02 -4.906120e+01
3.244896e+06 -8.716174e+02 -1.910630e+01
3.244974e+06 -8.402782e+02 -3.102727e+01
3.244878e+06 -8.833490e+02 -1.710556e-01
3.244943e+06 -8.536242e+02 -1.259136e+01
3.244903e+06 -8.906890e+02 -1.394710e+01
3.244941e+06 -8.629108e+02 6.170680e+00
3.244930e+06 -8.957658e+02 3.918624e+01
3.244967e+06 -8.687153e+02 2.517737e+01
3.245013e+06 -8.971701e+02 -4.144004e+01
3.245022e+06 -8.716470e+02 4.435039e+01
3.245112e+06 -8.969566e+02 -5.555031e+01
3.245107e+06 -8.722838e+02 6.361908e+01
3.245228e+06 -8.955777e+02 1.006259e+02
3.245221e+06 -8.711388e+02 8.292305e+01
3.245387e+06 -8.925101e+02 1.213969e+02
3.245365e+06 -8.686467e+02 1.022143e+02
3.245740e+06 -8.673822e+02 -8.800614e+01
3.245539e+06 -8.651560e+02 1.214561e+02
3.245974e+06 -8.626545e+02 -9.991735e+01
3.245743e+06 -8.609464e+02 1.406260e+02
3.246044e+06 -8.789367e+02 1.837231e+02
3.245976e+06 -8.562456e+02 1.597037e+02
3.246323e+06 -8.736213e+02 2.043802e+02
3.246239e+06 -8.512088e+02 1.786729e+02
3.246630e+06 -8.681262e+02 2.249398e+02
3.246532e+06 -8.459462e+02 1.975281e+02
3.246968e+06 -8.625233e+02 2.453896e+02
3.246854e+06 -8.405488e+02 2.162669e+02
3.247334e+06 -8.568657e+02 2.657212e+02
3.247205e+06 -8.350759e+02 2.348860e+02
3.247729e+06 -8.511877e+02 2.859295e+02
3.247586e+06 -8.295687e+02 2.533854e+02
3.248153e+06 -8.455125e+02 3.060122e+02
3.247995e+06 -8.240537e+02 2.717656e+02
3.248606e+06 -8.398544e+02 3.259682e+02
3.248433e+06 -8.185486e+02 2.900278e+02
3.249087e+06 -8.342223e+02 3.457977e+02
3.248899e+06 -8.130637e+02 3.081736e+02
3.249596e+06 -8.286202e+02 3.655016e+02
3.249394e+06 -8.076048e+02 3.262051e+02
3.250146e+06 -8.226829e+02 -2.672920e+02
3.249917e+06 -8.021771e+02 3.441212e+02
3.251045e+06 -7.973694e+02 -2.369078e+02
3.250468e+06 -7.967686e+02 3.619259e+02
3.251292e+06 -8.120363e+02 4.238727e+02
3.251047e+06 -7.913877e+02 3.796294e+02
3.251925e+06 -8.061953e+02 -3.076140e+02
3.251654e+06 -7.860664e+02 3.972274e+02
3.252561e+06 -8.011118e+02 4.621881e+02
3.252288e+06 -7.807785e+02 4.147123e+02
3.253237e+06 -7.957058e+02 4.811698e+02
3.252950e+06 -7.755040e+02 4.320934e+02
3.253940e+06 -7.903196e+02 5.000350e+02
3.253639e+06 -7.702538e+02 4.493763e+02
3.254670e+06 -7.849422e+02 5.187830e+02
3.254355e+06 -7.650175e+02 4.665591e+02
3.255427e+06 -7.795528e+02 5.374115e+02
3.255098e+06 -7.597803e+02 4.836438e+02
3.256210e+06 -7.741196e+02 5.559159e+02
3.255868e+06 -7.545179e+02 5.006306e+02
3.257032e+06 -7.682749e+02 -3.987782e+02
3.256665e+06 -7.491923e+02 5.175199e+02
3.257857e+06 -7.629058e+02 5.925191e+02
3.257488e+06 -7.437486e+02 5.343099e+02
3.258732e+06 -7.566413e+02 -4.239566e+02
3.258337e+06 -7.381051e+02 5.509965e+02
3.259621e+06 -7.502824e+02 -4.363430e+02
3.259213e+06 -7.321509e+02 5.675687e+02
3.261040e+06 -7.240160e+02 -3.745921e+02
3.260115e+06 -7.257082e+02 5.840183e+02
3.261993e+06 -7.158604e+02 -3.847481e+02
3.261042e+06 -7.185818e+02 6.003405e+02
3.262431e+06 -7.268742e+02 6.805760e+02
3.261995e+06 -7.105450e+02 6.164985e+02
3.263422e+06 -7.163013e+02 6.972272e+02
3.262973e+06 -7.012033e+02 6.324424e+02
3.264438e+06 -7.036525e+02 7.133801e+02
3.263976e+06 -6.900934e+02 6.481365e+02
3.265478e+06 -6.883328e+02 7.289332e+02
3.265003e+06 -6.767131e+02 6.635246e+02
3.266540e+06 -6.696986e+02 7.437828e+02
3.266053e+06 -6.604552e+02 6.785287e+02
3.267626e+06 -6.470942e+02 7.578386e+02
3.267125e+06 -6.406667e+02 6.930641e+02
3.268732e+06 -6.199241e+02 7.710396e+02
3.268220e+06 -6.167041e+02 7.070430e+02
3.269859e+06 -5.877419e+02 7.833639e+02
3.269335e+06 -5.880186e+02 7.203795e+02
3.271005e+06 -5.503210e+02 7.948205e+02
3.270469e+06 -5.542502e+02 7.329958e+02
3.272169e+06 -5.076952e+02 8.054277e+02
3.271621e+06 -5.152943e+02 7.448183e+02
3.273349e+06 -4.601661e+02 8.151877e+02
3.272790e+06 -4.713274e+02 7.557682e+02
3.275174e+06 -3.727450e+02 -4.874572e+02
3.273975e+06 -4.227395e+02 7.657695e+02
3.275175e+06 -3.701320e+02 7.747507e+02
3.275760e+06 -3.522808e+02 -5.737496e+02
3.276976e+06 -2.935034e+02 8.388778e+02
3.276386e+06 -3.142148e+02 7.826079e+02
3.278208e+06 -2.320571e+02 8.446040e+02
3.277609e+06 -2.555817e+02 7.892399e+02
3.279451e+06 -1.686929e+02 -5.850779e+02
3.278842e+06 -1.947939e+02 7.945906e+02
3.280696e+06 -1.038216e+02 8.522016e+02
3.280082e+06 -1.323865e+02 7.986059e+02
3.281947e+06 -3.788697e+01 8.539083e+02
3.281327e+06 -6.877395e+01 8.012333e+02
3.283201e+06 2.882110e+01 8.541352e+02
3.282575e+06 -4.289229e+00 8.024370e+02
3.284454e+06 9.606704e+01 8.528360e+02
3.283824e+06 6.081020e+01 8.021908e+02
3.285705e+06 1.636751e+02 8.499762e+02
3.285072e+06 1.263298e+02 8.004765e+02
3.286952e+06 2.315163e+02 8.455293e+02
3.286317e+06 1.921256e+02 7.972805e+02
3.288187e+06 2.992064e+02 -5.780556e+02
3.287555e+06 2.580959e+02 7.925946e+02
3.289422e+06 3.675685e+02 8.318055e+02
3.288786e+06 3.241696e+02 7.864120e+02
3.290633e+06 4.353144e+02 -5.662478e+02
3.290006e+06 3.902979e+02 7.787242e+02
3.291213e+06 4.564762e+02 7.695334e+02
3.291836e+06 5.034199e+02 -5.586416e+02
3.293580e+06 5.931378e+02 -4.711092e+02
3.292404e+06 5.226664e+02 7.588526e+02
3.294201e+06 6.400716e+02 7.847766e+02
3.293578e+06 5.888103e+02 7.466641e+02
3.295348e+06 7.082328e+02 7.689094e+02
3.294732e+06 6.549624e+02 7.329505e+02
3.296472e+06 7.763945e+02 7.513927e+02
3.295863e+06 7.211488e+02 7.177262e+02
3.297569e+06 8.445802e+02 7.322231e+02
3.296969e+06 7.873488e+02 7.009941e+02
3.298638e+06 9.128006e+02 7.113970e+02
3.298048e+06 8.535756e+02 6.827459e+02
3.299676e+06 9.810660e+02 6.889121e+02
3.299097e+06 9.198399e+02 6.629783e+02
3.300680e+06 1.049384e+03 6.647660e+02
3.300114e+06 9.861507e+02 6.416878e+02
3.301649e+06 1.117758e+03 6.389567e+02
3.301096e+06 1.052513e+03 6.188706e+02
3.302579e+06 1.186183e+03 6.114837e+02
3.302041e+06 1.118927e+03 5.945227e+02
3.303468e+06 1.254640e+03 5.823484e+02
3.302946e+06 1.185383e+03 5.686397e+02
3.304314e+06 1.323079e+03 5.515573e+02
3.303809e+06 1.251851e+03 5.412149e+02
3.305403e+06 1.395005e+03 -3.060924e+02
3.304628e+06 1.318294e+03 5.122502e+02
3.306126e+06 1.461544e+03 -2.860893e+02
3.305399e+06 1.384608e+03 4.817539e+02
3.306567e+06 1.527396e+03 4.494027e+02
3.306121e+06 1.450627e+03 4.497178e+02
3.307191e+06 1.593601e+03 -2.812573e+02
3.306792e+06 1.516181e+03 4.161428e+02
3.307808e+06 1.660671e+03 3.735175e+02
3.307408e+06 1.580975e+03 3.810581e+02
3.308343e+06 1.725248e+03 3.334575e+02
3.307967e+06 1.644568e+03 3.444969e+02
3.308791e+06 1.786485e+03 -1.983270e+02
3.308468e+06 1.706381e+03 3.065034e+02
3.309231e+06 1.846698e+03 2.497770e+02
3.308908e+06 1.765635e+03 2.671492e+02
3.309581e+06 1.901434e+03 2.065601e+02
3.309286e+06 1.821313e+03 2.265355e+02
3.309865e+06 1.950287e+03 1.627776e+02
3.309599e+06 1.872124e+03 1.848008e+02
3.310083e+06 1.991466e+03 1.187498e+02
3.309847e+06 1.916483e+03 1.421253e+02
3.310233e+06 2.022938e+03 7.482025e+01
3.310029e+06 1.952519e+03 9.873404e+01
3.310285e+06 2.041117e+03 -2.082716e+01
3.310145e+06 1.978138e+03 5.489087e+01
3.310182e+06 2.002938e+03 2.135123e+01
3.310194e+06 1.991170e+03 1.088600e+01
3.310250e+06 2.036593e+03 3.569737e+01
3.310176e+06 1.989609e+03 -3.299321e+01
3.310134e+06 2.009694e+03 6.298909e+01
3.310094e+06 1.971949e+03 -7.648001e+01
3.309984e+06 1.967140e+03 -1.351077e+02
3.309948e+06 1.937447e+03 -1.193257e+02
3.309740e+06 1.906637e+03 -1.747959e+02
3.309739e+06 1.886267e+03 -1.612918e+02
3.309434e+06 1.830996e+03 -2.137078e+02
3.309468e+06 1.819463e+03 -2.021285e+02
3.309068e+06 1.742123e+03 -2.516622e+02
3.309137e+06 1.738764e+03 -2.415577e+02
3.308644e+06 1.642167e+03 -2.883718e+02
3.308748e+06 1.646266e+03 -2.792879e+02
3.308165e+06 1.533270e+03 -3.234987e+02
3.308303e+06 1.544133e+03 -3.150391e+02
3.307634e+06 1.417385e+03 -3.567060e+02
3.307805e+06 1.434390e+03 -3.485620e+02
3.307055e+06 1.296192e+03 -3.876894e+02
3.307257e+06 1.318806e+03 -3.796503e+02
3.306431e+06 1.171076e+03 -4.161924e+02
3.306664e+06 1.198856e+03 -4.081415e+02
3.305767e+06 1.043133e+03 -4.420089e+02
3.306028e+06 1.075726e+03 -4.339139e+02
3.305068e+06 9.132204e+02 -4.649801e+02
3.305355e+06 9.503411e+02 -4.568772e+02
3.303913e+06 7.006385e+02 3.191483e+02
3.304647e+06 8.233900e+02 -4.769750e+02
3.303152e+06 5.710326e+02 3.280786e+02
3.303911e+06 6.953973e+02 -4.941791e+02
3.302797e+06 5.171245e+02 -5.158109e+02
3.303150e+06 5.667664e+02 -5.084584e+02
3.301999e+06 3.841109e+02 -5.265211e+02
3.302369e+06 4.377354e+02 -5.197885e+02
3.301183e+06 2.507413e+02 3.606572e+02
3.301572e+06 3.084675e+02 -5.281752e+02
3.300367e+06 1.176972e+02 -5.384156e+02
3.300765e+06 1.790931e+02 -5.336228e+02
3.299543e+06 -1.556229e+01 -5.395768e+02
3.299952e+06 4.967900e+01 -5.361310e+02
3.298723e+06 -1.487975e+02 3.630706e+02
3.299137e+06 -7.973764e+01 -5.357040e+02
3.297903e+06 -2.820452e+02 -5.323066e+02
3.298326e+06 -2.091421e+02 -5.323470e+02
3.297096e+06 -4.152685e+02 -5.238748e+02
3.297522e+06 -3.385348e+02 -5.260644e+02
3.296304e+06 -5.484970e+02 -5.122463e+02
3.296731e+06 -4.679263e+02 -5.168605e+02
3.295531e+06 -6.817494e+02 -4.974213e+02
3.295957e+06 -5.973327e+02 -5.047376e+02
3.294782e+06 -8.150371e+02 -4.794015e+02
3.295204e+06 -7.267711e+02 -4.896949e+02
3.294478e+06 -8.562708e+02 -4.717367e+02
3.294076e+06 -9.479665e+02 3.079294e+02
3.293120e+06 -1.123868e+03 2.774080e+02
3.293783e+06 -9.858347e+02 -4.508704e+02
3.292743e+06 -1.214744e+03 2.717814e+02
3.293123e+06 -1.115447e+03 -4.270834e+02
3.292138e+06 -1.348222e+03 2.503902e+02
3.292503e+06 -1.245127e+03 -4.003645e+02
3.291558e+06 -1.482439e+03 -3.414254e+02
3.291929e+06 -1.374850e+03 -3.707210e+02
3.291050e+06 -1.615917e+03 -3.042920e+02
3.291403e+06 -1.504539e+03 -3.381524e+02
3.290598e+06 -1.749166e+03 -2.640167e+02
3.290931e+06 -1.634089e+03 -3.026546e+02
3.290206e+06 -1.881959e+03 -2.206387e+02
3.290518e+06 -1.763324e+03 -2.642300e+02
3.289880e+06 -2.013955e+03 -1.742170e+02
3.290168e+06 -1.891979e+03 -2.228875e+02
3.289624e+06 -2.144664e+03 -1.248386e+02
3.289885e+06 -2.019662e+03 -1.786462e+02
3.289441e+06 -2.273403e+03 -7.262730e+01
3.289674e+06 -2.145824e+03 -1.315402e+02
3.289337e+06 -2.399240e+03 -1.775407e+01
3.289539e+06 -2.269701e+03 -8.162478e+01
3.289315e+06 -2.520940e+03 3.955091e+01
3.289484e+06 -2.390268e+03 -2.898618e+01
3.289623e+06 -2.634679e+03 -4.306772e+01
3.289514e+06 -2.506172e+03 2.625058e+01
3.289830e+06 -2.736157e+03 -8.122925e+01
3.289630e+06 -2.615685e+03 8.391622e+01
3.289782e+06 -2.843123e+03 2.227271e+02
3.289838e+06 -2.716684e+03 1.437834e+02
3.290124e+06 -2.928099e+03 2.860983e+02
3.290138e+06 -2.806590e+03 2.055524e+02
3.290563e+06 -2.996911e+03 3.498141e+02
3.290534e+06 -2.882434e+03 2.688674e+02
3.291101e+06 -3.046389e+03 4.134516e+02
3.291026e+06 -2.941057e+03 3.333293e+02
3.291784e+06 -3.071664e+03 -3.324882e+02
3.291615e+06 -2.979366e+03 3.985167e+02
3.292472e+06 -3.076753e+03 5.395827e+02
3.292301e+06 -2.994765e+03 4.640262e+02
3.293306e+06 -3.054569e+03 6.020500e+02
3.293084e+06 -2.985606e+03 5.294907e+02
3.294282e+06 -3.005481e+03 -4.569797e+02
3.293965e+06 -2.951514e+03 5.945667e+02
3.295265e+06 -2.936842e+03 7.261344e+02
3.294941e+06 -2.893450e+03 6.589034e+02
3.296390e+06 -2.845270e+03 7.875832e+02
3.296013e+06 -2.813533e+03 7.221154e+02
3.297609e+06 -2.735748e+03 8.482240e+02
3.297179e+06 -2.714636e+03 7.837844e+02
3.298920e+06 -2.611481e+03 9.075863e+02
3.298437e+06 -2.599938e+03 8.434834e+02
3.301213e+06 -2.352400e+03 -6.078836e+02
3.299785e+06 -2.472509e+03 9.008279e+02
3.301843e+06 -2.329178e+03 -6.975523e+02
3.301219e+06 -2.335160e+03 9.555041e+02
3.303375e+06 -2.178513e+03 1.073148e+03
3.302737e+06 -2.190353e+03 1.007225e+03
3.305050e+06 -2.020744e+03 -7.678106e+02
3.304333e+06 -2.039996e+03 1.055754e+03
3.306764e+06 -1.860488e+03 -7.997640e+02
3.306003e+06 -1.885607e+03 1.100953e+03
3.308519e+06 -1.698473e+03 1.211970e+03
3.307743e+06 -1.728420e+03 1.142717e+03
3.310364e+06 -1.534036e+03 1.251159e+03
3.309546e+06 -1.569336e+03 1.180961e+03
3.312264e+06 -1.368569e+03 1.286580e+03
3.311408e+06 -1.409018e+03 1.215630e+03
3.314215e+06 -1.202486e+03 1.318152e+03
3.313323e+06 -1.247939e+03 1.246690e+03
3.316210e+06 -1.036075e+03 1.345819e+03
3.315285e+06 -1.086430e+03 1.274119e+03
3.318244e+06 -8.695196e+02 1.369542e+03
3.317289e+06 -9.247084e+02 1.297902e+03
3.320312e+06 -7.029363e+02 1.389295e+03
3.319330e+06 -7.629166e+02 1.318030e+03
3.322407e+06 -5.363878e+02 1.405057e+03
3.321400e+06 -6.011361e+02 1.334497e+03
3.324524e+06 -3.699278e+02 1.416818e+03
3.323495e+06 -4.394142e+02 1.347287e+03
3.327736e+06 -1.174195e+02 -8.631749e+02
3.325609e+06 -2.777220e+02 1.356404e+03
3.329871e+06 4.536065e+01 -8.642801e+02
3.327736e+06 -1.160887e+02 1.361870e+03
3.330945e+06 1.291701e+02 1.427996e+03
3.329870e+06 4.540749e+01 1.363652e+03
3.333090e+06 2.955019e+02 1.423657e+03
3.332005e+06 2.068776e+02 1.361710e+03
3.335227e+06 4.618224e+02 1.415273e+03
3.334135e+06 3.683882e+02 1.356063e+03
3.337350e+06 6.281805e+02 1.402836e+03
3.336255e+06 5.299127e+02 1.346711e+03
3.339442e+06 7.938414e+02 -9.500438e+02
3.338358e+06 6.914749e+02 1.333631e+03
3.341531e+06 9.610510e+02 1.365770e+03
3.340438e+06 8.530839e+02 1.316810e+03
3.343577e+06 1.127544e+03 1.341133e+03
3.342489e+06 1.014732e+03 1.296233e+03
3.345566e+06 1.293012e+03 -8.986853e+02
3.344505e+06 1.176385e+03 1.271889e+03
3.347550e+06 1.460361e+03 1.279662e+03
3.346481e+06 1.337971e+03 1.243765e+03
3.349464e+06 1.626408e+03 1.242862e+03
3.348409e+06 1.499364e+03 1.211853e+03
3.351321e+06 1.791864e+03 1.202071e+03
3.350284e+06 1.660353e+03 1.176143e+03
3.353857e+06 1.994370e+03 -6.957453e+02
3.352100e+06 1.820655e+03 1.136650e+03
3.355537e+06 2.152759e+03 -6.662537e+02
3.353851e+06 1.979768e+03 1.093416e+03
3.356497e+06 2.279809e+03 1.056614e+03
3.355530e+06 2.136965e+03 1.046458e+03
3.358032e+06 2.435179e+03 -6.832770e+02
3.357133e+06 2.291401e+03 9.958246e+02
3.359557e+06 2.588811e+03 9.420860e+02
3.358652e+06 2.441859e+03 9.416489e+02
3.360911e+06 2.731970e+03 -6.006570e+02
3.360084e+06 2.586667e+03 8.840958e+02
3.362209e+06 2.867502e+03 -5.569955e+02
3.361424e+06 2.723747e+03 8.233771e+02
3.363454e+06 2.992832e+03 7.504311e+02
3.362666e+06 2.850522e+03 7.597835e+02
3.364551e+06 3.100567e+03 6.832122e+02
3.363808e+06 2.963938e+03 6.936803e+02
3.365542e+06 3.189133e+03 6.152232e+02
3.364846e+06 3.060568e+03 6.254991e+02
3.366425e+06 3.255118e+03 5.468738e+02
3.365779e+06 3.136863e+03 5.557130e+02
3.367200e+06 3.295721e+03 4.783720e+02
3.366605e+06 3.189573e+03 4.847956e+02
3.367864e+06 3.309220e+03 4.097261e+02
3.367323e+06 3.216281e+03 4.131863e+02
3.368419e+06 3.295270e+03 3.408421e+02
3.367932e+06 3.215874e+03 3.412837e+02
3.368832e+06 3.158350e+03 -1.183701e+02
3.368432e+06 3.188776e+03 2.694824e+02
3.369116e+06 3.084352e+03 -7.276814e+01
3.368824e+06 3.136827e+03 1.982033e+02
3.369420e+06 3.105633e+03 1.330815e+02
3.369107e+06 3.062945e+03 1.279008e+02
3.369536e+06 3.003308e+03 6.449746e+01
3.369283e+06 2.970633e+03 5.905786e+01
3.369547e+06 2.887189e+03 -2.890393e+00
3.369353e+06 2.863418e+03 -7.859675e+00
3.369455e+06 2.760402e+03 -6.853538e+01
3.369320e+06 2.744539e+03 -7.245035e+01
3.369224e+06 2.623975e+03 8.113473e+01
3.369187e+06 2.616805e+03 -1.343849e+02
3.368980e+06 2.484949e+03 -1.927296e+02
3.368959e+06 2.482529e+03 -1.934057e+02
3.368606e+06 2.340138e+03 -2.505525e+02
3.368639e+06 2.343550e+03 -2.493212e+02
3.368114e+06 2.191144e+03 2.005489e+02
3.368232e+06 2.201283e+03 -3.019950e+02
3.367610e+06 2.042878e+03 -3.564140e+02
3.367743e+06 2.056791e+03 -3.513342e+02
3.366998e+06 1.892082e+03 -4.041442e+02
3.367178e+06 1.910849e+03 -3.972787e+02
3.366318e+06 1.740559e+03 -4.482756e+02
3.366542e+06 1.764010e+03 -4.397927e+02
3.365575e+06 1.588649e+03 -4.887500e+02
3.365841e+06 1.616658e+03 -4.788534e+02
3.364267e+06 1.331314e+03 3.536113e+02
3.365079e+06 1.469032e+03 -5.144559e+02
3.363402e+06 1.182457e+03 3.715049e+02
3.364263e+06 1.321297e+03 -5.466120e+02
3.363026e+06 1.132270e+03 -5.879470e+02
3.363398e+06 1.173582e+03 -5.753167e+02
3.362088e+06 9.801985e+02 -6.135616e+02
3.362490e+06 1.025915e+03 -6.005623e+02
3.361102e+06 8.276618e+02 4.295667e+02
3.361544e+06 8.782958e+02 -6.223663e+02
3.360113e+06 6.762783e+02 -6.536096e+02
3.360567e+06 7.307408e+02 -6.407419e+02
3.359079e+06 5.240087e+02 4.522108e+02
3.359562e+06 5.832346e+02 -6.556922e+02
3.358037e+06 3.722264e+02 4.596575e+02
3.358537e+06 4.357576e+02 -6.672229e+02
3.356986e+06 2.206626e+02 -6.857794e+02
3.357496e+06 2.882870e+02 -6.753395e+02
3.355921e+06 6.877102e+01 -6.890777e+02
3.356445e+06 1.408002e+02 -6.800462e+02
3.354855e+06 -8.316232e+01 -6.886701e+02
3.355389e+06 -6.721816e+00 -6.813459e+02
3.353793e+06 -2.351457e+02 -6.845605e+02
3.354335e+06 -1.542912e+02 -6.792407e+02
3.352740e+06 -3.871589e+02 -6.767555e+02
3.353286e+06 -3.019065e+02 -6.737274e+02
3.351230e+06 -6.017580e+02 4.196289e+02
3.352250e+06 -4.495692e+02 -6.648126e+02
3.350233e+06 -7.504155e+02 4.098080e+02
3.351231e+06 -5.972209e+02 -6.525100e+02
3.349690e+06 -8.430015e+02 -6.312924e+02
3.350236e+06 -7.447445e+02 -6.368087e+02
3.348728e+06 -9.944935e+02 -6.088627e+02
3.349268e+06 -8.920451e+02 -6.177006e+02
3.347802e+06 -1.145364e+03 -5.828678e+02
3.348333e+06 -1.038927e+03 -5.952112e+02
3.346918e+06 -1.295233e+03 -5.533803e+02
3.347438e+06 -1.185060e+03 -5.693638e+02
3.346080e+06 -1.443549e+03 -5.205029e+02
3.346587e+06 -1.330003e+03 -5.401851e+02
3.345318e+06 -1.588703e+03 3.252918e+02
3.345784e+06 -1.473141e+03 -5.077240e+02
3.344565e+06 -1.732236e+03 -4.451958e+02
3.345036e+06 -1.613636e+03 -4.720540e+02
3.343898e+06 -1.870279e+03 -4.032039e+02
3.344347e+06 -1.750383e+03 -4.332809e+02
3.343326e+06 -2.000846e+03 2.393056e+02
3.343721e+06 -1.881960e+03 -3.915513e+02
3.342764e+06 -2.125443e+03 -3.120808e+02
3.343163e+06 -2.006592e+03 -3.470601e+02
3.342306e+06 -2.238179e+03 -2.637222e+02
3.342675e+06 -2.122145e+03 -3.000555e+02
3.341925e+06 -2.337633e+03 -2.140445e+02
3.342262e+06 -2.226169e+03 -2.508355e+02
3.341660e+06 -2.405246e+03 9.719270e+01
3.341925e+06 -2.316043e+03 -1.997407e+02
3.341482e+06 -2.459848e+03 6.195297e+01
3.341666e+06 -2.389208e+03 -1.471227e+02
3.341259e+06 -2.532030e+03 -5.990553e+01
3.341489e+06 -2.443557e+03 -9.330800e+01
3.341202e+06 -2.556916e+03 -7.070589e+00
3.341392e+06 -2.477818e+03 -3.859992e+01
3.341229e+06 -2.561545e+03 4.658096e+01
3.341378e+06 -2.491781e+03 1.671310e+01
3.341380e+06 -2.545644e+03 -6.847604e+01
3.341448e+06 -2.486352e+03 7.233923e+01
3.341540e+06 -2.516204e+03 1.561432e+02
3.341603e+06 -2.463384e+03 1.279575e+02
3.341862e+06 -2.469422e+03 -1.430827e+02
3.341842e+06 -2.425312e+03 1.832217e+02
3.342230e+06 -2.412592e+03 -1.807573e+02
3.342166e+06 -2.374767e+03 2.377875e+02
3.342648e+06 -2.347935e+03 3.218870e+02
3.342574e+06 -2.314285e+03 2.913418e+02
3.343185e+06 -2.274883e+03 3.759546e+02
3.343064e+06 -2.246120e+03 3.436194e+02
3.343802e+06 -2.196628e+03 4.288446e+02
3.343636e+06 -2.172180e+03 3.944088e+02
3.344497e+06 -2.114608e+03 4.802899e+02
3.344287e+06 -2.094009e+03 4.435495e+02
3.345268e+06 -2.029947e+03 5.300822e+02
3.345015e+06 -2.012825e+03 4.909204e+02
3.346684e+06 -1.858798e+03 -3.691826e+02
3.345816e+06 -1.929538e+03 5.364433e+02
3.347626e+06 -1.772608e+03 -3.952430e+02
3.346689e+06 -1.844845e+03 5.800773e+02
3.348006e+06 -1.767403e+03 6.681911e+02
3.347631e+06 -1.759292e+03 6.217799e+02
3.349050e+06 -1.678566e+03 7.101943e+02
3.348638e+06 -1.673205e+03 6.615159e+02
3.350156e+06 -1.589522e+03 7.501041e+02
3.349707e+06 -1.586803e+03 6.992861e+02
3.351319e+06 -1.500397e+03 7.878986e+02
3.350836e+06 -1.500268e+03 7.350925e+02
3.352537e+06 -1.411274e+03 8.235638e+02
3.352021e+06 -1.413701e+03 7.689304e+02
3.353807e+06 -1.322199e+03 8.570919e+02
3.353259e+06 -1.327161e+03 8.008016e+02
3.355143e+06 -1.232718e+03 -6.101727e+02
3.354548e+06 -1.240681e+03 8.307080e+02
3.356489e+06 -1.144268e+03 9.177250e+02
3.355883e+06 -1.154271e+03 8.586525e+02
3.357895e+06 -1.055411e+03 9.448285e+02
3.357262e+06 -1.067933e+03 8.846366e+02
3.359355e+06 -9.663021e+02 -6.666210e+02
3.358682e+06 -9.816584e+02 9.086612e+02
3.360822e+06 -8.778689e+02 9.926072e+02
3.360140e+06 -8.954366e+02 9.307259e+02
3.362336e+06 -7.891744e+02 1.013281e+03
3.361632e+06 -8.092581e+02 9.508235e+02
3.364707e+06 -6.419123e+02 -6.220757e+02
3.363156e+06 -7.230779e+02 9.689584e+02
3.366284e+06 -5.551291e+02 -6.309450e+02
3.364708e+06 -6.369092e+02 9.851479e+02
3.367046e+06 -5.231358e+02 1.062433e+03
3.366285e+06 -5.508168e+02 9.993706e+02
3.368661e+06 -4.344565e+02 1.074522e+03
3.367885e+06 -4.647328e+02 1.011600e+03
3.370294e+06 -3.458121e+02 1.084462e+03
3.369503e+06 -3.786263e+02 1.021853e+03
3.371944e+06 -2.573094e+02 -7.515886e+02
3.371137e+06 -2.925484e+02 1.030132e+03
3.373598e+06 -1.686711e+02 1.097906e+03
3.372783e+06 -2.065237e+02 1.036426e+03
3.375264e+06 -8.048519e+01 -7.579541e+02
3.374438e+06 -1.205985e+02 1.040732e+03
3.376932e+06 7.626268e+00 -7.589348e+02
3.376100e+06 -3.484532e+01 1.043051e+03
3.378603e+06 9.568244e+01 1.102111e+03
3.377765e+06 5.062729e+01 1.043382e+03
3.380273e+06 1.829165e+02 1.099339e+03
3.379429e+06 1.356653e+02 1.041734e+03
3.381937e+06 2.693259e+02 1.094546e+03
3.381090e+06 2.200537e+02 1.038120e+03
3.383593e+06 3.545604e+02 1.087794e+03
3.382745e+06 3.035026e+02 1.032561e+03
3.385238e+06 4.381477e+02 1.079166e+03
3.384390e+06 3.856271e+02 1.025085e+03
3.387642e+06 5.475366e+02 -6.336361e+02
3.386023e+06 4.659716e+02 1.015747e+03
3.389242e+06 6.227964e+02 -6.253223e+02
3.387641e+06 5.439024e+02 1.004633e+03
3.390078e+06 6.729570e+02 1.043109e+03
3.389240e+06 6.186333e+02 9.918020e+02
3.391651e+06 7.433581e+02 1.028106e+03
3.390820e+06 6.894334e+02 9.773330e+02
3.393199e+06 8.084649e+02 1.011784e+03
3.392376e+06 7.555086e+02 9.613539e+02
3.394722e+06 8.676576e+02 9.941830e+02
3.393908e+06 8.160713e+02 9.439785e+02
3.396215e+06 9.205568e+02 9.752995e+02
3.395412e+06 8.705814e+02 9.252976e+02
3.397679e+06 9.671124e+02 9.551088e+02
3.396887e+06 9.188068e+02 9.054006e+02
3.399094e+06 1.006750e+03 -6.451275e+02
3.398332e+06 9.608759e+02 8.843763e+02
3.400506e+06 1.042625e+03 9.107980e+02
3.399743e+06 9.972494e+02 8.623204e+02
3.401867e+06 1.072910e+03 8.867860e+02
3.401119e+06 1.028629e+03 8.393397e+02
3.403172e+06 1.098434e+03 -5.961547e+02
3.402459e+06 1.055832e+03 8.155441e+02
3.404474e+06 1.122580e+03 8.356059e+02
3.403761e+06 1.079676e+03 7.910377e+02
3.405718e+06 1.143483e+03 8.086922e+02
3.405024e+06 1.100908e+03 7.659107e+02
3.406921e+06 1.162595e+03 7.810489e+02
3.406246e+06 1.120168e+03 7.402324e+02
3.408568e+06 1.163441e+03 -4.307257e+02
3.407427e+06 1.138005e+03 7.140653e+02
3.409664e+06 1.179662e+03 -4.137984e+02
3.408565e+06 1.154807e+03 6.874640e+02
3.410274e+06 1.213653e+03 6.945495e+02
3.409660e+06 1.170843e+03 6.604432e+02
3.411304e+06 1.229561e+03 6.647109e+02
3.410711e+06 1.186406e+03 6.330104e+02
3.412269e+06 1.244348e+03 -4.391072e+02
3.411717e+06 1.201688e+03 6.051938e+02
3.413227e+06 1.260697e+03 6.037180e+02
3.412678e+06 1.216782e+03 5.770059e+02
3.414100e+06 1.275256e+03 -3.962075e+02
3.413593e+06 1.231776e+03 5.484457e+02
3.414945e+06 1.290645e+03 -3.743289e+02
3.414461e+06 1.246726e+03 5.195154e+02
3.415764e+06 1.306904e+03 5.091387e+02
3.415282e+06 1.261666e+03 4.902160e+02
3.416513e+06 1.322319e+03 4.768132e+02
3.416055e+06 1.276618e+03 4.605475e+02
3.417214e+06 1.337763e+03 4.440915e+02
3.416779e+06 1.291596e+03 4.305096e+02
3.417865e+06 1.353241e+03 4.109744e+02
3.417454e+06 1.306605e+03 4.001020e+02
3.418466e+06 1.368755e+03 3.774612e+02
3.418079e+06 1.321648e+03 3.693240e+02
3.419016e+06 1.384300e+03 3.435522e+02
3.418653e+06 1.336726e+03 3.381734e+02
3.419652e+06 1.377398e+03 -1.729375e+02
3.419176e+06 1.351849e+03 3.066530e+02
3.420071e+06 1.392701e+03 -1.527873e+02
3.419648e+06 1.367002e+03 2.747669e+02
3.420354e+06 1.431158e+03 2.394424e+02
3.420067e+06 1.382170e+03 2.425076e+02
3.420694e+06 1.446851e+03 2.039439e+02
3.420433e+06 1.397377e+03 2.098715e+02
3.420981e+06 1.462571e+03 1.680486e+02
3.420745e+06 1.412625e+03 1.768654e+02
3.421212e+06 1.478317e+03 1.317569e+02
3.421003e+06 1.427901e+03 1.434901e+02
3.421366e+06 1.493140e+03 -6.483489e+01
3.421206e+06 1.443198e+03 1.097441e+02
3.421486e+06 1.508892e+03 -3.911127e+01
3.421354e+06 1.458505e+03 7.562790e+01
3.421574e+06 1.525570e+03 2.053009e+01
3.421445e+06 1.473799e+03 4.114219e+01
3.421581e+06 1.541222e+03 -1.730913e+01
3.421480e+06 1.489046e+03 6.289545e+00
3.421507e+06 1.555749e+03 3.961011e+01
3.421458e+06 1.504190e+03 -2.892689e+01
3.421398e+06 1.570986e+03 6.632737e+01
3.421377e+06 1.519149e+03 -6.450099e+01
3.421255e+06 1.586818e+03 -1.329133e+02
3.421239e+06 1.533804e+03 -1.004232e+02
3.421029e+06 1.601058e+03 -1.720445e+02
3.421041e+06 1.547990e+03 -1.366774e+02
3.420472e+06 1.585830e+03 1.301875e+02
3.420784e+06 1.561469e+03 -1.732420e+02
3.420095e+06 1.596930e+03 1.534861e+02
3.420467e+06 1.573934e+03 -2.100912e+02
3.419991e+06 1.636857e+03 -2.904580e+02
3.420090e+06 1.585012e+03 -2.471805e+02
3.419524e+06 1.644922e+03 -3.299760e+02
3.419653e+06 1.594191e+03 -2.844456e+02
3.418996e+06 1.650021e+03 -3.693313e+02
3.419155e+06 1.600847e+03 -3.218162e+02
3.418383e+06 1.650307e+03 2.832599e+02
3.418598e+06 1.604291e+03 -3.592070e+02
3.417761e+06 1.648332e+03 -4.470980e+02
3.417980e+06 1.603770e+03 -3.965170e+02
3.417028e+06 1.639026e+03 3.358915e+02
3.417303e+06 1.598556e+03 -4.336428e+02
3.416262e+06 1.625259e+03 3.616856e+02
3.416567e+06 1.588055e+03 -4.704871e+02
3.415463e+06 1.606842e+03 -5.604664e+02
3.415773e+06 1.571920e+03 -5.069615e+02
3.414581e+06 1.581683e+03 -5.973730e+02
3.414921e+06 1.550123e+03 -5.429828e+02
3.413642e+06 1.551312e+03 -6.338403e+02
3.414012e+06 1.522959e+03 -5.784649e+02
3.412648e+06 1.516359e+03 -6.698135e+02
3.413048e+06 1.490988e+03 -6.133119e+02
3.411599e+06 1.477578e+03 -7.051976e+02
3.412028e+06 1.454926e+03 -6.474174e+02
3.409833e+06 1.383680e+03 4.488709e+02
3.410955e+06 1.415502e+03 -6.806860e+02
3.408656e+06 1.339345e+03 4.685790e+02
3.409829e+06 1.373445e+03 -7.130440e+02
3.408136e+06 1.345281e+03 -8.066671e+02
3.408652e+06 1.329433e+03 -7.444064e+02
3.406882e+06 1.297828e+03 -8.385810e+02
3.407426e+06 1.283939e+03 -7.746975e+02
3.405582e+06 1.249440e+03 -8.694062e+02
3.406151e+06 1.237347e+03 -8.038886e+02
3.404236e+06 1.200395e+03 -8.990891e+02
3.404831e+06 1.190006e+03 -8.319555e+02
3.402846e+06 1.150912e+03 -9.275892e+02
3.403467e+06 1.142153e+03 -8.588726e+02
3.401399e+06 1.100374e+03 6.588754e+02
3.402060e+06 1.093966e+03 -8.846270e+02
3.399946e+06 1.051217e+03 -9.809380e+02
3.400613e+06 1.045570e+03 -9.092114e+02
3.398438e+06 1.001192e+03 -1.005756e+03
3.399127e+06 9.970537e+02 -9.326226e+02
3.396880e+06 9.504251e+02 7.105515e+02
3.397605e+06 9.484746e+02 -9.548600e+02
3.395318e+06 9.010450e+02 -1.051639e+03
3.396048e+06 8.998711e+02 -9.759245e+02
3.393710e+06 8.509736e+02 -1.072701e+03
3.394459e+06 8.512656e+02 -9.958184e+02
3.392071e+06 8.009200e+02 -1.092508e+03
3.392839e+06 8.026713e+02 -1.014544e+03
3.390405e+06 7.509068e+02 -1.111062e+03
3.391190e+06 7.540971e+02 -1.032097e+03
3.387816e+06 6.617848e+02 6.680855e+02
3.389514e+06 7.055086e+02 -1.048488e+03
3.386092e+06 6.128768e+02 6.768452e+02
3.387814e+06 6.569335e+02 -1.063742e+03
3.385260e+06 6.009338e+02 -1.159231e+03
3.386090e+06 6.084503e+02 -1.077842e+03
3.383502e+06 5.509606e+02 -1.172799e+03
3.384345e+06 5.599832e+02 -1.090767e+03
3.381717e+06 5.005454e+02 8.188149e+02
3.382581e+06 5.114892e+02 -1.102543e+03
3.379932e+06 4.510889e+02 -1.196217e+03
3.380800e+06 4.630079e+02 -1.113181e+03
3.378119e+06 4.007412e+02 8.333847e+02
3.379003e+06 4.145332e+02 -1.122675e+03
3.376300e+06 3.508500e+02 8.393857e+02
3.377192e+06 3.660637e+02 -1.131029e+03
3.374474e+06 3.013362e+02 -1.222087e+03
3.375370e+06 3.175975e+02 -1.138245e+03
3.372635e+06 2.514256e+02 -1.228252e+03
3.373538e+06 2.691325e+02 -1.144327e+03
3.370788e+06 2.015155e+02 -1.233191e+03
3.371698e+06 2.206669e+02 -1.149277e+03
3.368936e+06 1.516029e+02 -1.236907e+03
3.369852e+06 1.721984e+02 -1.153098e+03
3.367080e+06 1.016842e+02 -1.239401e+03
3.368001e+06 1.237237e+02 -1.155793e+03
3.365223e+06 5.177563e+01 -1.240675e+03
3.366148e+06 7.524161e+01 -1.157356e+03
3.362441e+06 -2.217557e+01 7.260846e+02
3.364294e+06 2.670725e+01 -1.157799e+03
3.360591e+06 -7.110805e+01 7.249381e+02
3.362441e+06 -2.185226e+01 -1.157145e+03
3.359659e+06 -9.815376e+01 -1.237185e+03
3.360591e+06 -7.036167e+01 -1.155375e+03
3.357814e+06 -1.482348e+02 -1.233584e+03
3.358745e+06 -1.189161e+02 -1.152465e+03
3.355975e+06 -1.983665e+02 -1.228765e+03
3.356906e+06 -1.675730e+02 -1.148442e+03
3.354150e+06 -2.486716e+02 8.451162e+02
3.355076e+06 -2.163063e+02 -1.143313e+03
3.352328e+06 -2.989442e+02 -1.215458e+03
3.353255e+06 -2.651456e+02 -1.137071e+03
3.350522e+06 -3.494488e+02 -1.206964e+03
3.351447e+06 -3.141196e+02 -1.129713e+03
3.348737e+06 -4.001343e+02 8.274254e+02
3.349652e+06 -3.632607e+02 -1.121240e+03
3.346956e+06 -4.510509e+02 -1.186283e+03
3.347872e+06 -4.126012e+02 -1.111648e+03
3.345200e+06 -5.022030e+02 -1.174096e+03
3.346109e+06 -4.621697e+02 -1.100936e+03
3.343463e+06 -5.536105e+02 -1.160680e+03
3.344366e+06 -5.119866e+02 -1.089103e+03
3.341748e+06 -6.052735e+02 -1.146038e+03
3.342643e+06 -5.620593e+02 -1.076147e+03
3.340056e+06 -6.571805e+02 -1.130171e+03
3.340943e+06 -6.123815e+02 -1.062067e+03
3.338389e+06 -7.092888e+02 -1.113082e+03
3.339267e+06 -6.629315e+02 -1.046855e+03
3.335993e+06 -7.705365e+02 6.361254e+02
3.337617e+06 -7.137155e+02 -1.030516e+03
3.334400e+06 -8.219781e+02 6.245118e+02
3.335995e+06 -7.646684e+02 -1.013066e+03
3.333558e+06 -8.666728e+02 -1.054450e+03
3.334402e+06 -8.156871e+02 -9.944842e+02
3.332023e+06 -9.190651e+02 7.129538e+02
3.332841e+06 -8.668173e+02 -9.747470e+02
3.330495e+06 -9.721493e+02 -1.009195e+03
3.331313e+06 -9.180647e+02 -9.538754e+02
3.329017e+06 -1.024969e+03 -9.847082e+02
3.329820e+06 -9.693687e+02 -9.318757e+02
3.327591e+06 -1.077419e+03 6.619502e+02
3.328363e+06 -1.020718e+03 -9.087401e+02
3.326174e+06 -1.130716e+03 -9.320075e+02
3.326945e+06 -1.072099e+03 -8.844685e+02
3.324813e+06 -1.183624e+03 -9.037914e+02
3.325567e+06 -1.123504e+03 -8.590616e+02
3.323495e+06 -1.236547e+03 -8.743306e+02
3.324231e+06 -1.174927e+03 -8.325196e+02
3.322222e+06 -1.289484e+03 -8.436247e+02
3.322939e+06 -1.226363e+03 -8.048431e+02
3.320995e+06 -1.342432e+03 -8.116732e+02
3.321693e+06 -1.277811e+03 -7.760324e+02
3.319817e+06 -1.395394e+03 -7.784757e+02
3.320493e+06 -1.329271e+03 -7.460878e+02
3.318688e+06 -1.448371e+03 -7.440306e+02
3.319343e+06 -1.380745e+03 -7.150090e+02
3.317611e+06 -1.501358e+03 -7.083378e+02
3.318243e+06 -1.432235e+03 -6.827916e+02
3.316199e+06 -1.546851e+03 3.877911e+02
3.317196e+06 -1.483767e+03 -6.494403e+02
3.315262e+06 -1.598810e+03 3.655756e+02
3.316203e+06 -1.535321e+03 -6.149650e+02
3.314707e+06 -1.660529e+03 -5.937539e+02
3.315266e+06 -1.586869e+03 -5.793498e+02
3.313854e+06 -1.713686e+03 -5.530486e+02
3.314388e+06 -1.638467e+03 -5.425813e+02
3.313087e+06 -1.766071e+03 3.508702e+02
3.313568e+06 -1.690135e+03 -5.046708e+02
3.312332e+06 -1.820164e+03 -4.678565e+02
3.312810e+06 -1.741859e+03 -4.656181e+02
3.311666e+06 -1.873512e+03 -4.233612e+02
3.312116e+06 -1.793651e+03 -4.254142e+02
3.311094e+06 -1.926025e+03 2.581264e+02
3.311486e+06 -1.845513e+03 -3.840538e+02
3.310533e+06 -1.980429e+03 -3.305568e+02
3.310923e+06 -1.897444e+03 -3.415315e+02
3.310070e+06 -2.033970e+03 -2.822457e+02
3.310429e+06 -1.949431e+03 -2.978409e+02
3.309679e+06 -2.087514e+03 -2.326653e+02
3.310006e+06 -2.001443e+03 -2.529762e+02
3.309361e+06 -2.140985e+03 -1.818249e+02
3.309654e+06 -2.053424e+03 -2.069322e+02
3.309117e+06 -2.194259e+03 -1.297419e+02
3.309377e+06 -2.105282e+03 -1.597050e+02
3.308951e+06 -2.247146e+03 -7.644565e+01
3.309175e+06 -2.156868e+03 -1.112946e+02
3.308863e+06 -2.299362e+03 -2.198381e+01
3.309052e+06 -2.207962e+03 -6.170649e+01
3.309038e+06 -2.324459e+03 -2.135322e+01
3.309008e+06 -2.258242e+03 -1.095662e+01
3.308966e+06 -2.398795e+03 -6.637739e+01
3.309045e+06 -2.307247e+03 4.093097e+01
3.309089e+06 -2.447127e+03 1.475422e+02
3.309165e+06 -2.354371e+03 9.391426e+01
3.309370e+06 -2.489540e+03 -1.460728e+02
3.309369e+06 -2.398779e+03 1.479193e+02
3.309701e+06 -2.528512e+03 -1.863013e+02
3.309659e+06 -2.439362e+03 2.028439e+02
3.310081e+06 -2.562572e+03 3.228082e+02
3.310035e+06 -2.474729e+03 2.585489e+02
3.310586e+06 -2.587005e+03 3.812565e+02
3.310498e+06 -2.503155e+03 3.148460e+02
3.311180e+06 -2.600915e+03 4.391149e+02
3.311049e+06 -2.522586e+03 3.714981e+02
3.311862e+06 -2.601867e+03 4.960118e+02
3.311687e+06 -2.530700e+03 4.282211e+02
3.312630e+06 -2.587457e+03 5.516441e+02
3.312411e+06 -2.525048e+03 4.846994e+02
3.313484e+06 -2.555622e+03 6.058367e+02
3.313221e+06 -2.503309e+03 5.406094e+02
3.314422e+06 -2.504958e+03 6.585582e+02
3.314114e+06 -2.463644e+03 5.956463e+02
3.315442e+06 -2.434963e+03 7.098689e+02
3.315089e+06 -2.405026e+03 6.495324e+02
3.316541e+06 -2.346139e+03 7.598285e+02
3.316143e+06 -2.327454e+03 7.019978e+02
3.318478e+06 -2.134961e+03 -5.100413e+02
3.317276e+06 -2.231912e+03 7.527686e+02
3.319759e+06 -2.008873e+03 -5.400969e+02
3.318484e+06 -2.120244e+03 8.015557e+02
3.320295e+06 -1.983476e+03 9.005770e+02
3.319764e+06 -1.994823e+03 8.480186e+02
3.321714e+06 -1.837325e+03 -6.438994e+02
3.321114e+06 -1.858057e+03 8.918144e+02
3.323144e+06 -1.684694e+03 9.837564e+02
3.322529e+06 -1.712245e+03 9.326668e+02
3.324660e+06 -1.524827e+03 1.021043e+03
3.324006e+06 -1.559479e+03 9.703374e+02
3.326251e+06 -1.359732e+03 -7.200699e+02
3.325539e+06 -1.401491e+03 1.004623e+03
3.327851e+06 -1.192288e+03 1.085487e+03
3.327124e+06 -1.239685e+03 1.035371e+03
3.329515e+06 -1.021933e+03 1.112201e+03
3.328755e+06 -1.075164e+03 1.062470e+03
3.331216e+06 -8.499548e+02 1.135031e+03
3.330426e+06 -9.087680e+02 1.085840e+03
3.332950e+06 -6.769168e+02 1.153865e+03
3.332133e+06 -7.411234e+02 1.105423e+03
3.334709e+06 -5.032215e+02 1.168625e+03
3.333868e+06 -5.726842e+02 1.121182e+03
3.336488e+06 -3.291486e+02 1.179255e+03
3.335626e+06 -4.037701e+02 1.133091e+03
3.338281e+06 -1.548847e+02 1.185712e+03
3.337401e+06 -2.345992e+02 1.141133e+03
3.340082e+06 1.943096e+01 1.187971e+03
3.339186e+06 -6.531759e+01 1.145288e+03
3.340976e+06 1.040231e+02 1.145556e+03
3.341880e+06 1.933828e+02 -8.103229e+02
3.344546e+06 4.457010e+02 -7.221516e+02
3.342765e+06 2.733470e+02 1.141954e+03
3.345457e+06 5.417526e+02 -7.987551e+02
3.344545e+06 4.425606e+02 1.134452e+03
3.347223e+06 7.158848e+02 -7.885552e+02
3.346311e+06 6.117358e+02 1.123021e+03
3.348979e+06 8.907994e+02 1.135761e+03
3.348056e+06 7.809161e+02 1.107677e+03
3.350693e+06 1.065013e+03 1.112551e+03
3.349774e+06 9.500800e+02 1.088422e+03
3.352371e+06 1.239256e+03 1.085066e+03
3.351459e+06 1.119257e+03 1.065240e+03
3.354006e+06 1.413553e+03 1.053299e+03
3.353105e+06 1.288471e+03 1.038121e+03
3.355592e+06 1.587926e+03 1.017244e+03
3.354704e+06 1.457744e+03 1.007056e+03
3.357122e+06 1.762384e+03 9.768950e+02
3.356251e+06 1.627093e+03 9.720337e+02
3.358591e+06 1.936919e+03 9.322493e+02
3.357739e+06 1.796520e+03 9.330436e+02
3.359990e+06 2.111498e+03 8.833091e+02
3.359162e+06 1.966007e+03 8.900756e+02
3.361314e+06 2.286042e+03 8.300839e+02
3.360512e+06 2.135504e+03 8.431204e+02
3.362557e+06 2.460411e+03 7.725947e+02
3.361785e+06 2.304910e+03 7.921717e+02
3.363712e+06 2.634375e+03 7.108786e+02
3.362972e+06 2.474054e+03 7.372279e+02
3.364772e+06 2.807569e+03 6.449999e+02
3.364069e+06 2.642666e+03 6.782925e+02
3.365971e+06 2.998863e+03 -3.564391e+02
3.365067e+06 2.810346e+03 6.153909e+02
3.365962e+06 2.976473e+03 5.485699e+02
3.366535e+06 3.147397e+03 -3.352348e+02
3.367322e+06 3.316127e+03 4.235750e+02
3.366746e+06 3.140182e+03 4.778781e+02
3.367942e+06 3.478395e+03 3.425080e+02
3.367415e+06 3.300346e+03 4.034091e+02
3.368380e+06 3.631942e+03 -1.679403e+02
3.367962e+06 3.455399e+03 3.253267e+02
3.368801e+06 3.781318e+03 1.715244e+02
3.368382e+06 3.603284e+03 2.438445e+02
3.369032e+06 3.916597e+03 8.261159e+01
3.368670e+06 3.741424e+03 1.592450e+02
3.369124e+06 4.036559e+03 -7.768780e+00
3.368823e+06 3.866660e+03 7.189947e+01
3.369074e+06 4.137227e+03 -9.895929e+01
3.368838e+06 3.975297e+03 -1.773576e+01
3.368882e+06 4.214470e+03 -1.903632e+02
3.368712e+06 4.063273e+03 -1.091336e+02
3.368545e+06 4.264463e+03 -2.815571e+02
3.368444e+06 4.126501e+03 -2.017321e+02
3.368065e+06 4.284254e+03 -3.723641e+02
3.368034e+06 4.161410e+03 -2.949825e+02
3.367440e+06 4.272268e+03 -4.628198e+02
3.367481e+06 4.165572e+03 -3.883843e+02
3.366606e+06 4.225595e+03 3.794257e+02
3.366786e+06 4.138182e+03 -4.814766e+02
3.365760e+06 4.154966e+03 -6.430326e+02
3.365950e+06 4.080225e+03 -5.737916e+02
3.364973e+06 3.994246e+03 -6.648273e+02
3.364646e+06 4.051593e+03 5.000626e+02
3.363858e+06 3.883900e+03 -7.540532e+02
3.363456e+06 3.928164e+03 5.600799e+02
3.362189e+06 3.788433e+03 -9.085971e+02
3.362606e+06 3.753352e+03 -8.409043e+02
3.360729e+06 3.631042e+03 -9.937450e+02
3.361222e+06 3.606605e+03 -9.248417e+02
3.359142e+06 3.462204e+03 -1.076162e+03
3.359709e+06 3.447263e+03 -1.005436e+03
3.357433e+06 3.284821e+03 -1.155312e+03
3.358073e+06 3.278451e+03 -1.082341e+03
3.355609e+06 3.101241e+03 -1.230758e+03
3.356318e+06 3.102691e+03 -1.155278e+03
3.353677e+06 2.913291e+03 -1.302157e+03
3.354452e+06 2.921969e+03 -1.224052e+03
3.351642e+06 2.722352e+03 -1.369253e+03
3.352480e+06 2.737803e+03 -1.288525e+03
3.349512e+06 2.529442e+03 -1.431862e+03
3.350411e+06 2.551321e+03 -1.348609e+03
3.347294e+06 2.335289e+03 -1.489855e+03
3.348249e+06 2.363343e+03 -1.404250e+03
3.344995e+06 2.140401e+03 -1.543147e+03
3.346004e+06 2.174448e+03 -1.455422e+03
3.342624e+06 1.945119e+03 -1.591684e+03
3.343681e+06 1.985029e+03 -1.502114e+03
3.340160e+06 1.748355e+03 1.120720e+03
3.341289e+06 1.795349e+03 -1.544328e+03
3.337690e+06 1.554196e+03 -1.674390e+03
3.338835e+06 1.605574e+03 -1.582064e+03
3.333772e+06 1.234771e+03 1.041690e+03
3.336325e+06 1.415745e+03 -1.615347e+03
3.333767e+06 1.225945e+03 -1.644227e+03
3.332532e+06 1.162245e+03 1.191940e+03
3.329919e+06 9.679771e+02 -1.762476e+03
3.331169e+06 1.036303e+03 -1.668693e+03
3.327260e+06 7.726575e+02 -1.782271e+03
3.328537e+06 8.467096e+02 -1.688724e+03
3.324577e+06 5.773939e+02 -1.797302e+03
3.325878e+06 6.570892e+02 -1.704372e+03
3.321878e+06 3.821266e+02 -1.807583e+03
3.323199e+06 4.674784e+02 -1.715667e+03
3.319170e+06 1.868293e+02 -1.813124e+03
3.320509e+06 2.778430e+02 -1.722612e+03
3.316460e+06 -8.521496e+00 -1.813939e+03
3.317812e+06 8.815852e+01 -1.725220e+03
3.313755e+06 -2.039394e+02 -1.810041e+03
3.315117e+06 -1.015932e+02 -1.723503e+03
3.311061e+06 -3.994234e+02 -1.801445e+03
3.312430e+06 -2.914190e+02 -1.717475e+03
3.308395e+06 -5.950477e+02 1.227067e+03
3.309758e+06 -4.813068e+02 -1.707144e+03
3.305736e+06 -7.904519e+02 -1.770231e+03
3.307108e+06 -6.712171e+02 -1.692523e+03
3.303133e+06 -9.856979e+02 1.199006e+03
3.304486e+06 -8.610707e+02 -1.673623e+03
3.300557e+06 -1.180638e+03 1.180206e+03
3.301900e+06 -1.050730e+03 -1.650458e+03
3.298004e+06 -1.375349e+03 -1.688846e+03
3.299356e+06 -1.239981e+03 -1.623047e+03
3.295522e+06 -1.568783e+03 -1.652732e+03
3.296860e+06 -1.428493e+03 -1.591407e+03
3.292033e+06 -1.815141e+03 9.605506e+02
3.294418e+06 -1.615848e+03 -1.555588e+03
3.289720e+06 -1.999102e+03 9.328203e+02
3.292038e+06 -1.801343e+03 -1.515678e+03
3.288447e+06 -2.136109e+03 -1.519131e+03
3.289725e+06 -1.983989e+03 -1.471725e+03
3.286233e+06 -2.317214e+03 -1.466889e+03
3.287485e+06 -2.162701e+03 -1.423815e+03
3.284101e+06 -2.491567e+03 -1.411316e+03
3.285324e+06 -2.335972e+03 -1.372142e+03
3.282056e+06 -2.656944e+03 -1.352830e+03
3.283246e+06 -2.501794e+03 -1.316926e+03
3.280102e+06 -2.810660e+03 -1.291914e+03
3.281256e+06 -2.657789e+03 -1.258429e+03
3.278243e+06 -2.949662e+03 -1.229086e+03
3.279359e+06 -2.801148e+03 -1.196989e+03
3.276483e+06 -3.070694e+03 -1.164840e+03
3.277557e+06 -2.928734e+03 -1.132999e+03
3.274823e+06 -3.170604e+03 -1.099565e+03
3.275854e+06 -3.037292e+03 -1.066888e+03
3.273315e+06 -3.244717e+03 7.132238e+02
3.274250e+06 -3.123804e+03 -9.990889e+02
3.271813e+06 -3.297388e+03 -9.665872e+02
3.272749e+06 -3.185946e+03 -9.300042e+02
3.270465e+06 -3.322013e+03 -8.988177e+02
3.271351e+06 -3.222507e+03 -8.599979e+02
3.269273e+06 -3.319337e+03 5.778370e+02
3.270057e+06 -3.233630e+03 -7.894203e+02
3.268088e+06 -3.297488e+03 -7.604498e+02
3.268868e+06 -3.220778e+03 -7.186370e+02
3.266798e+06 -3.155887e+03 3.546675e+02
3.267784e+06 -3.186479e+03 -6.480599e+02
3.265926e+06 -3.087910e+03 3.105362e+02
3.266807e+06 -3.133802e+03 -5.781257e+02
3.265324e+06 -3.115583e+03 -5.492662e+02
3.265934e+06 -3.065957e+03 -5.092343e+02
3.264613e+06 -3.028724e+03 -4.796870e+02
3.265166e+06 -2.986081e+03 -4.417510e+02
3.264003e+06 -2.933358e+03 -4.113116e+02
3.264499e+06 -2.896905e+03 -3.760024e+02
3.263493e+06 -2.831650e+03 -3.445314e+02
3.263933e+06 -2.800694e+03 -3.122372e+02
3.263078e+06 -2.725327e+03 -2.796647e+02
3.263464e+06 -2.699308e+03 -2.506369e+02
3.262795e+06 -2.614457e+03 1.594205e+02
3.263088e+06 -2.594210e+03 -1.913360e+02
3.262560e+06 -2.502697e+03 1.176220e+02
3.262803e+06 -2.486521e+03 -1.344271e+02
3.262375e+06 -2.390573e+03 -9.872795e+01
3.262605e+06 -2.377081e+03 -7.997096e+01
3.262308e+06 -2.276305e+03 -4.343253e+01
3.262491e+06 -2.266505e+03 -2.800410e+01
3.262351e+06 -2.160493e+03 2.569478e+00
3.262455e+06 -2.155229e+03 2.145350e+01
3.262433e+06 -2.045441e+03 -3.214025e+01
3.262495e+06 -2.043558e+03 6.839316e+01
3.262558e+06 -1.931118e+03 1.064398e+02
3.262607e+06 -1.931695e+03 1.128138e+02
3.262778e+06 -1.815859e+03 1.509672e+02
3.262787e+06 -1.819768e+03 1.547184e+02
3.263060e+06 -1.700648e+03 1.927602e+02
3.263030e+06 -1.707858e+03 1.941106e+02
3.263689e+06 -1.495265e+03 -1.752035e+02
3.263334e+06 -1.595998e+03 2.309974e+02
3.264101e+06 -1.382702e+03 -1.950609e+02
3.263693e+06 -1.484202e+03 2.653912e+02
3.264237e+06 -1.355435e+03 3.017265e+02
3.264105e+06 -1.372486e+03 2.972941e+02
3.264728e+06 -1.240493e+03 3.325785e+02
3.264564e+06 -1.260835e+03 3.267015e+02
3.265260e+06 -1.125596e+03 3.606988e+02
3.265068e+06 -1.149223e+03 3.536208e+02
3.265831e+06 -1.010722e+03 3.860893e+02
3.265613e+06 -1.037642e+03 3.780564e+02
3.266437e+06 -8.958561e+02 4.087507e+02
3.266194e+06 -9.260755e+02 4.000066e+02
3.267073e+06 -7.809919e+02 4.286844e+02
3.266808e+06 -8.145129e+02 4.194699e+02
3.267745e+06 -6.659723e+02 -3.009409e+02
3.267450e+06 -7.029517e+02 4.364444e+02
3.268423e+06 -5.512937e+02 4.603793e+02
3.268118e+06 -5.914012e+02 4.509277e+02
3.269128e+06 -4.365179e+02 4.721513e+02
3.268806e+06 -4.798885e+02 4.629171e+02
3.269852e+06 -3.219075e+02 -3.255239e+02
3.269512e+06 -3.684654e+02 4.724105e+02
3.270580e+06 -2.074847e+02 4.876075e+02
3.270230e+06 -2.572196e+02 4.794082e+02
3.271319e+06 -9.351718e+01 4.913416e+02
3.270958e+06 -1.462860e+02 4.839133e+02
3.272061e+06 1.977370e+01 4.924673e+02
3.271691e+06 -3.586557e+01 4.859345e+02
3.272804e+06 1.320245e+02 4.910495e+02
3.272426e+06 7.375501e+01 4.854855e+02
3.273887e+06 2.909983e+02 -3.067016e+02
3.273159e+06 1.821932e+02 4.825979e+02
3.274605e+06 3.959674e+02 -3.017064e+02
3.273886e+06 2.889037e+02 4.773252e+02
3.274991e+06 4.569239e+02 4.725919e+02
3.274604e+06 3.931550e+02 4.697216e+02
3.275685e+06 5.578495e+02 -3.135562e+02
3.275309e+06 4.940708e+02 4.598678e+02
3.276382e+06 6.546341e+02 4.501105e+02
3.275999e+06 5.905352e+02 4.478955e+02
3.277035e+06 7.432082e+02 -2.967486e+02
3.276669e+06 6.811764e+02 4.339635e+02
3.277677e+06 8.239637e+02 -2.871677e+02
3.277318e+06 7.644377e+02 4.182567e+02
3.278309e+06 8.954294e+02 4.058580e+02
3.277944e+06 8.386338e+02 4.009895e+02
3.278900e+06 9.543256e+02 3.892016e+02
3.278545e+06 9.021031e+02 3.823880e+02
3.279463e+06 1.000332e+03 3.717642e+02
3.279119e+06 9.534285e+02 3.626700e+02
3.279996e+06 1.032869e+03 3.535198e+02
3.279664e+06 9.916806e+02 3.420353e+02
3.280499e+06 1.052026e+03 3.344181e+02
3.280181e+06 1.016595e+03 3.206682e+02
3.280969e+06 1.058550e+03 3.144512e+02
3.280666e+06 1.028622e+03 2.987566e+02
3.281407e+06 1.053717e+03 2.937019e+02
3.281120e+06 1.028842e+03 2.765054e+02
3.281812e+06 1.039126e+03 2.723517e+02
3.281542e+06 1.018761e+03 2.541377e+02
3.282183e+06 1.016474e+03 2.506481e+02
3.281930e+06 1.000066e+03 2.318786e+02
3.282612e+06 9.502557e+02 -1.145632e+02
3.282286e+06 9.744301e+02 2.099404e+02
3.282902e+06 9.148819e+02 -1.012977e+02
3.282609e+06 9.433540e+02 1.885089e+02
3.283097e+06 9.155407e+02 1.860232e+02
3.282900e+06 9.081214e+02 1.677275e+02
3.283338e+06 8.749896e+02 1.653896e+02
3.283159e+06 8.698206e+02 1.477095e+02
3.283536e+06 8.318418e+02 -1.045008e+02
3.283388e+06 8.293078e+02 1.285453e+02
3.283733e+06 7.885849e+02 1.264377e+02
3.283588e+06 7.872316e+02 1.102967e+02
3.283889e+06 7.437860e+02 1.083167e+02
3.283761e+06 7.440900e+02 9.300463e+01
3.284007e+06 6.978689e+02 -6.695841e+01
3.283907e+06 7.002491e+02 7.669614e+01
3.284125e+06 6.526590e+02 7.509319e+01
3.284028e+06 6.559710e+02 6.138803e+01
3.284208e+06 6.067226e+02 6.006150e+01
3.284126e+06 6.114392e+02 4.708994e+01
3.284271e+06 5.606966e+02 4.611087e+01
3.284202e+06 5.667775e+02 3.380593e+01
3.284314e+06 5.146476e+02 3.325261e+01
3.284258e+06 5.220663e+02 2.153710e+01
3.284340e+06 4.686150e+02 2.149292e+01
3.284295e+06 4.773545e+02 1.028286e+01
3.284349e+06 4.226180e+02 1.083468e+01
3.284315e+06 4.326690e+02 4.094677e-02
3.284344e+06 3.766650e+02 1.279000e+00
3.284320e+06 3.880222e+02 -9.190304e+00
3.284319e+06 3.304289e+02 1.357959e+00
3.284311e+06 3.434176e+02 -1.741341e+01
3.284259e+06 2.563830e+02 2.307171e+01
3.284290e+06 2.988514e+02 -2.463004e+01
3.284251e+06 2.387568e+02 1.081466e+01
3.284259e+06 2.543151e+02 -3.084300e+01
3.284204e+06 1.929551e+02 1.439587e+01
3.284218e+06 2.097997e+02 -3.605288e+01
3.284154e+06 1.473944e+02 -2.998402e+01
3.284170e+06 1.652995e+02 -4.025958e+01
3.284095e+06 1.015867e+02 -3.294025e+01
3.284116e+06 1.208079e+02 -4.346342e+01
3.284032e+06 5.578169e+01 -3.480060e+01
3.284057e+06 7.632039e+01 -4.566538e+01
3.283967e+06 9.982200e+00 -3.556666e+01
3.283996e+06 3.183607e+01 -4.686473e+01
3.283902e+06 -3.580229e+01 -3.524139e+01
3.283934e+06 -1.263979e+01 -4.706142e+01
3.283838e+06 -8.155205e+01 -3.382875e+01
3.283873e+06 -5.709333e+01 -4.625539e+01
3.283777e+06 -1.272324e+02 -3.133519e+01
3.283813e+06 -1.014994e+02 -4.444662e+01
3.283720e+06 -1.727905e+02 -2.777064e+01
3.283757e+06 -1.458171e+02 -4.163683e+01
3.283669e+06 -2.181473e+02 -2.314984e+01
3.283707e+06 -1.899850e+02 -3.782892e+01
3.283626e+06 -2.631896e+02 -1.749370e+01
3.283663e+06 -2.339126e+02 -3.302833e+01
3.283592e+06 -3.077609e+02 -1.083139e+01
3.283627e+06 -2.774730e+02 -2.724420e+01
3.283569e+06 -3.516507e+02 -3.202308e+00
3.283601e+06 -3.204925e+02 -2.049056e+01
3.283557e+06 -3.945821e+02 5.340856e+00
3.283586e+06 -3.627407e+02 -1.278845e+01
3.283584e+06 -4.039149e+02 -4.167824e+00
3.283564e+06 -4.360887e+02 -1.345650e+01
3.283621e+06 -4.846912e+02 -6.586524e+00
3.283596e+06 -4.436365e+02 5.331712e+00
3.283608e+06 -5.136645e+02 3.572344e+01
3.283623e+06 -4.814455e+02 1.565857e+01
3.283664e+06 -5.481915e+02 -3.537166e+01
3.283666e+06 -5.167942e+02 2.674727e+01
3.283724e+06 -5.796301e+02 5.902300e+01
3.283726e+06 -5.490695e+02 3.852152e+01
3.283810e+06 -6.067643e+02 7.132234e+01
3.283804e+06 -5.776448e+02 5.089888e+01
3.283916e+06 -6.292954e+02 8.399273e+01
3.283902e+06 -6.019428e+02 6.379618e+01
3.284041e+06 -6.469052e+02 9.703239e+01
3.284018e+06 -6.215266e+02 7.713607e+01
3.284187e+06 -6.595125e+02 1.104588e+02
3.284155e+06 -6.361818e+02 9.084855e+01
3.284354e+06 -6.672885e+02 1.242851e+02
3.284312e+06 -6.459565e+02 1.048652e+02
3.284543e+06 -6.706251e+02 1.384977e+02
3.284490e+06 -6.511529e+02 1.191141e+02
3.284753e+06 -6.700723e+02 1.530450e+02
3.284690e+06 -6.522695e+02 1.335150e+02
3.284995e+06 -6.660133e+02 -1.162842e+02
3.284912e+06 -6.499123e+02 1.479844e+02
3.285242e+06 -6.597878e+02 1.827994e+02
3.285156e+06 -6.447088e+02 1.624412e+02
3.285528e+06 -6.510419e+02 -1.367826e+02
3.285422e+06 -6.372486e+02 1.768131e+02
3.285827e+06 -6.409367e+02 -1.470845e+02
3.285710e+06 -6.280501e+02 1.910400e+02
3.286141e+06 -6.298357e+02 2.276636e+02
3.286020e+06 -6.175478e+02 2.050725e+02
3.286704e+06 -5.982498e+02 -1.459618e+02
3.286352e+06 -6.060834e+02 2.188757e+02
3.287078e+06 -5.855551e+02 -1.542660e+02
3.286705e+06 -5.939357e+02 2.324287e+02
3.287235e+06 -5.917938e+02 2.710949e+02
3.287080e+06 -5.813328e+02 2.457099e+02
3.287642e+06 -5.783722e+02 2.850565e+02
3.287475e+06 -5.684168e+02 2.587013e+02
3.288068e+06 -5.647885e+02 2.987232e+02
3.287890e+06 -5.552905e+02 2.713999e+02
3.288514e+06 -5.511082e+02 3.120828e+02
3.288326e+06 -5.420431e+02 2.838037e+02
3.288979e+06 -5.373793e+02 3.251272e+02
3.288781e+06 -5.287290e+02 2.959088e+02
3.289463e+06 -5.236327e+02 3.378512e+02
3.289254e+06 -5.153849e+02 3.077145e+02
3.289965e+06 -5.098873e+02 3.502520e+02
3.289746e+06 -5.020338e+02 3.192211e+02
3.290485e+06 -4.961530e+02 3.623283e+02
3.290257e+06 -4.886891e+02 3.304293e+02
3.291023e+06 -4.824351e+02 3.740794e+02
3.290784e+06 -4.753581e+02 3.413401e+02
3.291577e+06 -4.687345e+02 3.855052e+02
3.291329e+06 -4.620433e+02 3.519542e+02
3.292147e+06 -4.550497e+02 3.966063e+02
3.291891e+06 -4.487440e+02 3.622727e+02
3.292739e+06 -4.413417e+02 -2.820438e+02
3.292469e+06 -4.354586e+02 3.722962e+02
3.293336e+06 -4.277183e+02 4.178356e+02
3.293062e+06 -4.221847e+02 3.820253e+02
3.293958e+06 -4.140442e+02 -2.963440e+02
3.293671e+06 -4.089204e+02 3.914573e+02
3.294294e+06 -3.956481e+02 4.005951e+02
3.294589e+06 -4.003981e+02 -3.031545e+02
3.295235e+06 -3.867612e+02 -3.097383e+02
3.294932e+06 -3.823768e+02 4.094471e+02
3.295890e+06 -3.731345e+02 4.564111e+02
3.295584e+06 -3.691368e+02 4.180059e+02
3.296563e+06 -3.594887e+02 4.652485e+02
3.296249e+06 -3.559008e+02 4.262618e+02
3.297248e+06 -3.458576e+02 4.737648e+02
3.296927e+06 -3.426543e+02 4.342232e+02
3.297946e+06 -3.322417e+02 4.819616e+02
3.297618e+06 -3.294196e+02 4.418929e+02
3.298659e+06 -3.186931e+02 -3.393269e+02
3.298321e+06 -3.162043e+02 4.492685e+02
3.299376e+06 -3.051107e+02 4.974058e+02
3.299035e+06 -3.030231e+02 4.563497e+02
3.300111e+06 -2.917020e+02 -3.496317e+02
3.299760e+06 -2.898984e+02 4.631378e+02
3.300850e+06 -2.782906e+02 5.116157e+02
3.300497e+06 -2.768622e+02 4.696349e+02
3.301603e+06 -2.651055e+02 5.182778e+02
3.301243e+06 -2.639578e+02 4.758440e+02
3.302367e+06 -2.522484e+02 -3.635685e+02
3.301999e+06 -2.512455e+02 4.817701e+02
3.303136e+06 -2.395515e+02 5.307843e+02
3.302765e+06 -2.388042e+02 4.874205e+02
3.303918e+06 -2.275029e+02 -3.719752e+02
3.303540e+06 -2.267356e+02 4.928053e+02
3.304706e+06 -2.159548e+02 -3.759644e+02
3.304323e+06 -2.151657e+02 4.979384e+02
3.305502e+06 -2.051745e+02 -3.798403e+02
3.305115e+06 -2.042473e+02 5.028371e+02
3.306305e+06 -1.952141e+02 5.531584e+02
3.305914e+06 -1.941568e+02 5.075189e+02
3.307536e+06 -1.785679e+02 -3.225299e+02
3.306722e+06 -1.850645e+02 5.120116e+02
3.308359e+06 -1.720050e+02 -3.250197e+02
3.307537e+06 -1.771697e+02 5.163507e+02
3.308762e+06 -1.731763e+02 5.684372e+02
3.308359e+06 -1.706679e+02 5.205507e+02
3.309595e+06 -1.687109e+02 5.733111e+02
3.309188e+06 -1.656208e+02 5.246223e+02
3.310436e+06 -1.658955e+02 -4.014515e+02
3.310025e+06 -1.620311e+02 5.285967e+02
3.311281e+06 -1.641417e+02 5.827119e+02
3.310868e+06 -1.598620e+02 5.324993e+02
3.312136e+06 -1.639492e+02 -4.080106e+02
3.311718e+06 -1.589849e+02 5.363488e+02
3.312994e+06 -1.644988e+02 5.917020e+02
3.312574e+06 -1.592284e+02 5.401705e+02
3.313861e+06 -1.660759e+02 5.960990e+02
3.313437e+06 -1.604030e+02 5.439894e+02
3.314734e+06 -1.684908e+02 -4.173632e+02
3.314307e+06 -1.623246e+02 5.478289e+02
3.315613e+06 -1.712840e+02 -4.204329e+02
3.315183e+06 -1.648271e+02 5.517086e+02
3.316499e+06 -1.744749e+02 -4.235120e+02
3.316065e+06 -1.677691e+02 5.556451e+02
3.317390e+06 -1.778164e+02 6.136910e+02
3.316954e+06 -1.710349e+02 5.596505e+02
3.318289e+06 -1.815050e+02 6.182017e+02
3.317850e+06 -1.745333e+02 5.637341e+02
3.319195e+06 -1.853351e+02 6.227877e+02
3.318753e+06 -1.781941e+02 5.679024e+02
3.320108e+06 -1.892594e+02 6.274577e+02
3.319663e+06 -1.819643e+02 5.721594e+02
3.321028e+06 -1.932539e+02 6.322183e+02
3.320579e+06 -1.858073e+02 5.765046e+02
3.322434e+06 -1.949651e+02 -3.647582e+02
3.321503e+06 -1.896747e+02 5.809431e+02
3.322435e+06 -1.935657e+02 5.854881e+02
3.322891e+06 -2.014224e+02 -4.463082e+02
3.323832e+06 -2.053654e+02 6.470811e+02
3.323374e+06 -1.975142e+02 5.901289e+02
3.324784e+06 -2.095397e+02 -4.533929e+02
3.324320e+06 -2.014697e+02 5.948531e+02
3.325741e+06 -2.134711e+02 6.574958e+02
3.325275e+06 -2.054056e+02 5.996731e+02
3.326707e+06 -2.175321e+02 6.628582e+02
3.326237e+06 -2.093451e+02 6.045931e+02
3.327683e+06 -2.217179e+02 -4.645537e+02
3.327208e+06 -2.132868e+02 6.096091e+02
3.328666e+06 -2.257871e+02 -4.684184e+02
3.328187e+06 -2.172323e+02 6.147212e+02
3.329658e+06 -2.298655e+02 -4.723562e+02
3.329174e+06 -2.211850e+02 6.199297e+02
3.330656e+06 -2.338385e+02 6.853523e+02
3.330170e+06 -2.251479e+02 6.252353e+02
3.331665e+06 -2.379469e+02 6.912405e+02
3.331175e+06 -2.291244e+02 6.306386e+02
3.332684e+06 -2.420740e+02 6.972360e+02
3.332189e+06 -2.331173e+02 6.361407e+02
3.333711e+06 -2.462209e+02 7.033393e+02
3.333212e+06 -2.371286e+02 6.417427e+02
3.334748e+06 -2.503860e+02 7.095506e+02
3.334245e+06 -2.411581e+02 6.474457e+02
3.335794e+06 -2.545630e+02 7.158693e+02
3.335287e+06 -2.452021e+02 6.532511e+02
3.336853e+06 -2.588513e+02 -5.019944e+02
3.336338e+06 -2.492515e+02 6.591598e+02
3.337916e+06 -2.629016e+02 7.288198e+02
3.337400e+06 -2.532909e+02 6.651685e+02
3.338471e+06 -2.572670e+02 6.712817e+02
3.338995e+06 -2.670710e+02 -5.111029e+02
3.340081e+06 -2.710322e+02 -5.157364e+02
3.339552e+06 -2.611546e+02 6.775119e+02
3.341176e+06 -2.747044e+02 7.489269e+02
3.340644e+06 -2.649382e+02 6.838441e+02
3.342283e+06 -2.781093e+02 7.557529e+02
3.341747e+06 -2.684675e+02 6.902576e+02
3.343404e+06 -2.811047e+02 -5.298131e+02
3.342859e+06 -2.715740e+02 6.967569e+02
3.344532e+06 -2.832496e+02 -5.344666e+02
3.343983e+06 -2.740903e+02 7.033313e+02
3.345672e+06 -2.843262e+02 -5.390313e+02
3.345117e+06 -2.757515e+02 7.099522e+02
3.346819e+06 -2.838571e+02 7.826886e+02
3.346262e+06 -2.762140e+02 7.165855e+02
3.347980e+06 -2.814825e+02 7.889890e+02
3.347417e+06 -2.750392e+02 7.231850e+02
3.349151e+06 -2.765155e+02 7.949227e+02
3.348583e+06 -2.716875e+02 7.296895e+02
3.350331e+06 -2.682610e+02 8.003730e+02
3.349758e+06 -2.655204e+02 7.360226e+02
3.351522e+06 -2.559788e+02 8.052297e+02
3.350943e+06 -2.558226e+02 7.420943e+02
3.352723e+06 -2.390012e+02 -5.605776e+02
3.352137e+06 -2.418548e+02 7.478061e+02
3.353927e+06 -2.166169e+02 8.128640e+02
3.353338e+06 -2.229406e+02 7.530595e+02
3.355142e+06 -1.886609e+02 -5.640033e+02
3.354546e+06 -1.985770e+02 7.577633e+02
3.356360e+06 -1.549109e+02 -5.649748e+02
3.355761e+06 -1.685314e+02 7.618335e+02
3.357583e+06 -1.155230e+02 8.189649e+02
3.356980e+06 -1.328884e+02 7.651885e+02
3.358810e+06 -7.120313e+01 8.195876e+02
3.358203e+06 -9.203465e+01 7.677355e+02
3.359428e+06 -4.655246e+01 7.693833e+02
3.360039e+06 -2.266650e+01 -5.651461e+02
3.360655e+06 2.813665e+00 7.700465e+02
3.361268e+06 2.963439e+01 -5.641618e+02
3.362497e+06 8.483522e+01 -5.625379e+02
3.361881e+06 5.527264e+01 7.696139e+02
3.363726e+06 1.426260e+02 8.131693e+02
3.363105e+06 1.101986e+02 7.679841e+02
3.364948e+06 2.018355e+02 8.087834e+02
3.364326e+06 1.670282e+02 7.651027e+02
3.366164e+06 2.622899e+02 8.030910e+02
3.365541e+06 2.252441e+02 7.609205e+02
3.367370e+06 3.236306e+02 7.960225e+02
3.366748e+06 2.844613e+02 7.553902e+02
3.368566e+06 3.855827e+02 7.875256e+02
3.367946e+06 3.443801e+02 7.484812e+02
3.369741e+06 4.474312e+02 -5.351198e+02
3.369131e+06 4.047740e+02 7.401727e+02
3.370917e+06 5.105634e+02 7.660981e+02
3.370302e+06 4.654782e+02 7.304501e+02
3.372056e+06 5.727595e+02 -5.181143e+02
3.371457e+06 5.263743e+02 7.193041e+02
3.373185e+06 6.355889e+02 -5.080301e+02
3.372593e+06 5.873809e+02 7.067285e+02
3.374304e+06 6.991059e+02 7.225558e+02
3.373707e+06 6.484441e+02 6.927199e+02
3.375387e+06 7.620214e+02 7.049568e+02
3.374798e+06 7.095301e+02 6.772761e+02
3.376428e+06 8.242227e+02 -4.713590e+02
3.375864e+06 7.706193e+02 6.603960e+02
3.377454e+06 8.870939e+02 -4.569839e+02
3.376901e+06 8.317022e+02 6.420784e+02
3.378448e+06 9.499620e+02 -4.415298e+02
3.377908e+06 8.927755e+02 6.223190e+02
3.379823e+06 1.022684e+03 -3.662964e+02
3.378881e+06 9.538610e+02 6.011221e+02
3.380724e+06 1.084235e+03 -3.512699e+02
3.379820e+06 1.014945e+03 5.784975e+02
3.381234e+06 1.139426e+03 5.667077e+02
3.380721e+06 1.075999e+03 5.544316e+02
3.382079e+06 1.202368e+03 5.382078e+02
3.381582e+06 1.137074e+03 5.289117e+02
3.382880e+06 1.265329e+03 5.081458e+02
3.382400e+06 1.198192e+03 5.019498e+02
3.383613e+06 1.327367e+03 -3.260513e+02
3.383174e+06 1.259341e+03 4.735474e+02
3.384342e+06 1.391365e+03 4.433307e+02
3.383901e+06 1.320526e+03 4.436982e+02
3.384974e+06 1.453412e+03 -2.788841e+02
3.384579e+06 1.381747e+03 4.124002e+02
3.385577e+06 1.516467e+03 -2.536782e+02
3.385205e+06 1.442994e+03 3.796513e+02
3.386149e+06 1.580593e+03 3.343951e+02
3.385776e+06 1.504245e+03 3.454502e+02
3.386639e+06 1.643586e+03 2.949823e+02
3.386291e+06 1.565455e+03 3.097968e+02
3.387042e+06 1.705247e+03 -1.716551e+02
3.386747e+06 1.626552e+03 2.726926e+02
3.387408e+06 1.767705e+03 -1.422328e+02
3.387142e+06 1.687422e+03 2.341429e+02
3.387710e+06 1.829620e+03 -1.118183e+02
3.387473e+06 1.747894e+03 1.941577e+02
3.387976e+06 1.891949e+03 1.224073e+02
3.387739e+06 1.807718e+03 1.527547e+02
3.388143e+06 1.951764e+03 7.579066e+01
3.387936e+06 1.866547e+03 1.099623e+02
3.388238e+06 2.009713e+03 2.796669e+01
3.388063e+06 1.923903e+03 6.582386e+01
3.388260e+06 2.065036e+03 -2.091897e+01
3.388119e+06 1.979149e+03 2.040290e+01
3.388012e+06 2.095229e+03 4.220811e+01
3.388100e+06 2.031455e+03 -2.621177e+01
3.388006e+06 2.079779e+03 -7.390607e+01
3.388044e+06 2.162189e+03 8.731154e+01
3.387871e+06 2.204433e+03 -1.719516e+02
3.387835e+06 2.122877e+03 -1.225322e+02
3.387550e+06 2.235858e+03 1.568494e+02
3.387586e+06 2.159293e+03 -1.719033e+02
3.387185e+06 2.259533e+03 1.914713e+02
3.387260e+06 2.187446e+03 -2.218131e+02
3.386777e+06 2.274174e+03 -3.246999e+02
3.386854e+06 2.205805e+03 -2.720491e+02
3.386253e+06 2.275491e+03 -3.752481e+02
3.386370e+06 2.213102e+03 -3.224056e+02
3.385615e+06 2.263019e+03 2.940902e+02
3.385808e+06 2.208562e+03 -3.726968e+02
3.384934e+06 2.240297e+03 3.280556e+02
3.385167e+06 2.192061e+03 -4.227490e+02
3.384176e+06 2.206480e+03 3.619844e+02
3.384449e+06 2.164154e+03 -4.723823e+02
3.383375e+06 2.164396e+03 -5.755331e+02
3.383653e+06 2.125963e+03 -5.213991e+02
3.382462e+06 2.112421e+03 -6.248047e+02
3.382782e+06 2.078955e+03 -5.695874e+02
3.381475e+06 2.053721e+03 -6.733706e+02
3.381835e+06 2.024706e+03 -6.167374e+02
3.380414e+06 1.989755e+03 -7.209830e+02
3.380815e+06 1.964724e+03 -6.626593e+02
3.379282e+06 1.921791e+03 -7.674147e+02
3.379723e+06 1.900342e+03 -7.071941e+02
3.378052e+06 1.849581e+03 5.585101e+02
3.378561e+06 1.832675e+03 -7.502154e+02
3.376815e+06 1.777845e+03 -8.559981e+02
3.377332e+06 1.762621e+03 -7.916283e+02
3.375457e+06 1.702133e+03 6.175752e+02
3.376039e+06 1.690883e+03 -8.313639e+02
3.374067e+06 1.626666e+03 6.453830e+02
3.374683e+06 1.617990e+03 -8.693697e+02
3.371801e+06 1.481256e+03 5.929809e+02
3.373268e+06 1.544305e+03 -9.056205e+02
3.371140e+06 1.475182e+03 -1.012821e+03
3.371796e+06 1.470127e+03 -9.401185e+02
3.369561e+06 1.397310e+03 7.212801e+02
3.370271e+06 1.395724e+03 -9.728381e+02
3.367957e+06 1.320467e+03 7.439964e+02
3.368695e+06 1.321169e+03 -1.003753e+03
3.366306e+06 1.243574e+03 7.653939e+02
3.367071e+06 1.246512e+03 -1.032883e+03
3.364631e+06 1.167613e+03 -1.139840e+03
3.365402e+06 1.171841e+03 -1.060238e+03
3.362895e+06 1.090713e+03 -1.166824e+03
3.363692e+06 1.097183e+03 -1.085816e+03
3.361122e+06 1.013846e+03 -1.191897e+03
3.361942e+06 1.022552e+03 -1.109622e+03
3.359314e+06 9.370124e+02 -1.215062e+03
3.360156e+06 9.479508e+02 -1.131660e+03
3.357474e+06 8.602061e+02 -1.236323e+03
3.358337e+06 8.733767e+02 -1.151937e+03
3.355592e+06 7.826806e+02 8.659744e+02
3.356488e+06 7.988228e+02 -1.170456e+03
3.353711e+06 7.066416e+02 -1.273144e+03
3.354611e+06 7.242803e+02 -1.187224e+03
3.351782e+06 6.292017e+02 8.889401e+02
3.352710e+06 6.497399e+02 -1.202243e+03
3.349845e+06 5.524548e+02 8.984532e+02
3.350787e+06 5.751927e+02 -1.215519e+03
3.347899e+06 4.762797e+02 -1.314182e+03
3.348845e+06 5.006328e+02 -1.227054e+03
3.345928e+06 3.994676e+02 -1.324093e+03
3.346887e+06 4.260566e+02 -1.236852e+03
3.343940e+06 3.221480e+02 9.191532e+02
3.344915e+06 3.514664e+02 -1.244916e+03
3.341950e+06 2.453728e+02 9.234573e+02
3.342933e+06 2.768762e+02 -1.251241e+03
3.340943e+06 2.022655e+02 -1.255839e+03
3.339953e+06 1.686271e+02 9.264662e+02
3.336952e+06 5.357410e+01 7.920985e+02
3.338948e+06 1.277077e+02 -1.258741e+03
3.335953e+06 1.591287e+01 -1.345671e+03
3.336952e+06 5.335666e+01 -1.259928e+03
3.333952e+06 -6.031783e+01 -1.344491e+03
3.334955e+06 -2.078300e+01 -1.259382e+03
3.331956e+06 -1.360645e+02 -1.341541e+03
3.332962e+06 -9.461943e+01 -1.257142e+03
3.329968e+06 -2.111168e+02 -1.336869e+03
3.330974e+06 -1.679134e+02 -1.253235e+03
3.327989e+06 -2.851587e+02 -1.330535e+03
3.328995e+06 -2.404106e+02 -1.247678e+03
3.326027e+06 -3.578744e+02 9.131089e+02
3.327027e+06 -3.117657e+02 -1.240506e+03
3.324070e+06 -4.284455e+02 -1.313230e+03
3.325072e+06 -3.815303e+02 -1.231767e+03
3.322141e+06 -4.965046e+02 8.995560e+02
3.323133e+06 -4.491395e+02 -1.221527e+03
3.320219e+06 -5.612105e+02 -1.290519e+03
3.321212e+06 -5.139048e+02 -1.209866e+03
3.318323e+06 -6.216675e+02 -1.277485e+03
3.319310e+06 -5.750212e+02 -1.196886e+03
3.316460e+06 -6.768116e+02 8.736132e+02
3.317429e+06 -6.316003e+02 -1.182701e+03
3.314612e+06 -7.260724e+02 8.638342e+02
3.315572e+06 -6.827399e+02 -1.167436e+03
3.312789e+06 -7.686540e+02 8.535512e+02
3.313738e+06 -7.276331e+02 -1.151211e+03
3.310981e+06 -8.044249e+02 -1.216737e+03
3.311931e+06 -7.657022e+02 -1.134138e+03
3.309212e+06 -8.328221e+02 -1.199539e+03
3.310149e+06 -7.967074e+02 -1.116320e+03
3.307472e+06 -8.544040e+02 -1.181513e+03
3.308396e+06 -8.207958e+02 -1.097856e+03
3.305761e+06 -8.697746e+02 -1.162693e+03
3.306672e+06 -8.384685e+02 -1.078848e+03
3.303311e+06 -8.639386e+02 6.484370e+02
3.304977e+06 -8.505255e+02 -1.059421e+03
3.302432e+06 -8.853127e+02 -1.123045e+03
3.303313e+06 -8.578222e+02 -1.039718e+03
3.300826e+06 -8.871078e+02 7.658635e+02
3.301680e+06 -8.611800e+02 -1.019832e+03
3.299228e+06 -8.865552e+02 -1.081622e+03
3.300078e+06 -8.615070e+02 -9.998418e+02
3.297687e+06 -8.834224e+02 7.371089e+02
3.298509e+06 -8.595544e+02 -9.798533e+02
3.296153e+06 -8.791989e+02 -1.039458e+03
3.296971e+06 -8.558720e+02 -9.599374e+02
3.294663e+06 -8.736363e+02 -1.018340e+03
3.295464e+06 -8.509384e+02 -9.401334e+02
3.293216e+06 -8.670943e+02 6.934038e+02
3.293990e+06 -8.451193e+02 -9.204694e+02
3.292546e+06 -8.387249e+02 -9.009745e+02
3.291789e+06 -8.602511e+02 6.789003e+02
3.291134e+06 -8.319265e+02 -8.816743e+02
3.290392e+06 -8.530623e+02 6.644818e+02
3.288399e+06 -8.237040e+02 5.249994e+02
3.289753e+06 -8.248422e+02 -8.625657e+02
3.287079e+06 -8.163291e+02 5.133187e+02
3.288402e+06 -8.176096e+02 -8.436474e+02
3.285788e+06 -8.089202e+02 5.017649e+02
3.287081e+06 -8.102972e+02 -8.249268e+02
3.284527e+06 -8.015068e+02 4.903358e+02
3.285790e+06 -8.029512e+02 -8.064040e+02
3.283295e+06 -7.941057e+02 4.790297e+02
3.284529e+06 -7.956012e+02 -7.880776e+02
3.282091e+06 -7.867258e+02 4.678441e+02
3.283297e+06 -7.882633e+02 -7.699457e+02
3.282093e+06 -7.809461e+02 -7.520059e+02
3.281459e+06 -8.002821e+02 5.670715e+02
3.279770e+06 -7.720382e+02 4.458289e+02
3.280919e+06 -7.736528e+02 -7.342560e+02
3.279772e+06 -7.663828e+02 -7.166940e+02
3.279167e+06 -7.852752e+02 5.404775e+02
3.278654e+06 -7.591337e+02 -6.993178e+02
3.278062e+06 -7.778051e+02 5.273874e+02
3.276497e+06 -7.501585e+02 4.136753e+02
3.277563e+06 -7.519025e+02 -6.821261e+02
3.276499e+06 -7.446856e+02 -6.651170e+02
3.275935e+06 -7.629138e+02 5.016164e+02
3.275462e+06 -7.374794e+02 -6.482895e+02
3.274912e+06 -7.554856e+02 4.889336e+02
3.274452e+06 -7.302816e+02 -6.316424e+02
3.273916e+06 -7.480654e+02 4.763848e+02
3.272509e+06 -7.211392e+02 3.723896e+02
3.273468e+06 -7.230899e+02 -6.151747e+02
3.271577e+06 -7.139011e+02 3.623479e+02
3.272511e+06 -7.159039e+02 -5.988857e+02
3.270670e+06 -7.066728e+02 3.524171e+02
3.271579e+06 -7.087244e+02 -5.827744e+02
3.269789e+06 -6.994601e+02 3.425971e+02
3.270672e+06 -7.015542e+02 -5.668403e+02
3.268932e+06 -6.922721e+02 3.328875e+02
3.269791e+06 -6.943990e+02 -5.510822e+02
3.268100e+06 -6.851232e+02 3.232881e+02
3.268934e+06 -6.872681e+02 -5.354990e+02
3.268102e+06 -6.801750e+02 -5.200894e+02
3.267657e+06 -6.964841e+02 3.921931e+02
3.266509e+06 -6.710299e+02 3.044161e+02
3.267294e+06 -6.731393e+02 -5.048515e+02
3.266511e+06 -6.661888e+02 -4.897822e+02
3.266091e+06 -6.821772e+02 3.692438e+02
3.265751e+06 -6.593596e+02 -4.748778e+02
3.265343e+06 -6.752294e+02 3.579308e+02
3.264299e+06 -6.509701e+02 2.769024e+02
3.265014e+06 -6.526997e+02 -4.601333e+02
3.264301e+06 -6.462695e+02 -4.455417e+02
3.263917e+06 -6.620283e+02 3.355847e+02
3.263611e+06 -6.401442e+02 -4.310942e+02
3.263239e+06 -6.559297e+02 3.245292e+02
3.262944e+06 -6.344122e+02 -4.167799e+02
3.262583e+06 -6.502909e+02 3.135355e+02
3.261675e+06 -6.291075e+02 2.415385e+02
3.262299e+06 -6.291737e+02 -4.025860e+02
3.261075e+06 -6.251452e+02 2.328845e+02
3.261677e+06 -6.245337e+02 -3.884983e+02
3.260497e+06 -6.219644e+02 2.242851e+02
3.261077e+06 -6.205930e+02 -3.745024e+02
3.259942e+06 -6.196110e+02 2.157290e+02
3.260499e+06 -6.174322e+02 -3.605844e+02
3.259408e+06 -6.180884e+02 2.072050e+02
3.259944e+06 -6.150979e+02 -3.467320e+02
3.258897e+06 -6.173578e+02 1.987022e+02
3.259410e+06 -6.135935e+02 -3.329333e+02
3.258898e+06 -6.128801e+02 -3.191762e+02
3.258616e+06 -6.307960e+02 2.377782e+02
3.257939e+06 -6.179535e+02 1.817167e+02
3.258408e+06 -6.128814e+02 -3.054470e+02
3.257940e+06 -6.134998e+02 -2.917316e+02
3.257680e+06 -6.319694e+02 2.165305e+02
3.257494e+06 -6.146297e+02 -2.780158e+02
3.257244e+06 -6.333250e+02 2.059524e+02
3.256664e+06 -6.224817e+02 1.561539e+02
3.257069e+06 -6.161698e+02 -2.642866e+02
3.256666e+06 -6.180291e+02 -2.505326e+02
3.256438e+06 -6.370859e+02 1.848265e+02
3.256285e+06 -6.201303e+02 -2.367454e+02
3.256067e+06 -6.393318e+02 1.742561e+02
3.255925e+06 -6.224108e+02 -2.229177e+02
3.255718e+06 -6.417384e+02 1.636683e+02
3.255270e+06 -6.318228e+02 1.216909e+02
3.255587e+06 -6.248207e+02 -2.090442e+02
3.254975e+06 -6.344028e+02 1.129918e+02
3.255271e+06 -6.273213e+02 -1.951214e+02
3.254703e+06 -6.370251e+02 1.042576e+02
3.254977e+06 -6.298843e+02 -1.811464e+02
3.254453e+06 -6.396749e+02 9.548816e+01
3.254705e+06 -6.324888e+02 -1.671175e+02
3.254225e+06 -6.423419e+02 8.668328e+01
3.254455e+06 -6.351200e+02 -1.530333e+02
3.254020e+06 -6.450200e+02 7.784261e+01
3.254227e+06 -6.377679e+02 -1.388931e+02
3.254021e+06 -6.404262e+02 -1.246961e+02
3.253891e+06 -6.603871e+02 8.863590e+01
3.253675e+06 -6.503973e+02 6.005418e+01
3.253838e+06 -6.430919e+02 -1.104419e+02
3.253677e+06 -6.457636e+02 -9.613010e+01
3.253568e+06 -6.658823e+02 6.682726e+01
3.253538e+06 -6.484413e+02 -8.176005e+01
3.253441e+06 -6.686409e+02 5.585520e+01
3.253327e+06 -6.585185e+02 3.310044e+01
3.253422e+06 -6.511268e+02 -6.733147e+01
3.253329e+06 -6.538226e+02 -5.284341e+01
3.253254e+06 -6.741897e+02 3.377211e+01
3.253258e+06 -6.565314e+02 -3.829517e+01
3.253195e+06 -6.769860e+02 2.265979e+01
3.253211e+06 -6.592563e+02 -2.368576e+01
3.253158e+06 -6.798014e+02 1.149930e+01
3.253182e+06 -6.695489e+02 -3.362321e+00
3.253186e+06 -6.620005e+02 -9.014032e+00
3.253203e+06 -6.723580e+02 -1.257694e+01
3.253184e+06 -6.647655e+02 5.721339e+00
3.253248e+06 -6.751859e+02 -2.183350e+01
3.253205e+06 -6.675519e+02 2.052188e+01
3.253316e+06 -6.780248e+02 -3.113333e+01
3.253250e+06 -6.703571e+02 3.538909e+01
3.253407e+06 -6.808591e+02 -4.047822e+01
3.253318e+06 -6.731731e+02 5.032475e+01
3.253522e+06 -6.836623e+02 -4.986973e+01
3.253409e+06 -6.759849e+02 6.532996e+01
3.253524e+06 -6.787666e+02 8.040565e+01
3.253552e+06 -6.999073e+02 -6.796830e+01
3.253823e+06 -6.889862e+02 -6.879851e+01
3.253663e+06 -6.814773e+02 9.555135e+01
3.253825e+06 -6.840548e+02 1.107658e+02
3.253877e+06 -7.051872e+02 -9.102378e+01
3.254011e+06 -6.864076e+02 1.260442e+02
3.254075e+06 -7.074355e+02 -1.025635e+02
3.254453e+06 -6.948137e+02 -9.755769e+01
3.254221e+06 -6.884068e+02 1.413794e+02
3.254455e+06 -6.898740e+02 1.567579e+02
3.254542e+06 -7.103363e+02 -1.255438e+02
3.254713e+06 -6.905690e+02 1.721599e+02
3.254812e+06 -7.104794e+02 -1.369075e+02
3.254995e+06 -6.901745e+02 1.875563e+02
3.255106e+06 -7.092777e+02 -1.481164e+02
3.255628e+06 -6.891104e+02 -1.363490e+02
3.255301e+06 -6.882843e+02 2.029063e+02
3.255980e+06 -6.824720e+02 -1.460046e+02
3.255629e+06 -6.843910e+02 2.181555e+02
3.256354e+06 -6.724720e+02 -1.555671e+02
3.255981e+06 -6.778810e+02 2.332335e+02
3.256751e+06 -6.583384e+02 -1.649778e+02
3.256356e+06 -6.680456e+02 2.480550e+02
3.257168e+06 -6.393026e+02 -1.741667e+02
3.256753e+06 -6.541112e+02 2.625220e+02
3.257170e+06 -6.353019e+02 2.765298e+02
3.257352e+06 -6.406999e+02 -2.077079e+02
3.258063e+06 -5.840445e+02 -1.915660e+02
3.257608e+06 -6.109357e+02 2.899763e+02
3.258064e+06 -5.805375e+02 3.027669e+02
3.258268e+06 -5.779887e+02 -2.231169e+02
3.259029e+06 -5.042412e+02 -2.071216e+02
3.258539e+06 -5.439256e+02 3.148154e+02
3.259030e+06 -5.012481e+02 3.260350e+02
3.259254e+06 -4.905674e+02 -2.363125e+02
3.260056e+06 -4.021215e+02 -2.201893e+02
3.259536e+06 -4.529542e+02 3.363326e+02
3.260057e+06 -3.997079e+02 3.456055e+02
3.260301e+06 -3.816386e+02 -2.473674e+02
3.261134e+06 -2.831417e+02 -2.301781e+02
3.260590e+06 -3.422778e+02 3.537483e+02
3.261134e+06 -2.814388e+02 3.606606e+02
3.261395e+06 -2.569863e+02 -2.558236e+02
3.261688e+06 -2.179036e+02 3.662543e+02
3.261956e+06 -1.905953e+02 -2.588533e+02
3.262248e+06 -1.522896e+02 3.704557e+02
3.262523e+06 -1.223061e+02 -2.609684e+02
3.263383e+06 -1.666164e+01 -2.393586e+02
3.262814e+06 -8.510607e+01 3.732068e+02
3.263952e+06 5.304171e+01 -2.392533e+02
3.263383e+06 -1.675882e+01 3.744627e+02
3.263952e+06 5.244161e+01 3.741900e+02
3.264240e+06 8.970181e+01 -2.611563e+02
3.265084e+06 1.941947e+02 -2.360825e+02
3.264520e+06 1.222665e+02 3.723639e+02
3.265083e+06 1.925546e+02 3.689661e+02
3.265373e+06 2.343256e+02 -2.556840e+02
3.266189e+06 3.368484e+02 -2.289318e+02
3.265640e+06 2.631988e+02 3.639825e+02
3.266187e+06 3.341363e+02 3.574013e+02
3.266476e+06 3.803452e+02 -2.454589e+02
3.267247e+06 4.805957e+02 -2.177681e+02
3.266724e+06 4.053364e+02 3.492115e+02
3.267753e+06 5.528610e+02 -2.106677e+02
3.267246e+06 4.767901e+02 3.394031e+02
3.267751e+06 5.485022e+02 3.279642e+02
3.268027e+06 6.014403e+02 -2.209209e+02
3.268703e+06 6.981887e+02 -1.933886e+02
3.268237e+06 6.204784e+02 3.148822e+02
3.268701e+06 6.927124e+02 3.001434e+02
3.268963e+06 7.502011e+02 -1.983252e+02
3.269141e+06 7.651689e+02 2.837333e+02
3.269394e+06 8.249075e+02 -1.851570e+02
3.269553e+06 8.377603e+02 2.656383e+02
3.269796e+06 8.996786e+02 -1.707628e+02
3.270290e+06 9.902366e+02 -1.461660e+02
3.269936e+06 9.103172e+02 2.458466e+02
3.270605e+06 1.062180e+03 -1.316345e+02
3.270287e+06 9.825450e+02 2.243539e+02
3.270602e+06 1.053971e+03 2.011664e+02
3.270806e+06 1.121130e+03 -1.207102e+02
3.271123e+06 1.200293e+03 -9.922518e+01
3.270880e+06 1.123874e+03 1.763099e+02
3.271119e+06 1.191192e+03 1.498398e+02
3.271290e+06 1.259073e+03 -8.273822e+01
3.271473e+06 1.321035e+03 -6.244055e+01
3.271316e+06 1.254407e+03 1.218564e+02
3.271469e+06 1.311412e+03 9.252400e+01
3.271604e+06 1.374856e+03 -4.332150e+01
3.271646e+06 1.403798e+03 -2.179893e+01
3.271578e+06 1.359342e+03 6.209603e+01
3.271666e+06 1.420479e+03 -4.345093e-01
3.271642e+06 1.394393e+03 3.094668e+01
3.271662e+06 1.411626e+03 -3.921030e-01
3.271734e+06 1.448288e+03 9.361963e+00
3.271581e+06 1.372614e+03 4.271136e+01
3.271639e+06 1.404787e+03 -3.118889e+01
3.271578e+06 1.366178e+03 -6.047171e+01
3.271605e+06 1.361102e+03 2.953323e+01
3.271484e+06 1.286651e+03 -8.699579e+01
3.271488e+06 1.250485e+03 3.128384e+01
3.271366e+06 1.155862e+03 -1.092432e+02
3.271349e+06 1.080943e+03 2.562183e+01
3.271099e+06 6.933660e+02 1.105473e+02
3.271234e+06 9.629765e+02 -1.254891e+02
3.270974e+06 3.456449e+02 1.181079e+02
3.271100e+06 6.980264e+02 -1.340453e+02
3.270980e+06 3.515756e+02 -1.331913e+02
3.270915e+06 1.080179e+02 -4.155184e+01
3.270795e+06 -7.117913e+02 1.101359e+02
3.270887e+06 -1.072202e+02 -1.225750e+02
